
     Program PWSCF v.6.6 starts on 28Sep2021 at  9:37: 5 

     This program is part of the open-source Quantum ESPRESSO suite
     for quantum simulation of materials; please cite
         "P. Giannozzi et al., J. Phys.:Condens. Matter 21 395502 (2009);
         "P. Giannozzi et al., J. Phys.:Condens. Matter 29 465901 (2017);
          URL http://www.quantum-espresso.org", 
     in publications or presentations arising from this work. More details at
     http://www.quantum-espresso.org/quote

     Parallel version (MPI), running on   160 processors

     MPI processes distributed on     4 nodes
     K-points division:     npool     =       4
     R & G space division:  proc/nbgrp/npool/nimage =      40
     Fft bands division:     nmany     =       1
     Reading input from bands.in

     Current dimensions of program PWSCF are:
     Max number of different atomic species (ntypx) = 10
     Max number of k-points (npk) =  40000
     Max angular momentum in pseudopotentials (lmaxx) =  3

     Atomic positions and unit cell read from directory:
     ./temp/cspbbr3.save/
 
     Message from routine scan_end:
     No INFO block end statement, possibly corrupted file
     Message from routine scan_end:
     No INFO block end statement, possibly corrupted file
     Message from routine scan_end:
     No INFO block end statement, possibly corrupted file

     Subspace diagonalization in iterative solution of the eigenvalue problem:
     one sub-group per band group will be used
     scalapack distributed-memory algorithm (size of sub-group:  6*  6 procs)

 
     Parallelization info
     --------------------
     sticks:   dense  smooth     PW     G-vecs:    dense   smooth      PW
     Min         213     213     56                14783    14783    2030
     Max         214     214     57                14786    14786    2037
     Sum        8521    8521   2253               591361   591361   81313
 


     bravais-lattice index     =            0
     lattice parameter (alat)  =      22.6851  a.u.
     unit-cell volume          =   11674.1042 (a.u.)^3
     number of atoms/cell      =           40
     number of atomic types    =            3
     number of electrons       =       352.00
     number of Kohn-Sham states=          500
     kinetic-energy cutoff     =      52.0000  Ry
     charge density cutoff     =     208.0000  Ry
     Exchange-correlation= SLA  PW   PBE  PBE
                           (   1   4   3   4   0   0   0)
     Non magnetic calculation with spin-orbit


     celldm(1)=  22.685126  celldm(2)=   0.000000  celldm(3)=   0.000000
     celldm(4)=   0.000000  celldm(5)=   0.000000  celldm(6)=   0.000000

     crystal axes: (cart. coord. in units of alat)
               a(1) = (   1.000000   0.000000   0.000000 )  
               a(2) = (   0.000000   1.000000   0.000000 )  
               a(3) = (   0.000000   0.000000   1.000000 )  

     reciprocal axes: (cart. coord. in units 2 pi/alat)
               b(1) = (  1.000000  0.000000  0.000000 )  
               b(2) = (  0.000000  1.000000  0.000000 )  
               b(3) = (  0.000000  0.000000  1.000000 )  


     PseudoPot. # 1 for Cs read from file:
     ../cs_frl_gga.upf
     MD5 check sum: a448e0e7e3712c417dccd39c3bf63eee
     Pseudo is Norm-conserving, Zval =  9.0
     Generated by new atomic code, or converted to UPF format
     Using radial grid of 1179 points,  5 beta functions with: 
                l(1) =   0
                l(2) =   1
                l(3) =   1
                l(4) =   2
                l(5) =   2

     PseudoPot. # 2 for Pb read from file:
     ../pb_frl_gga.upf
     MD5 check sum: 00b12db5c119af3e4e38a6ffd441034c
     Pseudo is Norm-conserving, Zval = 14.0
     Generated by new atomic code, or converted to UPF format
     Using radial grid of 1189 points,  4 beta functions with: 
                l(1) =   1
                l(2) =   1
                l(3) =   2
                l(4) =   2

     PseudoPot. # 3 for Br read from file:
     ../br_frl_gga.upf
     MD5 check sum: f268a9c02328c3f23b9552d0430e2dda
     Pseudo is Norm-conserving, Zval =  7.0
     Generated by new atomic code, or converted to UPF format
     Using radial grid of 1167 points,  3 beta functions with: 
                l(1) =   0
                l(2) =   1
                l(3) =   1

     atomic species   valence    mass     pseudopotential
        Cs             9.00   132.90543     Cs( 1.00)
        Pb            14.00   207.20000     Pb( 1.00)
        Br             7.00    79.90400     Br( 1.00)

     No symmetry found


                                    s                        frac. trans.

      isym =  1     identity                                     

 cryst.   s( 1) = (     1          0          0      )
                  (     0          1          0      )
                  (     0          0          1      )

 cart.    s( 1) = (  1.0000000  0.0000000  0.0000000 )
                  (  0.0000000  1.0000000  0.0000000 )
                  (  0.0000000  0.0000000  1.0000000 )


   Cartesian axes

     site n.     atom                  positions (alat units)
         1           Cs  tau(   1) = (  -0.0255019   0.0129532  -0.0575515  )
         2           Cs  tau(   2) = (   0.4682932  -0.0280124   0.0013057  )
         3           Cs  tau(   3) = (   0.0086076   0.5359597   0.0213044  )
         4           Cs  tau(   4) = (   0.4751891   0.4829223   0.0147193  )
         5           Cs  tau(   5) = (   0.0040965   0.0258684   0.5102410  )
         6           Cs  tau(   6) = (   0.5136276   0.0223618   0.4779807  )
         7           Cs  tau(   7) = (   0.0264235   0.4980255   0.5360775  )
         8           Cs  tau(   8) = (   0.4934026   0.4725697   0.4716722  )
         9           Pb  tau(   9) = (   0.2624849   0.2592746   0.2268015  )
        10           Pb  tau(  10) = (   0.7658932   0.2386641   0.2401206  )
        11           Pb  tau(  11) = (   0.2536680   0.7584242   0.2838265  )
        12           Pb  tau(  12) = (   0.7461377   0.7441417   0.2369775  )
        13           Pb  tau(  13) = (   0.2599326   0.2459401   0.7326391  )
        14           Pb  tau(  14) = (   0.7565955   0.2596147   0.7354963  )
        15           Pb  tau(  15) = (   0.2282025   0.7496233   0.7649346  )
        16           Pb  tau(  16) = (   0.7224040   0.7297152   0.7521453  )
        17           Br  tau(  17) = (   0.2868046   0.2426520  -0.0067901  )
        18           Br  tau(  18) = (   0.7195286   0.2291042  -0.0038923  )
        19           Br  tau(  19) = (   0.2073945   0.8062282   0.0142374  )
        20           Br  tau(  20) = (   0.7739158   0.7769607  -0.0018249  )
        21           Br  tau(  21) = (   0.2618889   0.2517064   0.4982934  )
        22           Br  tau(  22) = (   0.7731697   0.2950279   0.4880423  )
        23           Br  tau(  23) = (   0.2691160   0.7020953   0.5153195  )
        24           Br  tau(  24) = (   0.7023406   0.7264009   0.5084958  )
        25           Br  tau(  25) = (   0.2591840  -0.0046063   0.3158409  )
        26           Br  tau(  26) = (   0.7519944  -0.0032558   0.2739056  )
        27           Br  tau(  27) = (   0.2468129   0.5051899   0.2553011  )
        28           Br  tau(  28) = (   0.7538971   0.4872057   0.1912342  )
        29           Br  tau(  29) = (   0.2862655  -0.0082670   0.7320405  )
        30           Br  tau(  30) = (   0.7156357   0.0066251   0.7667314  )
        31           Br  tau(  31) = (   0.2341555   0.4974444   0.7681019  )
        32           Br  tau(  32) = (   0.8150235   0.5178107   0.7730110  )
        33           Br  tau(  33) = (   0.0296413   0.2113840   0.2286431  )
        34           Br  tau(  34) = (   0.5129058   0.2576917   0.2864968  )
        35           Br  tau(  35) = (  -0.0008473   0.7156222   0.2843603  )
        36           Br  tau(  36) = (   0.4879062   0.7428467   0.2140072  )
        37           Br  tau(  37) = (   0.0085350   0.2309381   0.7426121  )
        38           Br  tau(  38) = (   0.5100428   0.3114961   0.7323320  )
        39           Br  tau(  39) = (  -0.0110398   0.7980742   0.7309277  )
        40           Br  tau(  40) = (   0.4770795   0.7080835   0.7937877  )

   Crystallographic axes

     site n.     atom                  positions (cryst. coord.)
         1           Cs  tau(   1) = ( -0.0255019  0.0129532 -0.0575515  )
         2           Cs  tau(   2) = (  0.4682932 -0.0280124  0.0013057  )
         3           Cs  tau(   3) = (  0.0086076  0.5359597  0.0213044  )
         4           Cs  tau(   4) = (  0.4751891  0.4829223  0.0147193  )
         5           Cs  tau(   5) = (  0.0040965  0.0258684  0.5102410  )
         6           Cs  tau(   6) = (  0.5136276  0.0223618  0.4779807  )
         7           Cs  tau(   7) = (  0.0264235  0.4980255  0.5360775  )
         8           Cs  tau(   8) = (  0.4934026  0.4725697  0.4716722  )
         9           Pb  tau(   9) = (  0.2624849  0.2592746  0.2268015  )
        10           Pb  tau(  10) = (  0.7658932  0.2386641  0.2401206  )
        11           Pb  tau(  11) = (  0.2536680  0.7584242  0.2838265  )
        12           Pb  tau(  12) = (  0.7461377  0.7441417  0.2369775  )
        13           Pb  tau(  13) = (  0.2599326  0.2459401  0.7326391  )
        14           Pb  tau(  14) = (  0.7565955  0.2596147  0.7354963  )
        15           Pb  tau(  15) = (  0.2282025  0.7496233  0.7649346  )
        16           Pb  tau(  16) = (  0.7224040  0.7297152  0.7521453  )
        17           Br  tau(  17) = (  0.2868046  0.2426520 -0.0067901  )
        18           Br  tau(  18) = (  0.7195286  0.2291042 -0.0038923  )
        19           Br  tau(  19) = (  0.2073945  0.8062282  0.0142374  )
        20           Br  tau(  20) = (  0.7739158  0.7769607 -0.0018249  )
        21           Br  tau(  21) = (  0.2618889  0.2517064  0.4982934  )
        22           Br  tau(  22) = (  0.7731697  0.2950279  0.4880423  )
        23           Br  tau(  23) = (  0.2691160  0.7020953  0.5153195  )
        24           Br  tau(  24) = (  0.7023406  0.7264009  0.5084958  )
        25           Br  tau(  25) = (  0.2591840 -0.0046063  0.3158409  )
        26           Br  tau(  26) = (  0.7519944 -0.0032558  0.2739056  )
        27           Br  tau(  27) = (  0.2468129  0.5051899  0.2553011  )
        28           Br  tau(  28) = (  0.7538971  0.4872057  0.1912342  )
        29           Br  tau(  29) = (  0.2862655 -0.0082670  0.7320405  )
        30           Br  tau(  30) = (  0.7156357  0.0066251  0.7667314  )
        31           Br  tau(  31) = (  0.2341555  0.4974444  0.7681019  )
        32           Br  tau(  32) = (  0.8150235  0.5178107  0.7730110  )
        33           Br  tau(  33) = (  0.0296413  0.2113840  0.2286431  )
        34           Br  tau(  34) = (  0.5129058  0.2576917  0.2864968  )
        35           Br  tau(  35) = ( -0.0008473  0.7156222  0.2843603  )
        36           Br  tau(  36) = (  0.4879062  0.7428467  0.2140072  )
        37           Br  tau(  37) = (  0.0085350  0.2309381  0.7426121  )
        38           Br  tau(  38) = (  0.5100428  0.3114961  0.7323320  )
        39           Br  tau(  39) = ( -0.0110398  0.7980742  0.7309277  )
        40           Br  tau(  40) = (  0.4770795  0.7080835  0.7937877  )

     number of k points=    60  Fermi-Dirac smearing, width (Ry)=  0.0020
                       cart. coord. in units 2pi/alat
        k(    1) = (   0.0000000   0.0000000   0.0000000), wk =   0.0166667
        k(    2) = (   0.0250000   0.0250000   0.0250000), wk =   0.0166667
        k(    3) = (   0.0500000   0.0500000   0.0500000), wk =   0.0166667
        k(    4) = (   0.0750000   0.0750000   0.0750000), wk =   0.0166667
        k(    5) = (   0.1000000   0.1000000   0.1000000), wk =   0.0166667
        k(    6) = (   0.1250000   0.1250000   0.1250000), wk =   0.0166667
        k(    7) = (   0.1500000   0.1500000   0.1500000), wk =   0.0166667
        k(    8) = (   0.1750000   0.1750000   0.1750000), wk =   0.0166667
        k(    9) = (   0.2000000   0.2000000   0.2000000), wk =   0.0166667
        k(   10) = (   0.2250000   0.2250000   0.2250000), wk =   0.0166667
        k(   11) = (   0.2500000   0.2500000   0.2500000), wk =   0.0166667
        k(   12) = (   0.2750000   0.2750000   0.2750000), wk =   0.0166667
        k(   13) = (   0.3000000   0.3000000   0.3000000), wk =   0.0166667
        k(   14) = (   0.3250000   0.3250000   0.3250000), wk =   0.0166667
        k(   15) = (   0.3500000   0.3500000   0.3500000), wk =   0.0166667
        k(   16) = (   0.3750000   0.3750000   0.3750000), wk =   0.0166667
        k(   17) = (   0.4000000   0.4000000   0.4000000), wk =   0.0166667
        k(   18) = (   0.4250000   0.4250000   0.4250000), wk =   0.0166667
        k(   19) = (   0.4500000   0.4500000   0.4500000), wk =   0.0166667
        k(   20) = (   0.4750000   0.4750000   0.4750000), wk =   0.0166667
        k(   21) = (   0.5000000   0.5000000   0.5000000), wk =   0.0166667
        k(   22) = (   0.5000000   0.4750000   0.4750000), wk =   0.0166667
        k(   23) = (   0.5000000   0.4500000   0.4500000), wk =   0.0166667
        k(   24) = (   0.5000000   0.4250000   0.4250000), wk =   0.0166667
        k(   25) = (   0.5000000   0.4000000   0.4000000), wk =   0.0166667
        k(   26) = (   0.5000000   0.3750000   0.3750000), wk =   0.0166667
        k(   27) = (   0.5000000   0.3500000   0.3500000), wk =   0.0166667
        k(   28) = (   0.5000000   0.3250000   0.3250000), wk =   0.0166667
        k(   29) = (   0.5000000   0.3000000   0.3000000), wk =   0.0166667
        k(   30) = (   0.5000000   0.2750000   0.2750000), wk =   0.0166667
        k(   31) = (   0.5000000   0.2500000   0.2500000), wk =   0.0166667
        k(   32) = (   0.5000000   0.2250000   0.2250000), wk =   0.0166667
        k(   33) = (   0.5000000   0.2000000   0.2000000), wk =   0.0166667
        k(   34) = (   0.5000000   0.1750000   0.1750000), wk =   0.0166667
        k(   35) = (   0.5000000   0.1500000   0.1500000), wk =   0.0166667
        k(   36) = (   0.5000000   0.1250000   0.1250000), wk =   0.0166667
        k(   37) = (   0.5000000   0.1000000   0.1000000), wk =   0.0166667
        k(   38) = (   0.5000000   0.0750000   0.0750000), wk =   0.0166667
        k(   39) = (   0.5000000   0.0500000   0.0500000), wk =   0.0166667
        k(   40) = (   0.5000000   0.0250000   0.0250000), wk =   0.0166667
        k(   41) = (   0.5000000   0.0000000   0.0000000), wk =   0.0166667
        k(   42) = (   0.4750000   0.0000000   0.0000000), wk =   0.0166667
        k(   43) = (   0.4500000   0.0000000   0.0000000), wk =   0.0166667
        k(   44) = (   0.4250000   0.0000000   0.0000000), wk =   0.0166667
        k(   45) = (   0.4000000   0.0000000   0.0000000), wk =   0.0166667
        k(   46) = (   0.3750000   0.0000000   0.0000000), wk =   0.0166667
        k(   47) = (   0.3500000   0.0000000   0.0000000), wk =   0.0166667
        k(   48) = (   0.3250000   0.0000000   0.0000000), wk =   0.0166667
        k(   49) = (   0.3000000   0.0000000   0.0000000), wk =   0.0166667
        k(   50) = (   0.2750000   0.0000000   0.0000000), wk =   0.0166667
        k(   51) = (   0.2500000   0.0000000   0.0000000), wk =   0.0166667
        k(   52) = (   0.2250000   0.0000000   0.0000000), wk =   0.0166667
        k(   53) = (   0.2000000   0.0000000   0.0000000), wk =   0.0166667
        k(   54) = (   0.1750000   0.0000000   0.0000000), wk =   0.0166667
        k(   55) = (   0.1500000   0.0000000   0.0000000), wk =   0.0166667
        k(   56) = (   0.1250000   0.0000000   0.0000000), wk =   0.0166667
        k(   57) = (   0.1000000   0.0000000   0.0000000), wk =   0.0166667
        k(   58) = (   0.0750000   0.0000000   0.0000000), wk =   0.0166667
        k(   59) = (   0.0500000   0.0000000   0.0000000), wk =   0.0166667
        k(   60) = (   0.0250000   0.0000000   0.0000000), wk =   0.0166667

                       cryst. coord.
        k(    1) = (   0.0000000   0.0000000   0.0000000), wk =   0.0166667
        k(    2) = (   0.0250000   0.0250000   0.0250000), wk =   0.0166667
        k(    3) = (   0.0500000   0.0500000   0.0500000), wk =   0.0166667
        k(    4) = (   0.0750000   0.0750000   0.0750000), wk =   0.0166667
        k(    5) = (   0.1000000   0.1000000   0.1000000), wk =   0.0166667
        k(    6) = (   0.1250000   0.1250000   0.1250000), wk =   0.0166667
        k(    7) = (   0.1500000   0.1500000   0.1500000), wk =   0.0166667
        k(    8) = (   0.1750000   0.1750000   0.1750000), wk =   0.0166667
        k(    9) = (   0.2000000   0.2000000   0.2000000), wk =   0.0166667
        k(   10) = (   0.2250000   0.2250000   0.2250000), wk =   0.0166667
        k(   11) = (   0.2500000   0.2500000   0.2500000), wk =   0.0166667
        k(   12) = (   0.2750000   0.2750000   0.2750000), wk =   0.0166667
        k(   13) = (   0.3000000   0.3000000   0.3000000), wk =   0.0166667
        k(   14) = (   0.3250000   0.3250000   0.3250000), wk =   0.0166667
        k(   15) = (   0.3500000   0.3500000   0.3500000), wk =   0.0166667
        k(   16) = (   0.3750000   0.3750000   0.3750000), wk =   0.0166667
        k(   17) = (   0.4000000   0.4000000   0.4000000), wk =   0.0166667
        k(   18) = (   0.4250000   0.4250000   0.4250000), wk =   0.0166667
        k(   19) = (   0.4500000   0.4500000   0.4500000), wk =   0.0166667
        k(   20) = (   0.4750000   0.4750000   0.4750000), wk =   0.0166667
        k(   21) = (   0.5000000   0.5000000   0.5000000), wk =   0.0166667
        k(   22) = (   0.5000000   0.4750000   0.4750000), wk =   0.0166667
        k(   23) = (   0.5000000   0.4500000   0.4500000), wk =   0.0166667
        k(   24) = (   0.5000000   0.4250000   0.4250000), wk =   0.0166667
        k(   25) = (   0.5000000   0.4000000   0.4000000), wk =   0.0166667
        k(   26) = (   0.5000000   0.3750000   0.3750000), wk =   0.0166667
        k(   27) = (   0.5000000   0.3500000   0.3500000), wk =   0.0166667
        k(   28) = (   0.5000000   0.3250000   0.3250000), wk =   0.0166667
        k(   29) = (   0.5000000   0.3000000   0.3000000), wk =   0.0166667
        k(   30) = (   0.5000000   0.2750000   0.2750000), wk =   0.0166667
        k(   31) = (   0.5000000   0.2500000   0.2500000), wk =   0.0166667
        k(   32) = (   0.5000000   0.2250000   0.2250000), wk =   0.0166667
        k(   33) = (   0.5000000   0.2000000   0.2000000), wk =   0.0166667
        k(   34) = (   0.5000000   0.1750000   0.1750000), wk =   0.0166667
        k(   35) = (   0.5000000   0.1500000   0.1500000), wk =   0.0166667
        k(   36) = (   0.5000000   0.1250000   0.1250000), wk =   0.0166667
        k(   37) = (   0.5000000   0.1000000   0.1000000), wk =   0.0166667
        k(   38) = (   0.5000000   0.0750000   0.0750000), wk =   0.0166667
        k(   39) = (   0.5000000   0.0500000   0.0500000), wk =   0.0166667
        k(   40) = (   0.5000000   0.0250000   0.0250000), wk =   0.0166667
        k(   41) = (   0.5000000   0.0000000   0.0000000), wk =   0.0166667
        k(   42) = (   0.4750000   0.0000000   0.0000000), wk =   0.0166667
        k(   43) = (   0.4500000   0.0000000   0.0000000), wk =   0.0166667
        k(   44) = (   0.4250000   0.0000000   0.0000000), wk =   0.0166667
        k(   45) = (   0.4000000   0.0000000   0.0000000), wk =   0.0166667
        k(   46) = (   0.3750000   0.0000000   0.0000000), wk =   0.0166667
        k(   47) = (   0.3500000   0.0000000   0.0000000), wk =   0.0166667
        k(   48) = (   0.3250000   0.0000000   0.0000000), wk =   0.0166667
        k(   49) = (   0.3000000   0.0000000   0.0000000), wk =   0.0166667
        k(   50) = (   0.2750000   0.0000000   0.0000000), wk =   0.0166667
        k(   51) = (   0.2500000   0.0000000   0.0000000), wk =   0.0166667
        k(   52) = (   0.2250000   0.0000000   0.0000000), wk =   0.0166667
        k(   53) = (   0.2000000   0.0000000   0.0000000), wk =   0.0166667
        k(   54) = (   0.1750000   0.0000000   0.0000000), wk =   0.0166667
        k(   55) = (   0.1500000   0.0000000   0.0000000), wk =   0.0166667
        k(   56) = (   0.1250000   0.0000000   0.0000000), wk =   0.0166667
        k(   57) = (   0.1000000   0.0000000   0.0000000), wk =   0.0166667
        k(   58) = (   0.0750000   0.0000000   0.0000000), wk =   0.0166667
        k(   59) = (   0.0500000   0.0000000   0.0000000), wk =   0.0166667
        k(   60) = (   0.0250000   0.0000000   0.0000000), wk =   0.0166667

     Dense  grid:   591361 G-vectors     FFT dimensions: ( 108, 108, 108)

     Dynamical RAM for                 wfc:      28.20 MB

     Dynamical RAM for     wfc (w. buffer):      28.20 MB

     Dynamical RAM for           str. fact:       0.68 MB

     Dynamical RAM for           local pot:       0.00 MB

     Dynamical RAM for          nlocal pot:      12.18 MB

     Dynamical RAM for                qrad:       2.48 MB

     Dynamical RAM for          rho,v,vnew:       5.91 MB

     Dynamical RAM for           G-vectors:       0.96 MB

     Dynamical RAM for          h,s,v(r/c):       1.26 MB

     Dynamical RAM for          <psi|beta>:       6.59 MB

     Dynamical RAM for                 psi:      56.40 MB

     Dynamical RAM for                hpsi:      56.40 MB

     Dynamical RAM for      wfcinit/wfcrot:      48.02 MB

     Estimated static dynamical RAM per process >      53.45 MB

     Estimated max dynamical RAM per process >     174.09 MB

     Estimated total dynamical RAM >      27.20 GB

     The potential is recalculated from file :
     ./temp/cspbbr3.save/charge-density

     Starting wfcs are  480 randomized atomic wfcs +   20 random wfcs

     Band Structure Calculation
     Davidson diagonalization with overlap

     Computing kpt #:     1  of    15 on this pool
     c_bands:  4 eigenvalues not converged
     total cpu time spent up to now is      139.4 secs

     Computing kpt #:     2  of    15 on this pool
     c_bands:  4 eigenvalues not converged
     total cpu time spent up to now is      278.6 secs

     Computing kpt #:     3  of    15 on this pool
     c_bands:  4 eigenvalues not converged
     total cpu time spent up to now is      415.9 secs

     Computing kpt #:     4  of    15 on this pool
     c_bands:  3 eigenvalues not converged
     total cpu time spent up to now is      551.4 secs

     Computing kpt #:     5  of    15 on this pool
     c_bands:  3 eigenvalues not converged
     total cpu time spent up to now is      686.3 secs

     Computing kpt #:     6  of    15 on this pool
     c_bands:  2 eigenvalues not converged
     total cpu time spent up to now is      820.9 secs

     Computing kpt #:     7  of    15 on this pool
     c_bands:  2 eigenvalues not converged
     total cpu time spent up to now is      954.5 secs

     Computing kpt #:     8  of    15 on this pool
     c_bands:  2 eigenvalues not converged
     total cpu time spent up to now is     1088.0 secs

     Computing kpt #:     9  of    15 on this pool
     c_bands:  4 eigenvalues not converged
     total cpu time spent up to now is     1220.6 secs

     Computing kpt #:    10  of    15 on this pool
     c_bands:  4 eigenvalues not converged
     total cpu time spent up to now is     1354.2 secs

     Computing kpt #:    11  of    15 on this pool
     c_bands:  4 eigenvalues not converged
     total cpu time spent up to now is     1487.6 secs

     Computing kpt #:    12  of    15 on this pool
     c_bands:  2 eigenvalues not converged
     total cpu time spent up to now is     1622.3 secs

     Computing kpt #:    13  of    15 on this pool
     c_bands:  2 eigenvalues not converged
     total cpu time spent up to now is     1756.6 secs

     Computing kpt #:    14  of    15 on this pool
     c_bands:  2 eigenvalues not converged
     total cpu time spent up to now is     1891.1 secs

     Computing kpt #:    15  of    15 on this pool
     c_bands:  2 eigenvalues not converged
     total cpu time spent up to now is     2025.9 secs

     ethr =  2.84E-12,  avg # of iterations =120.0

     total cpu time spent up to now is     2025.9 secs

     End of band structure calculation

          k = 0.0000 0.0000 0.0000 ( 73885 PWs)   bands (ev):

   -18.1281 -18.1281 -18.0397 -18.0397 -17.9993 -17.9993 -17.9954 -17.9954
   -17.9651 -17.9651 -17.9608 -17.9608 -17.8047 -17.8047 -17.7796 -17.7796
   -15.3216 -15.3216 -15.3009 -15.3009 -15.2537 -15.2537 -15.2486 -15.2486
   -15.2401 -15.2401 -15.2350 -15.2350 -15.2229 -15.2229 -15.2149 -15.2149
   -15.1847 -15.1847 -15.1674 -15.1674 -15.0949 -15.0949 -15.0876 -15.0876
   -15.0735 -15.0735 -15.0685 -15.0685 -15.0092 -15.0092 -15.0005 -15.0005
   -12.7950 -12.7950 -12.7768 -12.7768 -12.7706 -12.7706 -12.7311 -12.7311
   -12.7274 -12.7274 -12.7189 -12.7189 -12.7127 -12.7127 -12.6990 -12.6990
   -12.6849 -12.6849 -12.6573 -12.6573 -12.6560 -12.6560 -12.6443 -12.6443
   -12.6406 -12.6406 -12.6336 -12.6336 -12.5939 -12.5939 -12.5900 -12.5900
   -12.5692 -12.5692 -12.5639 -12.5639 -12.5360 -12.5360 -12.5049 -12.5049
   -12.4982 -12.4982 -12.4909 -12.4909 -12.4876 -12.4876 -12.4173 -12.4173
   -11.4157 -11.4157 -11.3305 -11.3305 -11.2596 -11.2596 -11.2425 -11.2425
   -11.1877 -11.1877 -11.1550 -11.1550 -11.0946 -11.0946 -11.0742 -11.0742
   -11.0620 -11.0620 -11.0248 -11.0248 -11.0117 -11.0117 -10.9887 -10.9887
   -10.9763 -10.9763 -10.9123 -10.9123 -10.8936 -10.8936 -10.8707 -10.8707
   -10.8263 -10.8263 -10.7855 -10.7855 -10.7557 -10.7557 -10.6850 -10.6850
   -10.6403 -10.6403 -10.6283 -10.6283 -10.5719 -10.5719 -10.5355 -10.5355
    -6.0981  -6.0981  -6.0136  -6.0136  -5.9779  -5.9779  -5.9714  -5.9714
    -5.9413  -5.9413  -5.9349  -5.9349  -5.7957  -5.7957  -5.7734  -5.7734
    -5.3488  -5.3488  -4.9448  -4.9448  -4.8981  -4.8981  -4.8644  -4.8644
    -4.5063  -4.5063  -4.4934  -4.4934  -4.4707  -4.4707  -4.4613  -4.4613
    -4.4347  -4.4347  -4.4107  -4.4107  -4.3963  -4.3963  -4.3825  -4.3825
    -4.3757  -4.3757  -4.3653  -4.3653  -4.3544  -4.3544  -4.3465  -4.3465
    -4.3406  -4.3406  -4.3185  -4.3185  -4.3128  -4.3128  -4.2147  -4.2147
    -4.1895  -4.1895  -4.1864  -4.1864  -4.1748  -4.1748  -3.9513  -3.9513
    -1.0120  -1.0120  -0.8401  -0.8401  -0.7792  -0.7792  -0.7400  -0.7400
    -0.6962  -0.6962  -0.6488  -0.6488  -0.6006  -0.6006  -0.5417  -0.5417
    -0.5021  -0.5021  -0.4620  -0.4620  -0.3760  -0.3760  -0.3282  -0.3282
     0.2308   0.2308   0.2920   0.2920   0.3029   0.3029   0.4277   0.4277
     0.4630   0.4630   0.5003   0.5003   0.5225   0.5225   0.5352   0.5352
     0.6055   0.6055   0.6459   0.6459   0.6780   0.6780   0.7204   0.7204
     0.7697   0.7697   0.7915   0.7915   0.8169   0.8169   0.8279   0.8279
     0.8591   0.8591   0.8810   0.8810   0.8968   0.8968   0.9231   0.9231
     0.9456   0.9456   0.9601   0.9601   0.9789   0.9789   1.0004   1.0004
     1.0256   1.0256   1.0466   1.0466   1.0614   1.0614   1.0817   1.0817
     1.1007   1.1007   1.1135   1.1135   1.1313   1.1313   1.1534   1.1534
     1.1761   1.1761   1.1870   1.1870   1.2128   1.2128   1.2276   1.2276
     1.2567   1.2567   1.2852   1.2852   1.3037   1.3037   1.3261   1.3261
     1.3633   1.3633   1.3778   1.3778   1.4066   1.4066   1.4210   1.4210
     1.4623   1.4623   1.4842   1.4842   1.5274   1.5274   1.5492   1.5492
     1.5805   1.5805   1.6173   1.6173   1.6430   1.6430   1.6796   1.6796
     1.7137   1.7137   1.7945   1.7945   1.8267   1.8267   1.9168   1.9168
     2.1946   2.1946   2.2436   2.2436   2.2739   2.2739   2.6665   2.6665
     3.7850   3.7850   4.3466   4.3466   4.4709   4.4709   4.5705   4.5705
     5.1136   5.1136   5.2081   5.2081   5.2583   5.2583   5.3625   5.3625
     5.4050   5.4050   5.6801   5.6801   5.7205   5.7205   5.7605   5.7605
     6.4726   6.4726   6.8096   6.8096   7.1790   7.1790   7.2970   7.2970
     7.3864   7.3864   7.4980   7.4980   7.5577   7.5577   7.6647   7.6647
     7.7022   7.7022   7.7517   7.7517   7.8309   7.8309   7.8721   7.8721
     7.9374   7.9374   7.9731   7.9731   8.0568   8.0568   8.1428   8.1428
     8.1990   8.1990   8.2126   8.2126   8.2905   8.2905   8.3218   8.3218
     8.3528   8.3528   8.3893   8.3893   8.4224   8.4224   8.4643   8.4643
     8.4946   8.4946   8.5176   8.5176   8.5546   8.5546   8.5713   8.5713
     8.5986   8.5986   8.6334   8.6334   8.6652   8.6652   8.7231   8.7231
     8.7550   8.7550   8.7885   8.7885   8.8481   8.8481   8.8641   8.8641
     8.8726   8.8726   8.9493   8.9493   8.9791   8.9791   8.9962   8.9962
     9.0349   9.0349   9.1417   9.1417   9.1822   9.1822   9.2273   9.2273
     9.2520   9.2520   9.3020   9.3020   9.3193   9.3193   9.3604   9.3604
     9.4076   9.4076   9.4466   9.4466   9.5064   9.5064   9.5236   9.5236
     9.5633   9.5633   9.5842   9.5842   9.6189   9.6189   9.6465   9.6465
     9.6826   9.6826   9.7024   9.7024   9.7375   9.7375   9.7795   9.7795
     9.8262   9.8262   9.8387   9.8387

     occupation numbers 
     1.0000   1.0000   1.0000   1.0000   1.0000   1.0000   1.0000   1.0000
     1.0000   1.0000   1.0000   1.0000   1.0000   1.0000   1.0000   1.0000
     1.0000   1.0000   1.0000   1.0000   1.0000   1.0000   1.0000   1.0000
     1.0000   1.0000   1.0000   1.0000   1.0000   1.0000   1.0000   1.0000
     1.0000   1.0000   1.0000   1.0000   1.0000   1.0000   1.0000   1.0000
     1.0000   1.0000   1.0000   1.0000   1.0000   1.0000   1.0000   1.0000
     1.0000   1.0000   1.0000   1.0000   1.0000   1.0000   1.0000   1.0000
     1.0000   1.0000   1.0000   1.0000   1.0000   1.0000   1.0000   1.0000
     1.0000   1.0000   1.0000   1.0000   1.0000   1.0000   1.0000   1.0000
     1.0000   1.0000   1.0000   1.0000   1.0000   1.0000   1.0000   1.0000
     1.0000   1.0000   1.0000   1.0000   1.0000   1.0000   1.0000   1.0000
     1.0000   1.0000   1.0000   1.0000   1.0000   1.0000   1.0000   1.0000
     1.0000   1.0000   1.0000   1.0000   1.0000   1.0000   1.0000   1.0000
     1.0000   1.0000   1.0000   1.0000   1.0000   1.0000   1.0000   1.0000
     1.0000   1.0000   1.0000   1.0000   1.0000   1.0000   1.0000   1.0000
     1.0000   1.0000   1.0000   1.0000   1.0000   1.0000   1.0000   1.0000
     1.0000   1.0000   1.0000   1.0000   1.0000   1.0000   1.0000   1.0000
     1.0000   1.0000   1.0000   1.0000   1.0000   1.0000   1.0000   1.0000
     1.0000   1.0000   1.0000   1.0000   1.0000   1.0000   1.0000   1.0000
     1.0000   1.0000   1.0000   1.0000   1.0000   1.0000   1.0000   1.0000
     1.0000   1.0000   1.0000   1.0000   1.0000   1.0000   1.0000   1.0000
     1.0000   1.0000   1.0000   1.0000   1.0000   1.0000   1.0000   1.0000
     1.0000   1.0000   1.0000   1.0000   1.0000   1.0000   1.0000   1.0000
     1.0000   1.0000   1.0000   1.0000   1.0000   1.0000   1.0000   1.0000
     1.0000   1.0000   1.0000   1.0000   1.0000   1.0000   1.0000   1.0000
     1.0000   1.0000   1.0000   1.0000   1.0000   1.0000   1.0000   1.0000
     1.0000   1.0000   1.0000   1.0000   1.0000   1.0000   1.0000   1.0000
     1.0000   1.0000   1.0000   1.0000   1.0000   1.0000   1.0000   1.0000
     1.0000   1.0000   1.0000   1.0000   1.0000   1.0000   1.0000   1.0000
     1.0000   1.0000   1.0000   1.0000   1.0000   1.0000   1.0000   1.0000
     1.0000   1.0000   1.0000   1.0000   1.0000   1.0000   1.0000   1.0000
     1.0000   1.0000   1.0000   1.0000   1.0000   1.0000   1.0000   1.0000
     1.0000   1.0000   1.0000   1.0000   1.0000   1.0000   1.0000   1.0000
     1.0000   1.0000   1.0000   1.0000   1.0000   1.0000   1.0000   1.0000
     1.0000   1.0000   1.0000   1.0000   1.0000   1.0000   1.0000   1.0000
     1.0000   1.0000   1.0000   1.0000   1.0000   1.0000   1.0000   1.0000
     1.0000   1.0000   1.0000   1.0000   1.0000   1.0000   1.0000   1.0000
     1.0000   1.0000   1.0000   1.0000   1.0000   1.0000   1.0000   1.0000
     1.0000   1.0000   1.0000   1.0000   1.0000   1.0000   1.0000   1.0000
     1.0000   1.0000   1.0000   1.0000   1.0000   1.0000   1.0000   1.0000
     1.0000   1.0000   1.0000   1.0000   1.0000   1.0000   1.0000   1.0000
     1.0000   1.0000   1.0000   1.0000   1.0000   1.0000   1.0000   1.0000
     1.0000   1.0000   1.0000   1.0000   1.0000   1.0000   1.0000   1.0000
     1.0000   1.0000   1.0000   1.0000   1.0000   1.0000   1.0000   1.0000
     0.0000   0.0000   0.0000   0.0000   0.0000   0.0000   0.0000   0.0000
     0.0000   0.0000   0.0000   0.0000   0.0000   0.0000   0.0000   0.0000
     0.0000   0.0000   0.0000   0.0000   0.0000   0.0000   0.0000   0.0000
     0.0000   0.0000   0.0000   0.0000   0.0000   0.0000   0.0000   0.0000
     0.0000   0.0000   0.0000   0.0000   0.0000   0.0000   0.0000   0.0000
     0.0000   0.0000   0.0000   0.0000   0.0000   0.0000   0.0000   0.0000
     0.0000   0.0000   0.0000   0.0000   0.0000   0.0000   0.0000   0.0000
     0.0000   0.0000   0.0000   0.0000   0.0000   0.0000   0.0000   0.0000
     0.0000   0.0000   0.0000   0.0000   0.0000   0.0000   0.0000   0.0000
     0.0000   0.0000   0.0000   0.0000   0.0000   0.0000   0.0000   0.0000
     0.0000   0.0000   0.0000   0.0000   0.0000   0.0000   0.0000   0.0000
     0.0000   0.0000   0.0000   0.0000   0.0000   0.0000   0.0000   0.0000
     0.0000   0.0000   0.0000   0.0000   0.0000   0.0000   0.0000   0.0000
     0.0000   0.0000   0.0000   0.0000   0.0000   0.0000   0.0000   0.0000
     0.0000   0.0000   0.0000   0.0000   0.0000   0.0000   0.0000   0.0000
     0.0000   0.0000   0.0000   0.0000   0.0000   0.0000   0.0000   0.0000
     0.0000   0.0000   0.0000   0.0000   0.0000   0.0000   0.0000   0.0000
     0.0000   0.0000   0.0000   0.0000   0.0000   0.0000   0.0000   0.0000
     0.0000   0.0000   0.0000   0.0000

          k = 0.0250 0.0250 0.0250 ( 73897 PWs)   bands (ev):

   -18.1281 -18.1281 -18.0397 -18.0397 -17.9993 -17.9993 -17.9954 -17.9954
   -17.9651 -17.9651 -17.9608 -17.9608 -17.8047 -17.8047 -17.7796 -17.7796
   -15.3216 -15.3216 -15.3009 -15.3009 -15.2537 -15.2536 -15.2487 -15.2486
   -15.2402 -15.2401 -15.2350 -15.2350 -15.2229 -15.2229 -15.2149 -15.2149
   -15.1847 -15.1847 -15.1674 -15.1674 -15.0949 -15.0949 -15.0876 -15.0876
   -15.0735 -15.0734 -15.0685 -15.0685 -15.0092 -15.0092 -15.0005 -15.0005
   -12.7950 -12.7948 -12.7769 -12.7765 -12.7706 -12.7705 -12.7313 -12.7309
   -12.7274 -12.7274 -12.7191 -12.7187 -12.7129 -12.7125 -12.6990 -12.6988
   -12.6849 -12.6848 -12.6573 -12.6573 -12.6561 -12.6560 -12.6445 -12.6442
   -12.6406 -12.6406 -12.6336 -12.6335 -12.5940 -12.5938 -12.5900 -12.5899
   -12.5693 -12.5692 -12.5640 -12.5638 -12.5361 -12.5360 -12.5050 -12.5048
   -12.4982 -12.4981 -12.4910 -12.4909 -12.4877 -12.4876 -12.4173 -12.4173
   -11.4156 -11.4155 -11.3309 -11.3307 -11.2596 -11.2594 -11.2427 -11.2425
   -11.1883 -11.1878 -11.1555 -11.1551 -11.0946 -11.0941 -11.0751 -11.0738
   -11.0616 -11.0609 -11.0251 -11.0250 -11.0123 -11.0116 -10.9887 -10.9885
   -10.9762 -10.9753 -10.9125 -10.9122 -10.8937 -10.8934 -10.8708 -10.8702
   -10.8264 -10.8262 -10.7856 -10.7853 -10.7559 -10.7557 -10.6850 -10.6849
   -10.6404 -10.6402 -10.6283 -10.6282 -10.5722 -10.5720 -10.5356 -10.5355
    -6.0981  -6.0981  -6.0136  -6.0135  -5.9779  -5.9778  -5.9715  -5.9714
    -5.9415  -5.9411  -5.9352  -5.9348  -5.7957  -5.7957  -5.7735  -5.7734
    -5.3472  -5.3471  -4.9445  -4.9444  -4.8981  -4.8979  -4.8642  -4.8639
    -4.5067  -4.5062  -4.4946  -4.4928  -4.4727  -4.4698  -4.4629  -4.4615
    -4.4360  -4.4344  -4.4118  -4.4100  -4.3967  -4.3958  -4.3833  -4.3820
    -4.3761  -4.3754  -4.3655  -4.3651  -4.3546  -4.3544  -4.3467  -4.3464
    -4.3409  -4.3403  -4.3187  -4.3184  -4.3129  -4.3128  -4.2148  -4.2147
    -4.1896  -4.1894  -4.1866  -4.1862  -4.1749  -4.1748  -3.9542  -3.9540
    -1.0174  -1.0027  -0.8422  -0.8345  -0.7814  -0.7734  -0.7386  -0.7358
    -0.6964  -0.6920  -0.6501  -0.6441  -0.6007  -0.5962  -0.5415  -0.5377
    -0.5023  -0.4988  -0.4627  -0.4580  -0.3778  -0.3709  -0.3276  -0.3259
     0.2291   0.2330   0.2903   0.2944   0.3016   0.3054   0.4255   0.4287
     0.4590   0.4647   0.4971   0.5008   0.5183   0.5247   0.5334   0.5358
     0.5993   0.6098   0.6415   0.6477   0.6753   0.6785   0.7163   0.7217
     0.7637   0.7703   0.7868   0.7956   0.8108   0.8194   0.8245   0.8322
     0.8532   0.8614   0.8750   0.8848   0.8939   0.9018   0.9210   0.9247
     0.9399   0.9489   0.9571   0.9597   0.9772   0.9826   0.9983   1.0023
     1.0217   1.0296   1.0430   1.0487   1.0561   1.0642   1.0744   1.0877
     1.0972   1.1048   1.1096   1.1171   1.1303   1.1322   1.1493   1.1576
     1.1723   1.1775   1.1860   1.1908   1.2076   1.2180   1.2275   1.2280
     1.2520   1.2602   1.2836   1.2863   1.3013   1.3064   1.3233   1.3289
     1.3599   1.3658   1.3754   1.3815   1.4002   1.4118   1.4183   1.4238
     1.4610   1.4643   1.4811   1.4874   1.5245   1.5289   1.5454   1.5520
     1.5778   1.5820   1.6134   1.6206   1.6408   1.6443   1.6760   1.6826
     1.7112   1.7149   1.7915   1.7946   1.8241   1.8270   1.9112   1.9225
     2.1868   2.1946   2.2366   2.2424   2.2692   2.2742   2.6573   2.6617
     3.7819   3.8042   4.3473   4.3557   4.4748   4.4754   4.5655   4.5848
     5.1129   5.1198   5.2054   5.2169   5.2559   5.2672   5.3616   5.3707
     5.4059   5.4137   5.6787   5.6881   5.7209   5.7280   5.7589   5.7707
     6.4759   6.4764   6.8023   6.8109   7.1711   7.1818   7.2921   7.2959
     7.3809   7.3856   7.4918   7.4980   7.5520   7.5588   7.6609   7.6683
     7.7007   7.7032   7.7475   7.7546   7.8237   7.8341   7.8661   7.8762
     7.9302   7.9412   7.9698   7.9741   8.0505   8.0599   8.1351   8.1450
     8.1869   8.1986   8.2095   8.2210   8.2787   8.2987   8.3183   8.3250
     8.3501   8.3547   8.3848   8.3905   8.4197   8.4234   8.4557   8.4691
     8.4858   8.5027   8.5120   8.5230   8.5485   8.5534   8.5663   8.5787
     8.5970   8.6049   8.6319   8.6346   8.6626   8.6690   8.7154   8.7323
     8.7533   8.7567   8.7829   8.7918   8.8426   8.8505   8.8600   8.8665
     8.8701   8.8769   8.9431   8.9524   8.9743   8.9768   8.9928   8.9948
     9.0289   9.0377   9.1362   9.1396   9.1728   9.1828   9.2186   9.2272
     9.2449   9.2626   9.2911   9.3031   9.3114   9.3187   9.3592   9.3648
     9.4041   9.4141   9.4476   9.4502   9.4976   9.5069   9.5229   9.5309
     9.5535   9.5637   9.5734   9.5945   9.6107   9.6228   9.6409   9.6587
     9.6772   9.6824   9.6980   9.7065   9.7324   9.7410   9.7664   9.7785
     9.8139   9.8218   9.8338   9.8424

     occupation numbers 
     1.0000   1.0000   1.0000   1.0000   1.0000   1.0000   1.0000   1.0000
     1.0000   1.0000   1.0000   1.0000   1.0000   1.0000   1.0000   1.0000
     1.0000   1.0000   1.0000   1.0000   1.0000   1.0000   1.0000   1.0000
     1.0000   1.0000   1.0000   1.0000   1.0000   1.0000   1.0000   1.0000
     1.0000   1.0000   1.0000   1.0000   1.0000   1.0000   1.0000   1.0000
     1.0000   1.0000   1.0000   1.0000   1.0000   1.0000   1.0000   1.0000
     1.0000   1.0000   1.0000   1.0000   1.0000   1.0000   1.0000   1.0000
     1.0000   1.0000   1.0000   1.0000   1.0000   1.0000   1.0000   1.0000
     1.0000   1.0000   1.0000   1.0000   1.0000   1.0000   1.0000   1.0000
     1.0000   1.0000   1.0000   1.0000   1.0000   1.0000   1.0000   1.0000
     1.0000   1.0000   1.0000   1.0000   1.0000   1.0000   1.0000   1.0000
     1.0000   1.0000   1.0000   1.0000   1.0000   1.0000   1.0000   1.0000
     1.0000   1.0000   1.0000   1.0000   1.0000   1.0000   1.0000   1.0000
     1.0000   1.0000   1.0000   1.0000   1.0000   1.0000   1.0000   1.0000
     1.0000   1.0000   1.0000   1.0000   1.0000   1.0000   1.0000   1.0000
     1.0000   1.0000   1.0000   1.0000   1.0000   1.0000   1.0000   1.0000
     1.0000   1.0000   1.0000   1.0000   1.0000   1.0000   1.0000   1.0000
     1.0000   1.0000   1.0000   1.0000   1.0000   1.0000   1.0000   1.0000
     1.0000   1.0000   1.0000   1.0000   1.0000   1.0000   1.0000   1.0000
     1.0000   1.0000   1.0000   1.0000   1.0000   1.0000   1.0000   1.0000
     1.0000   1.0000   1.0000   1.0000   1.0000   1.0000   1.0000   1.0000
     1.0000   1.0000   1.0000   1.0000   1.0000   1.0000   1.0000   1.0000
     1.0000   1.0000   1.0000   1.0000   1.0000   1.0000   1.0000   1.0000
     1.0000   1.0000   1.0000   1.0000   1.0000   1.0000   1.0000   1.0000
     1.0000   1.0000   1.0000   1.0000   1.0000   1.0000   1.0000   1.0000
     1.0000   1.0000   1.0000   1.0000   1.0000   1.0000   1.0000   1.0000
     1.0000   1.0000   1.0000   1.0000   1.0000   1.0000   1.0000   1.0000
     1.0000   1.0000   1.0000   1.0000   1.0000   1.0000   1.0000   1.0000
     1.0000   1.0000   1.0000   1.0000   1.0000   1.0000   1.0000   1.0000
     1.0000   1.0000   1.0000   1.0000   1.0000   1.0000   1.0000   1.0000
     1.0000   1.0000   1.0000   1.0000   1.0000   1.0000   1.0000   1.0000
     1.0000   1.0000   1.0000   1.0000   1.0000   1.0000   1.0000   1.0000
     1.0000   1.0000   1.0000   1.0000   1.0000   1.0000   1.0000   1.0000
     1.0000   1.0000   1.0000   1.0000   1.0000   1.0000   1.0000   1.0000
     1.0000   1.0000   1.0000   1.0000   1.0000   1.0000   1.0000   1.0000
     1.0000   1.0000   1.0000   1.0000   1.0000   1.0000   1.0000   1.0000
     1.0000   1.0000   1.0000   1.0000   1.0000   1.0000   1.0000   1.0000
     1.0000   1.0000   1.0000   1.0000   1.0000   1.0000   1.0000   1.0000
     1.0000   1.0000   1.0000   1.0000   1.0000   1.0000   1.0000   1.0000
     1.0000   1.0000   1.0000   1.0000   1.0000   1.0000   1.0000   1.0000
     1.0000   1.0000   1.0000   1.0000   1.0000   1.0000   1.0000   1.0000
     1.0000   1.0000   1.0000   1.0000   1.0000   1.0000   1.0000   1.0000
     1.0000   1.0000   1.0000   1.0000   1.0000   1.0000   1.0000   1.0000
     1.0000   1.0000   1.0000   1.0000   1.0000   1.0000   1.0000   1.0000
     0.0000   0.0000   0.0000   0.0000   0.0000   0.0000   0.0000   0.0000
     0.0000   0.0000   0.0000   0.0000   0.0000   0.0000   0.0000   0.0000
     0.0000   0.0000   0.0000   0.0000   0.0000   0.0000   0.0000   0.0000
     0.0000   0.0000   0.0000   0.0000   0.0000   0.0000   0.0000   0.0000
     0.0000   0.0000   0.0000   0.0000   0.0000   0.0000   0.0000   0.0000
     0.0000   0.0000   0.0000   0.0000   0.0000   0.0000   0.0000   0.0000
     0.0000   0.0000   0.0000   0.0000   0.0000   0.0000   0.0000   0.0000
     0.0000   0.0000   0.0000   0.0000   0.0000   0.0000   0.0000   0.0000
     0.0000   0.0000   0.0000   0.0000   0.0000   0.0000   0.0000   0.0000
     0.0000   0.0000   0.0000   0.0000   0.0000   0.0000   0.0000   0.0000
     0.0000   0.0000   0.0000   0.0000   0.0000   0.0000   0.0000   0.0000
     0.0000   0.0000   0.0000   0.0000   0.0000   0.0000   0.0000   0.0000
     0.0000   0.0000   0.0000   0.0000   0.0000   0.0000   0.0000   0.0000
     0.0000   0.0000   0.0000   0.0000   0.0000   0.0000   0.0000   0.0000
     0.0000   0.0000   0.0000   0.0000   0.0000   0.0000   0.0000   0.0000
     0.0000   0.0000   0.0000   0.0000   0.0000   0.0000   0.0000   0.0000
     0.0000   0.0000   0.0000   0.0000   0.0000   0.0000   0.0000   0.0000
     0.0000   0.0000   0.0000   0.0000   0.0000   0.0000   0.0000   0.0000
     0.0000   0.0000   0.0000   0.0000

          k = 0.0500 0.0500 0.0500 ( 73812 PWs)   bands (ev):

   -18.1281 -18.1281 -18.0397 -18.0397 -17.9993 -17.9993 -17.9954 -17.9954
   -17.9651 -17.9651 -17.9608 -17.9608 -17.8047 -17.8047 -17.7796 -17.7796
   -15.3216 -15.3216 -15.3009 -15.3009 -15.2537 -15.2536 -15.2487 -15.2486
   -15.2402 -15.2401 -15.2351 -15.2350 -15.2229 -15.2229 -15.2149 -15.2149
   -15.1847 -15.1847 -15.1674 -15.1674 -15.0949 -15.0949 -15.0876 -15.0876
   -15.0735 -15.0734 -15.0685 -15.0685 -15.0092 -15.0092 -15.0005 -15.0005
   -12.7950 -12.7945 -12.7769 -12.7761 -12.7706 -12.7704 -12.7315 -12.7307
   -12.7274 -12.7273 -12.7195 -12.7187 -12.7132 -12.7124 -12.6990 -12.6986
   -12.6849 -12.6847 -12.6573 -12.6573 -12.6561 -12.6560 -12.6448 -12.6442
   -12.6408 -12.6406 -12.6336 -12.6335 -12.5941 -12.5937 -12.5900 -12.5899
   -12.5694 -12.5691 -12.5639 -12.5637 -12.5363 -12.5360 -12.5051 -12.5048
   -12.4982 -12.4981 -12.4910 -12.4909 -12.4878 -12.4876 -12.4173 -12.4172
   -11.4151 -11.4148 -11.3320 -11.3316 -11.2594 -11.2591 -11.2430 -11.2425
   -11.1895 -11.1885 -11.1563 -11.1555 -11.0941 -11.0934 -11.0762 -11.0739
   -11.0598 -11.0586 -11.0260 -11.0259 -11.0134 -11.0121 -10.9883 -10.9881
   -10.9750 -10.9735 -10.9127 -10.9122 -10.8935 -10.8929 -10.8705 -10.8692
   -10.8266 -10.8261 -10.7857 -10.7851 -10.7563 -10.7559 -10.6850 -10.6847
   -10.6405 -10.6402 -10.6283 -10.6281 -10.5728 -10.5725 -10.5359 -10.5358
    -6.0981  -6.0981  -6.0136  -6.0135  -5.9778  -5.9777  -5.9715  -5.9714
    -5.9417  -5.9408  -5.9354  -5.9346  -5.7958  -5.7957  -5.7735  -5.7734
    -5.3425  -5.3421  -4.9435  -4.9432  -4.8977  -4.8974  -4.8632  -4.8627
    -4.5074  -4.5063  -4.4967  -4.4929  -4.4758  -4.4700  -4.4660  -4.4634
    -4.4382  -4.4352  -4.4132  -4.4098  -4.3971  -4.3953  -4.3841  -4.3816
    -4.3764  -4.3751  -4.3656  -4.3649  -4.3548  -4.3545  -4.3471  -4.3464
    -4.3413  -4.3401  -4.3190  -4.3183  -4.3131  -4.3128  -4.2150  -4.2147
    -4.1897  -4.1893  -4.1869  -4.1860  -4.1750  -4.1749  -3.9626  -3.9622
    -1.0186  -0.9898  -0.8404  -0.8257  -0.7792  -0.7648  -0.7314  -0.7265
    -0.6927  -0.6840  -0.6479  -0.6362  -0.5965  -0.5875  -0.5370  -0.5295
    -0.4992  -0.4924  -0.4600  -0.4509  -0.3761  -0.3626  -0.3240  -0.3206
     0.2279   0.2357   0.2894   0.2971   0.3015   0.3090   0.4220   0.4282
     0.4527   0.4646   0.4921   0.4977   0.5140   0.5228   0.5306   0.5361
     0.5919   0.6115   0.6353   0.6458   0.6713   0.6759   0.7094   0.7206
     0.7545   0.7658   0.7807   0.7955   0.8047   0.8157   0.8227   0.8356
     0.8475   0.8597   0.8708   0.8824   0.8925   0.9077   0.9179   0.9257
     0.9365   0.9434   0.9523   0.9599   0.9767   0.9843   0.9983   1.0023
     1.0180   1.0318   1.0387   1.0481   1.0507   1.0646   1.0692   1.0894
     1.0938   1.1057   1.1101   1.1195   1.1300   1.1326   1.1465   1.1597
     1.1704   1.1751   1.1874   1.1953   1.2041   1.2216   1.2271   1.2287
     1.2478   1.2616   1.2822   1.2858   1.3006   1.3091   1.3208   1.3315
     1.3564   1.3662   1.3754   1.3855   1.3937   1.4126   1.4189   1.4261
     1.4599   1.4674   1.4789   1.4903   1.5211   1.5280   1.5419   1.5535
     1.5748   1.5819   1.6088   1.6231   1.6382   1.6443   1.6722   1.6848
     1.7077   1.7148   1.7861   1.7914   1.8199   1.8243   1.9061   1.9274
     2.1717   2.1863   2.2231   2.2325   2.2609   2.2693   2.6351   2.6429
     3.7951   3.8382   4.3580   4.3743   4.4866   4.4883   4.5708   4.6079
     5.1172   5.1315   5.2087   5.2310   5.2600   5.2826   5.3685   5.3860
     5.4163   5.4319   5.6844   5.7019   5.7304   5.7427   5.7664   5.7887
     6.4860   6.4869   6.7894   6.8063   7.1581   7.1790   7.2813   7.2888
     7.3693   7.3787   7.4797   7.4918   7.5414   7.5553   7.6558   7.6710
     7.6987   7.7038   7.7433   7.7555   7.8133   7.8328   7.8582   7.8783
     7.9208   7.9409   7.9642   7.9731   8.0415   8.0598   8.1229   8.1409
     8.1714   8.1860   8.2077   8.2287   8.2660   8.3001   8.3150   8.3276
     8.3457   8.3561   8.3787   8.3876   8.4175   8.4199   8.4456   8.4671
     8.4808   8.5007   8.5125   8.5196   8.5434   8.5470   8.5676   8.5858
     8.6004   8.6108   8.6296   8.6373   8.6622   8.6745   8.7126   8.7383
     8.7507   8.7590   8.7761   8.7925   8.8359   8.8501   8.8547   8.8651
     8.8700   8.8815   8.9350   8.9504   8.9629   8.9702   8.9858   8.9884
     9.0216   9.0373   9.1241   9.1311   9.1580   9.1721   9.2071   9.2161
     9.2453   9.2607   9.2791   9.2953   9.3026   9.3170   9.3559   9.3683
     9.4010   9.4192   9.4492   9.4566   9.4883   9.5051   9.5237   9.5329
     9.5449   9.5519   9.5690   9.5889   9.6075   9.6290   9.6391   9.6616
     9.6682   9.6816   9.6923   9.7088   9.7253   9.7449   9.7544   9.7648
     9.8007   9.8127   9.8321   9.8394

     occupation numbers 
     1.0000   1.0000   1.0000   1.0000   1.0000   1.0000   1.0000   1.0000
     1.0000   1.0000   1.0000   1.0000   1.0000   1.0000   1.0000   1.0000
     1.0000   1.0000   1.0000   1.0000   1.0000   1.0000   1.0000   1.0000
     1.0000   1.0000   1.0000   1.0000   1.0000   1.0000   1.0000   1.0000
     1.0000   1.0000   1.0000   1.0000   1.0000   1.0000   1.0000   1.0000
     1.0000   1.0000   1.0000   1.0000   1.0000   1.0000   1.0000   1.0000
     1.0000   1.0000   1.0000   1.0000   1.0000   1.0000   1.0000   1.0000
     1.0000   1.0000   1.0000   1.0000   1.0000   1.0000   1.0000   1.0000
     1.0000   1.0000   1.0000   1.0000   1.0000   1.0000   1.0000   1.0000
     1.0000   1.0000   1.0000   1.0000   1.0000   1.0000   1.0000   1.0000
     1.0000   1.0000   1.0000   1.0000   1.0000   1.0000   1.0000   1.0000
     1.0000   1.0000   1.0000   1.0000   1.0000   1.0000   1.0000   1.0000
     1.0000   1.0000   1.0000   1.0000   1.0000   1.0000   1.0000   1.0000
     1.0000   1.0000   1.0000   1.0000   1.0000   1.0000   1.0000   1.0000
     1.0000   1.0000   1.0000   1.0000   1.0000   1.0000   1.0000   1.0000
     1.0000   1.0000   1.0000   1.0000   1.0000   1.0000   1.0000   1.0000
     1.0000   1.0000   1.0000   1.0000   1.0000   1.0000   1.0000   1.0000
     1.0000   1.0000   1.0000   1.0000   1.0000   1.0000   1.0000   1.0000
     1.0000   1.0000   1.0000   1.0000   1.0000   1.0000   1.0000   1.0000
     1.0000   1.0000   1.0000   1.0000   1.0000   1.0000   1.0000   1.0000
     1.0000   1.0000   1.0000   1.0000   1.0000   1.0000   1.0000   1.0000
     1.0000   1.0000   1.0000   1.0000   1.0000   1.0000   1.0000   1.0000
     1.0000   1.0000   1.0000   1.0000   1.0000   1.0000   1.0000   1.0000
     1.0000   1.0000   1.0000   1.0000   1.0000   1.0000   1.0000   1.0000
     1.0000   1.0000   1.0000   1.0000   1.0000   1.0000   1.0000   1.0000
     1.0000   1.0000   1.0000   1.0000   1.0000   1.0000   1.0000   1.0000
     1.0000   1.0000   1.0000   1.0000   1.0000   1.0000   1.0000   1.0000
     1.0000   1.0000   1.0000   1.0000   1.0000   1.0000   1.0000   1.0000
     1.0000   1.0000   1.0000   1.0000   1.0000   1.0000   1.0000   1.0000
     1.0000   1.0000   1.0000   1.0000   1.0000   1.0000   1.0000   1.0000
     1.0000   1.0000   1.0000   1.0000   1.0000   1.0000   1.0000   1.0000
     1.0000   1.0000   1.0000   1.0000   1.0000   1.0000   1.0000   1.0000
     1.0000   1.0000   1.0000   1.0000   1.0000   1.0000   1.0000   1.0000
     1.0000   1.0000   1.0000   1.0000   1.0000   1.0000   1.0000   1.0000
     1.0000   1.0000   1.0000   1.0000   1.0000   1.0000   1.0000   1.0000
     1.0000   1.0000   1.0000   1.0000   1.0000   1.0000   1.0000   1.0000
     1.0000   1.0000   1.0000   1.0000   1.0000   1.0000   1.0000   1.0000
     1.0000   1.0000   1.0000   1.0000   1.0000   1.0000   1.0000   1.0000
     1.0000   1.0000   1.0000   1.0000   1.0000   1.0000   1.0000   1.0000
     1.0000   1.0000   1.0000   1.0000   1.0000   1.0000   1.0000   1.0000
     1.0000   1.0000   1.0000   1.0000   1.0000   1.0000   1.0000   1.0000
     1.0000   1.0000   1.0000   1.0000   1.0000   1.0000   1.0000   1.0000
     1.0000   1.0000   1.0000   1.0000   1.0000   1.0000   1.0000   1.0000
     1.0000   1.0000   1.0000   1.0000   1.0000   1.0000   1.0000   1.0000
     0.0000   0.0000   0.0000   0.0000   0.0000   0.0000   0.0000   0.0000
     0.0000   0.0000   0.0000   0.0000   0.0000   0.0000   0.0000   0.0000
     0.0000   0.0000   0.0000   0.0000   0.0000   0.0000   0.0000   0.0000
     0.0000   0.0000   0.0000   0.0000   0.0000   0.0000   0.0000   0.0000
     0.0000   0.0000   0.0000   0.0000   0.0000   0.0000   0.0000   0.0000
     0.0000   0.0000   0.0000   0.0000   0.0000   0.0000   0.0000   0.0000
     0.0000   0.0000   0.0000   0.0000   0.0000   0.0000   0.0000   0.0000
     0.0000   0.0000   0.0000   0.0000   0.0000   0.0000   0.0000   0.0000
     0.0000   0.0000   0.0000   0.0000   0.0000   0.0000   0.0000   0.0000
     0.0000   0.0000   0.0000   0.0000   0.0000   0.0000   0.0000   0.0000
     0.0000   0.0000   0.0000   0.0000   0.0000   0.0000   0.0000   0.0000
     0.0000   0.0000   0.0000   0.0000   0.0000   0.0000   0.0000   0.0000
     0.0000   0.0000   0.0000   0.0000   0.0000   0.0000   0.0000   0.0000
     0.0000   0.0000   0.0000   0.0000   0.0000   0.0000   0.0000   0.0000
     0.0000   0.0000   0.0000   0.0000   0.0000   0.0000   0.0000   0.0000
     0.0000   0.0000   0.0000   0.0000   0.0000   0.0000   0.0000   0.0000
     0.0000   0.0000   0.0000   0.0000   0.0000   0.0000   0.0000   0.0000
     0.0000   0.0000   0.0000   0.0000   0.0000   0.0000   0.0000   0.0000
     0.0000   0.0000   0.0000   0.0000

          k = 0.0750 0.0750 0.0750 ( 73827 PWs)   bands (ev):

   -18.1281 -18.1281 -18.0397 -18.0397 -17.9993 -17.9993 -17.9954 -17.9954
   -17.9651 -17.9651 -17.9608 -17.9608 -17.8047 -17.8047 -17.7796 -17.7796
   -15.3216 -15.3216 -15.3009 -15.3009 -15.2537 -15.2535 -15.2488 -15.2486
   -15.2402 -15.2401 -15.2351 -15.2350 -15.2229 -15.2229 -15.2149 -15.2149
   -15.1848 -15.1847 -15.1674 -15.1674 -15.0949 -15.0949 -15.0876 -15.0876
   -15.0735 -15.0734 -15.0685 -15.0685 -15.0092 -15.0092 -15.0005 -15.0005
   -12.7948 -12.7942 -12.7768 -12.7756 -12.7706 -12.7703 -12.7316 -12.7306
   -12.7274 -12.7272 -12.7200 -12.7189 -12.7134 -12.7123 -12.6989 -12.6984
   -12.6848 -12.6845 -12.6574 -12.6573 -12.6562 -12.6560 -12.6451 -12.6442
   -12.6410 -12.6408 -12.6336 -12.6335 -12.5942 -12.5935 -12.5900 -12.5899
   -12.5694 -12.5691 -12.5639 -12.5635 -12.5366 -12.5362 -12.5052 -12.5049
   -12.4982 -12.4981 -12.4910 -12.4909 -12.4880 -12.4877 -12.4173 -12.4172
   -11.4142 -11.4138 -11.3336 -11.3330 -11.2592 -11.2587 -11.2434 -11.2426
   -11.1912 -11.1897 -11.1574 -11.1563 -11.0934 -11.0924 -11.0770 -11.0740
   -11.0572 -11.0556 -11.0275 -11.0272 -11.0147 -11.0130 -10.9875 -10.9872
   -10.9731 -10.9711 -10.9130 -10.9124 -10.8931 -10.8922 -10.8697 -10.8679
   -10.8269 -10.8261 -10.7857 -10.7849 -10.7570 -10.7564 -10.6849 -10.6845
   -10.6406 -10.6402 -10.6282 -10.6280 -10.5739 -10.5734 -10.5364 -10.5362
    -6.0981  -6.0980  -6.0136  -6.0134  -5.9778  -5.9776  -5.9716  -5.9714
    -5.9419  -5.9406  -5.9356  -5.9345  -5.7958  -5.7957  -5.7735  -5.7733
    -5.3345  -5.3340  -4.9418  -4.9413  -4.8971  -4.8966  -4.8615  -4.8608
    -4.5089  -4.5069  -4.4997  -4.4938  -4.4800  -4.4724  -4.4697  -4.4664
    -4.4412  -4.4371  -4.4147  -4.4100  -4.3974  -4.3949  -4.3849  -4.3814
    -4.3767  -4.3749  -4.3658  -4.3647  -4.3552  -4.3546  -4.3476  -4.3466
    -4.3416  -4.3399  -4.3193  -4.3182  -4.3133  -4.3128  -4.2152  -4.2148
    -4.1899  -4.1892  -4.1872  -4.1858  -4.1752  -4.1750  -3.9764  -3.9758
    -1.0154  -0.9737  -0.8342  -0.8142  -0.7723  -0.7538  -0.7192  -0.7123
    -0.6850  -0.6721  -0.6420  -0.6249  -0.5884  -0.5748  -0.5284  -0.5174
    -0.4926  -0.4830  -0.4540  -0.4407  -0.3709  -0.3512  -0.3173  -0.3125
     0.2271   0.2385   0.2892   0.2991   0.3033   0.3135   0.4173   0.4259
     0.4438   0.4630   0.4849   0.4918   0.5089   0.5179   0.5261   0.5362
     0.5836   0.6092   0.6273   0.6391   0.6660   0.6701   0.6992   0.7175
     0.7436   0.7597   0.7714   0.7863   0.8009   0.8098   0.8213   0.8336
     0.8460   0.8565   0.8662   0.8771   0.8905   0.9111   0.9142   0.9253
     0.9298   0.9411   0.9456   0.9589   0.9756   0.9830   0.9970   1.0014
     1.0140   1.0299   1.0334   1.0429   1.0513   1.0627   1.0670   1.0870
     1.0904   1.1051   1.1116   1.1212   1.1292   1.1339   1.1463   1.1586
     1.1703   1.1735   1.1885   1.1966   1.2057   1.2218   1.2266   1.2291
     1.2463   1.2616   1.2800   1.2836   1.3020   1.3118   1.3187   1.3341
     1.3527   1.3645   1.3763   1.3879   1.3902   1.4104   1.4214   1.4284
     1.4584   1.4710   1.4782   1.4927   1.5176   1.5233   1.5398   1.5536
     1.5721   1.5805   1.6036   1.6238   1.6360   1.6430   1.6683   1.6856
     1.7037   1.7134   1.7785   1.7850   1.8142   1.8194   1.9014   1.9309
     2.1500   2.1696   2.2046   2.2151   2.2484   2.2588   2.6015   2.6113
     3.8239   3.8852   4.3784   4.4014   4.5053   4.5097   4.5868   4.6389
     5.1261   5.1488   5.2172   5.2486   5.2714   5.3045   5.3837   5.4083
     5.4361   5.4595   5.6972   5.7207   5.7496   5.7636   5.7837   5.8142
     6.5017   6.5038   6.7718   6.7961   7.1403   7.1708   7.2647   7.2759
     7.3518   7.3658   7.4619   7.4796   7.5256   7.5468   7.6468   7.6694
     7.6970   7.7050   7.7398   7.7537   7.8019   7.8258   7.8487   7.8776
     7.9111   7.9360   7.9562   7.9708   8.0304   8.0562   8.1070   8.1306
     8.1549   8.1680   8.2017   8.2313   8.2555   8.2939   8.3105   8.3292
     8.3374   8.3558   8.3726   8.3827   8.4113   8.4159   8.4355   8.4600
     8.4760   8.4924   8.4983   8.5209   8.5357   8.5478   8.5720   8.5936
     8.6040   8.6152   8.6269   8.6441   8.6651   8.6820   8.7148   8.7355
     8.7465   8.7600   8.7712   8.7912   8.8299   8.8472   8.8493   8.8629
     8.8683   8.8848   8.9255   8.9416   8.9477   8.9636   8.9754   8.9791
     9.0148   9.0353   9.1079   9.1181   9.1409   9.1557   9.1925   9.1994
     9.2435   9.2471   9.2731   9.2839   9.2990   9.3152   9.3480   9.3646
     9.3971   9.4168   9.4456   9.4613   9.4799   9.5042   9.5135   9.5280
     9.5359   9.5484   9.5629   9.5768   9.6083   9.6292   9.6386   9.6519
     9.6552   9.6784   9.6879   9.7078   9.7206   9.7474   9.7514   9.7584
     9.7912   9.8022   9.8347   9.8421

     occupation numbers 
     1.0000   1.0000   1.0000   1.0000   1.0000   1.0000   1.0000   1.0000
     1.0000   1.0000   1.0000   1.0000   1.0000   1.0000   1.0000   1.0000
     1.0000   1.0000   1.0000   1.0000   1.0000   1.0000   1.0000   1.0000
     1.0000   1.0000   1.0000   1.0000   1.0000   1.0000   1.0000   1.0000
     1.0000   1.0000   1.0000   1.0000   1.0000   1.0000   1.0000   1.0000
     1.0000   1.0000   1.0000   1.0000   1.0000   1.0000   1.0000   1.0000
     1.0000   1.0000   1.0000   1.0000   1.0000   1.0000   1.0000   1.0000
     1.0000   1.0000   1.0000   1.0000   1.0000   1.0000   1.0000   1.0000
     1.0000   1.0000   1.0000   1.0000   1.0000   1.0000   1.0000   1.0000
     1.0000   1.0000   1.0000   1.0000   1.0000   1.0000   1.0000   1.0000
     1.0000   1.0000   1.0000   1.0000   1.0000   1.0000   1.0000   1.0000
     1.0000   1.0000   1.0000   1.0000   1.0000   1.0000   1.0000   1.0000
     1.0000   1.0000   1.0000   1.0000   1.0000   1.0000   1.0000   1.0000
     1.0000   1.0000   1.0000   1.0000   1.0000   1.0000   1.0000   1.0000
     1.0000   1.0000   1.0000   1.0000   1.0000   1.0000   1.0000   1.0000
     1.0000   1.0000   1.0000   1.0000   1.0000   1.0000   1.0000   1.0000
     1.0000   1.0000   1.0000   1.0000   1.0000   1.0000   1.0000   1.0000
     1.0000   1.0000   1.0000   1.0000   1.0000   1.0000   1.0000   1.0000
     1.0000   1.0000   1.0000   1.0000   1.0000   1.0000   1.0000   1.0000
     1.0000   1.0000   1.0000   1.0000   1.0000   1.0000   1.0000   1.0000
     1.0000   1.0000   1.0000   1.0000   1.0000   1.0000   1.0000   1.0000
     1.0000   1.0000   1.0000   1.0000   1.0000   1.0000   1.0000   1.0000
     1.0000   1.0000   1.0000   1.0000   1.0000   1.0000   1.0000   1.0000
     1.0000   1.0000   1.0000   1.0000   1.0000   1.0000   1.0000   1.0000
     1.0000   1.0000   1.0000   1.0000   1.0000   1.0000   1.0000   1.0000
     1.0000   1.0000   1.0000   1.0000   1.0000   1.0000   1.0000   1.0000
     1.0000   1.0000   1.0000   1.0000   1.0000   1.0000   1.0000   1.0000
     1.0000   1.0000   1.0000   1.0000   1.0000   1.0000   1.0000   1.0000
     1.0000   1.0000   1.0000   1.0000   1.0000   1.0000   1.0000   1.0000
     1.0000   1.0000   1.0000   1.0000   1.0000   1.0000   1.0000   1.0000
     1.0000   1.0000   1.0000   1.0000   1.0000   1.0000   1.0000   1.0000
     1.0000   1.0000   1.0000   1.0000   1.0000   1.0000   1.0000   1.0000
     1.0000   1.0000   1.0000   1.0000   1.0000   1.0000   1.0000   1.0000
     1.0000   1.0000   1.0000   1.0000   1.0000   1.0000   1.0000   1.0000
     1.0000   1.0000   1.0000   1.0000   1.0000   1.0000   1.0000   1.0000
     1.0000   1.0000   1.0000   1.0000   1.0000   1.0000   1.0000   1.0000
     1.0000   1.0000   1.0000   1.0000   1.0000   1.0000   1.0000   1.0000
     1.0000   1.0000   1.0000   1.0000   1.0000   1.0000   1.0000   1.0000
     1.0000   1.0000   1.0000   1.0000   1.0000   1.0000   1.0000   1.0000
     1.0000   1.0000   1.0000   1.0000   1.0000   1.0000   1.0000   1.0000
     1.0000   1.0000   1.0000   1.0000   1.0000   1.0000   1.0000   1.0000
     1.0000   1.0000   1.0000   1.0000   1.0000   1.0000   1.0000   1.0000
     1.0000   1.0000   1.0000   1.0000   1.0000   1.0000   1.0000   1.0000
     1.0000   1.0000   1.0000   1.0000   1.0000   1.0000   1.0000   1.0000
     0.0000   0.0000   0.0000   0.0000   0.0000   0.0000   0.0000   0.0000
     0.0000   0.0000   0.0000   0.0000   0.0000   0.0000   0.0000   0.0000
     0.0000   0.0000   0.0000   0.0000   0.0000   0.0000   0.0000   0.0000
     0.0000   0.0000   0.0000   0.0000   0.0000   0.0000   0.0000   0.0000
     0.0000   0.0000   0.0000   0.0000   0.0000   0.0000   0.0000   0.0000
     0.0000   0.0000   0.0000   0.0000   0.0000   0.0000   0.0000   0.0000
     0.0000   0.0000   0.0000   0.0000   0.0000   0.0000   0.0000   0.0000
     0.0000   0.0000   0.0000   0.0000   0.0000   0.0000   0.0000   0.0000
     0.0000   0.0000   0.0000   0.0000   0.0000   0.0000   0.0000   0.0000
     0.0000   0.0000   0.0000   0.0000   0.0000   0.0000   0.0000   0.0000
     0.0000   0.0000   0.0000   0.0000   0.0000   0.0000   0.0000   0.0000
     0.0000   0.0000   0.0000   0.0000   0.0000   0.0000   0.0000   0.0000
     0.0000   0.0000   0.0000   0.0000   0.0000   0.0000   0.0000   0.0000
     0.0000   0.0000   0.0000   0.0000   0.0000   0.0000   0.0000   0.0000
     0.0000   0.0000   0.0000   0.0000   0.0000   0.0000   0.0000   0.0000
     0.0000   0.0000   0.0000   0.0000   0.0000   0.0000   0.0000   0.0000
     0.0000   0.0000   0.0000   0.0000   0.0000   0.0000   0.0000   0.0000
     0.0000   0.0000   0.0000   0.0000   0.0000   0.0000   0.0000   0.0000
     0.0000   0.0000   0.0000   0.0000

          k = 0.1000 0.1000 0.1000 ( 73833 PWs)   bands (ev):

   -18.1281 -18.1281 -18.0397 -18.0397 -17.9993 -17.9993 -17.9954 -17.9954
   -17.9651 -17.9651 -17.9608 -17.9608 -17.8047 -17.8047 -17.7796 -17.7796
   -15.3216 -15.3216 -15.3009 -15.3009 -15.2537 -15.2534 -15.2489 -15.2486
   -15.2402 -15.2401 -15.2351 -15.2350 -15.2229 -15.2229 -15.2149 -15.2149
   -15.1848 -15.1847 -15.1674 -15.1674 -15.0949 -15.0949 -15.0876 -15.0876
   -15.0735 -15.0734 -15.0685 -15.0685 -15.0092 -15.0092 -15.0005 -15.0005
   -12.7946 -12.7937 -12.7766 -12.7750 -12.7705 -12.7702 -12.7319 -12.7304
   -12.7274 -12.7271 -12.7205 -12.7191 -12.7137 -12.7123 -12.6987 -12.6980
   -12.6847 -12.6843 -12.6574 -12.6572 -12.6562 -12.6561 -12.6455 -12.6444
   -12.6413 -12.6411 -12.6336 -12.6335 -12.5942 -12.5934 -12.5900 -12.5899
   -12.5695 -12.5691 -12.5638 -12.5633 -12.5369 -12.5364 -12.5054 -12.5049
   -12.4983 -12.4981 -12.4910 -12.4909 -12.4883 -12.4879 -12.4173 -12.4172
   -11.4130 -11.4124 -11.3357 -11.3349 -11.2590 -11.2584 -11.2438 -11.2429
   -11.1931 -11.1913 -11.1588 -11.1575 -11.0927 -11.0916 -11.0774 -11.0739
   -11.0541 -11.0524 -11.0291 -11.0285 -11.0163 -11.0143 -10.9861 -10.9856
   -10.9707 -10.9684 -10.9135 -10.9126 -10.8925 -10.8914 -10.8685 -10.8663
   -10.8271 -10.8262 -10.7856 -10.7846 -10.7578 -10.7571 -10.6848 -10.6843
   -10.6408 -10.6403 -10.6280 -10.6277 -10.5752 -10.5747 -10.5371 -10.5368
    -6.0981  -6.0980  -6.0137  -6.0134  -5.9777  -5.9774  -5.9717  -5.9715
    -5.9420  -5.9404  -5.9359  -5.9343  -5.7958  -5.7957  -5.7736  -5.7733
    -5.3233  -5.3227  -4.9393  -4.9387  -4.8962  -4.8955  -4.8591  -4.8581
    -4.5119  -4.5089  -4.5033  -4.4958  -4.4848  -4.4778  -4.4725  -4.4697
    -4.4452  -4.4402  -4.4161  -4.4105  -4.3977  -4.3946  -4.3857  -4.3815
    -4.3769  -4.3747  -4.3659  -4.3645  -4.3557  -4.3549  -4.3482  -4.3468
    -4.3420  -4.3398  -4.3196  -4.3182  -4.3135  -4.3130  -4.2155  -4.2149
    -4.1901  -4.1893  -4.1874  -4.1858  -4.1755  -4.1752  -3.9952  -3.9943
    -1.0078  -0.9550  -0.8235  -0.7999  -0.7607  -0.7400  -0.7032  -0.6939
    -0.6732  -0.6562  -0.6320  -0.6103  -0.5764  -0.5582  -0.5158  -0.5023
    -0.4820  -0.4706  -0.4443  -0.4276  -0.3620  -0.3366  -0.3078  -0.3016
     0.2265   0.2414   0.2895   0.3005   0.3067   0.3187   0.4115   0.4214
     0.4326   0.4595   0.4751   0.4852   0.5018   0.5109   0.5203   0.5346
     0.5744   0.6021   0.6169   0.6280   0.6564   0.6639   0.6849   0.7128
     0.7321   0.7523   0.7616   0.7726   0.7937   0.8056   0.8185   0.8272
     0.8451   0.8523   0.8600   0.8711   0.8885   0.9060   0.9127   0.9183
     0.9247   0.9385   0.9442   0.9543   0.9749   0.9778   0.9926   1.0004
     1.0089   1.0236   1.0289   1.0396   1.0524   1.0584   1.0662   1.0823
     1.0896   1.1045   1.1103   1.1219   1.1271   1.1375   1.1476   1.1559
     1.1692   1.1758   1.1886   1.1959   1.2100   1.2198   1.2248   1.2290
     1.2481   1.2616   1.2762   1.2822   1.3034   1.3139   1.3186   1.3371
     1.3491   1.3615   1.3750   1.3868   1.3928   1.4085   1.4223   1.4315
     1.4566   1.4734   1.4799   1.4944   1.5139   1.5168   1.5385   1.5523
     1.5703   1.5781   1.5975   1.6217   1.6347   1.6414   1.6642   1.6849
     1.6998   1.7109   1.7692   1.7764   1.8061   1.8139   1.8961   1.9322
     2.1228   2.1455   2.1817   2.1925   2.2311   2.2427   2.5586   2.5688
     3.8667   3.9432   4.4080   4.4361   4.5301   4.5394   4.6135   4.6770
     5.1392   5.1717   5.2300   5.2670   5.2913   5.3326   5.4077   5.4375
     5.4647   5.4962   5.7167   5.7446   5.7782   5.7900   5.8109   5.8465
     6.5212   6.5255   6.7510   6.7815   7.1180   7.1568   7.2424   7.2572
     7.3288   7.3470   7.4383   7.4615   7.5043   7.5330   7.6308   7.6595
     7.6972   7.7064   7.7360   7.7480   7.7942   7.8127   7.8380   7.8727
     7.9033   7.9269   7.9457   7.9667   8.0180   8.0475   8.0898   8.1160
     8.1353   8.1487   8.1918   8.2249   8.2488   8.2839   8.3019   8.3236
     8.3262   8.3521   8.3644   8.3813   8.4013   8.4124   8.4259   8.4493
     8.4636   8.4777   8.4881   8.5179   8.5348   8.5467   8.5727   8.6020
     8.6050   8.6212   8.6281   8.6522   8.6710   8.6907   8.7202   8.7234
     8.7411   8.7559   8.7708   8.7891   8.8237   8.8391   8.8475   8.8611
     8.8650   8.8864   8.9131   8.9283   8.9344   8.9539   8.9647   8.9731
     9.0094   9.0336   9.0890   9.1023   9.1257   9.1367   9.1740   9.1828
     9.2306   9.2425   9.2661   9.2749   9.2961   9.3111   9.3352   9.3536
     9.3903   9.4063   9.4392   9.4571   9.4739   9.4874   9.5078   9.5131
     9.5322   9.5460   9.5530   9.5721   9.6057   9.6178   9.6326   9.6402
     9.6475   9.6721   9.6874   9.7002   9.7174   9.7482   9.7521   9.7646
     9.7892   9.7969   9.8416   9.8517

     occupation numbers 
     1.0000   1.0000   1.0000   1.0000   1.0000   1.0000   1.0000   1.0000
     1.0000   1.0000   1.0000   1.0000   1.0000   1.0000   1.0000   1.0000
     1.0000   1.0000   1.0000   1.0000   1.0000   1.0000   1.0000   1.0000
     1.0000   1.0000   1.0000   1.0000   1.0000   1.0000   1.0000   1.0000
     1.0000   1.0000   1.0000   1.0000   1.0000   1.0000   1.0000   1.0000
     1.0000   1.0000   1.0000   1.0000   1.0000   1.0000   1.0000   1.0000
     1.0000   1.0000   1.0000   1.0000   1.0000   1.0000   1.0000   1.0000
     1.0000   1.0000   1.0000   1.0000   1.0000   1.0000   1.0000   1.0000
     1.0000   1.0000   1.0000   1.0000   1.0000   1.0000   1.0000   1.0000
     1.0000   1.0000   1.0000   1.0000   1.0000   1.0000   1.0000   1.0000
     1.0000   1.0000   1.0000   1.0000   1.0000   1.0000   1.0000   1.0000
     1.0000   1.0000   1.0000   1.0000   1.0000   1.0000   1.0000   1.0000
     1.0000   1.0000   1.0000   1.0000   1.0000   1.0000   1.0000   1.0000
     1.0000   1.0000   1.0000   1.0000   1.0000   1.0000   1.0000   1.0000
     1.0000   1.0000   1.0000   1.0000   1.0000   1.0000   1.0000   1.0000
     1.0000   1.0000   1.0000   1.0000   1.0000   1.0000   1.0000   1.0000
     1.0000   1.0000   1.0000   1.0000   1.0000   1.0000   1.0000   1.0000
     1.0000   1.0000   1.0000   1.0000   1.0000   1.0000   1.0000   1.0000
     1.0000   1.0000   1.0000   1.0000   1.0000   1.0000   1.0000   1.0000
     1.0000   1.0000   1.0000   1.0000   1.0000   1.0000   1.0000   1.0000
     1.0000   1.0000   1.0000   1.0000   1.0000   1.0000   1.0000   1.0000
     1.0000   1.0000   1.0000   1.0000   1.0000   1.0000   1.0000   1.0000
     1.0000   1.0000   1.0000   1.0000   1.0000   1.0000   1.0000   1.0000
     1.0000   1.0000   1.0000   1.0000   1.0000   1.0000   1.0000   1.0000
     1.0000   1.0000   1.0000   1.0000   1.0000   1.0000   1.0000   1.0000
     1.0000   1.0000   1.0000   1.0000   1.0000   1.0000   1.0000   1.0000
     1.0000   1.0000   1.0000   1.0000   1.0000   1.0000   1.0000   1.0000
     1.0000   1.0000   1.0000   1.0000   1.0000   1.0000   1.0000   1.0000
     1.0000   1.0000   1.0000   1.0000   1.0000   1.0000   1.0000   1.0000
     1.0000   1.0000   1.0000   1.0000   1.0000   1.0000   1.0000   1.0000
     1.0000   1.0000   1.0000   1.0000   1.0000   1.0000   1.0000   1.0000
     1.0000   1.0000   1.0000   1.0000   1.0000   1.0000   1.0000   1.0000
     1.0000   1.0000   1.0000   1.0000   1.0000   1.0000   1.0000   1.0000
     1.0000   1.0000   1.0000   1.0000   1.0000   1.0000   1.0000   1.0000
     1.0000   1.0000   1.0000   1.0000   1.0000   1.0000   1.0000   1.0000
     1.0000   1.0000   1.0000   1.0000   1.0000   1.0000   1.0000   1.0000
     1.0000   1.0000   1.0000   1.0000   1.0000   1.0000   1.0000   1.0000
     1.0000   1.0000   1.0000   1.0000   1.0000   1.0000   1.0000   1.0000
     1.0000   1.0000   1.0000   1.0000   1.0000   1.0000   1.0000   1.0000
     1.0000   1.0000   1.0000   1.0000   1.0000   1.0000   1.0000   1.0000
     1.0000   1.0000   1.0000   1.0000   1.0000   1.0000   1.0000   1.0000
     1.0000   1.0000   1.0000   1.0000   1.0000   1.0000   1.0000   1.0000
     1.0000   1.0000   1.0000   1.0000   1.0000   1.0000   1.0000   1.0000
     1.0000   1.0000   1.0000   1.0000   1.0000   1.0000   1.0000   1.0000
     0.0000   0.0000   0.0000   0.0000   0.0000   0.0000   0.0000   0.0000
     0.0000   0.0000   0.0000   0.0000   0.0000   0.0000   0.0000   0.0000
     0.0000   0.0000   0.0000   0.0000   0.0000   0.0000   0.0000   0.0000
     0.0000   0.0000   0.0000   0.0000   0.0000   0.0000   0.0000   0.0000
     0.0000   0.0000   0.0000   0.0000   0.0000   0.0000   0.0000   0.0000
     0.0000   0.0000   0.0000   0.0000   0.0000   0.0000   0.0000   0.0000
     0.0000   0.0000   0.0000   0.0000   0.0000   0.0000   0.0000   0.0000
     0.0000   0.0000   0.0000   0.0000   0.0000   0.0000   0.0000   0.0000
     0.0000   0.0000   0.0000   0.0000   0.0000   0.0000   0.0000   0.0000
     0.0000   0.0000   0.0000   0.0000   0.0000   0.0000   0.0000   0.0000
     0.0000   0.0000   0.0000   0.0000   0.0000   0.0000   0.0000   0.0000
     0.0000   0.0000   0.0000   0.0000   0.0000   0.0000   0.0000   0.0000
     0.0000   0.0000   0.0000   0.0000   0.0000   0.0000   0.0000   0.0000
     0.0000   0.0000   0.0000   0.0000   0.0000   0.0000   0.0000   0.0000
     0.0000   0.0000   0.0000   0.0000   0.0000   0.0000   0.0000   0.0000
     0.0000   0.0000   0.0000   0.0000   0.0000   0.0000   0.0000   0.0000
     0.0000   0.0000   0.0000   0.0000   0.0000   0.0000   0.0000   0.0000
     0.0000   0.0000   0.0000   0.0000   0.0000   0.0000   0.0000   0.0000
     0.0000   0.0000   0.0000   0.0000

          k = 0.1250 0.1250 0.1250 ( 73866 PWs)   bands (ev):

   -18.1281 -18.1281 -18.0397 -18.0397 -17.9993 -17.9993 -17.9954 -17.9954
   -17.9651 -17.9651 -17.9608 -17.9608 -17.8047 -17.8047 -17.7796 -17.7796
   -15.3216 -15.3216 -15.3009 -15.3009 -15.2537 -15.2532 -15.2489 -15.2486
   -15.2402 -15.2401 -15.2352 -15.2350 -15.2229 -15.2229 -15.2149 -15.2149
   -15.1848 -15.1847 -15.1674 -15.1674 -15.0949 -15.0949 -15.0876 -15.0876
   -15.0734 -15.0734 -15.0686 -15.0685 -15.0092 -15.0092 -15.0005 -15.0005
   -12.7943 -12.7932 -12.7763 -12.7742 -12.7704 -12.7700 -12.7321 -12.7303
   -12.7274 -12.7270 -12.7212 -12.7195 -12.7140 -12.7122 -12.6984 -12.6976
   -12.6846 -12.6841 -12.6574 -12.6572 -12.6563 -12.6561 -12.6459 -12.6446
   -12.6417 -12.6414 -12.6337 -12.6335 -12.5942 -12.5933 -12.5900 -12.5899
   -12.5696 -12.5691 -12.5636 -12.5630 -12.5373 -12.5367 -12.5056 -12.5050
   -12.4983 -12.4982 -12.4911 -12.4910 -12.4886 -12.4881 -12.4173 -12.4172
   -11.4114 -11.4108 -11.3381 -11.3372 -11.2588 -11.2582 -11.2442 -11.2432
   -11.1951 -11.1930 -11.1605 -11.1590 -11.0924 -11.0911 -11.0772 -11.0732
   -11.0513 -11.0498 -11.0302 -11.0292 -11.0179 -11.0158 -10.9842 -10.9835
   -10.9680 -10.9655 -10.9140 -10.9130 -10.8918 -10.8906 -10.8670 -10.8645
   -10.8274 -10.8263 -10.7856 -10.7843 -10.7588 -10.7579 -10.6846 -10.6841
   -10.6411 -10.6406 -10.6277 -10.6274 -10.5769 -10.5762 -10.5379 -10.5376
    -6.0981  -6.0980  -6.0137  -6.0133  -5.9775  -5.9773  -5.9719  -5.9716
    -5.9422  -5.9402  -5.9361  -5.9342  -5.7959  -5.7957  -5.7736  -5.7733
    -5.3091  -5.3083  -4.9360  -4.9354  -4.8950  -4.8941  -4.8560  -4.8549
    -4.5176  -4.5141  -4.5058  -4.4990  -4.4900  -4.4841  -4.4761  -4.4720
    -4.4500  -4.4449  -4.4172  -4.4112  -4.3980  -4.3943  -4.3863  -4.3817
    -4.3771  -4.3746  -4.3660  -4.3644  -4.3563  -4.3552  -4.3488  -4.3471
    -4.3423  -4.3397  -4.3200  -4.3181  -4.3138  -4.3131  -4.2158  -4.2151
    -4.1904  -4.1894  -4.1877  -4.1857  -4.1759  -4.1755  -4.0187  -4.0176
    -0.9960  -0.9340  -0.8083  -0.7831  -0.7446  -0.7228  -0.6843  -0.6726
    -0.6572  -0.6361  -0.6178  -0.5922  -0.5608  -0.5379  -0.4999  -0.4854
    -0.4665  -0.4550  -0.4309  -0.4118  -0.3492  -0.3191  -0.2952  -0.2880
     0.2258   0.2439   0.2900   0.3017   0.3102   0.3240   0.4043   0.4143
     0.4196   0.4527   0.4649   0.4778   0.4932   0.5011   0.5137   0.5308
     0.5639   0.5898   0.6025   0.6146   0.6415   0.6556   0.6693   0.7062
     0.7208   0.7414   0.7547   0.7589   0.7839   0.8006   0.8130   0.8187
     0.8397   0.8472   0.8526   0.8658   0.8849   0.8959   0.9058   0.9147
     0.9219   0.9319   0.9448   0.9490   0.9688   0.9750   0.9865   0.9983
     1.0045   1.0146   1.0263   1.0348   1.0496   1.0551   1.0652   1.0797
     1.0887   1.1039   1.1083   1.1212   1.1247   1.1413   1.1488   1.1522
     1.1711   1.1776   1.1878   1.1957   1.2122   1.2184   1.2225   1.2290
     1.2508   1.2622   1.2727   1.2816   1.3035   1.3139   1.3217   1.3407
     1.3460   1.3580   1.3716   1.3872   1.3954   1.4074   1.4216   1.4345
     1.4556   1.4737   1.4832   1.4955   1.5064   1.5144   1.5371   1.5503
     1.5690   1.5755   1.5907   1.6171   1.6325   1.6413   1.6600   1.6819
     1.6965   1.7077   1.7582   1.7663   1.7962   1.8081   1.8892   1.9306
     2.0912   2.1155   2.1547   2.1667   2.2090   2.2217   2.5084   2.5176
     3.9217   4.0102   4.4460   4.4774   4.5607   4.5766   4.6504   4.7215
     5.1559   5.1998   5.2461   5.2863   5.3178   5.3661   5.4410   5.4734
     5.5018   5.5414   5.7428   5.7746   5.8148   5.8224   5.8468   5.8852
     6.5399   6.5494   6.7308   6.7653   7.0916   7.1372   7.2151   7.2328
     7.3004   7.3231   7.4093   7.4379   7.4779   7.5134   7.6063   7.6413
     7.6943   7.7017   7.7310   7.7419   7.7891   7.7990   7.8255   7.8639
     7.8980   7.9142   7.9333   7.9592   8.0055   8.0303   8.0732   8.1004
     8.1125   8.1323   8.1789   8.2112   8.2407   8.2730   8.2874   8.3081
     8.3115   8.3454   8.3539   8.3789   8.3937   8.4074   8.4145   8.4322
     8.4474   8.4649   8.4839   8.5130   8.5331   8.5449   8.5702   8.6003
     8.6093   8.6262   8.6371   8.6577   8.6781   8.6966   8.7105   8.7258
     8.7356   8.7483   8.7721   8.7871   8.8168   8.8326   8.8449   8.8572
     8.8643   8.8880   8.8983   8.9132   8.9236   8.9412   8.9597   8.9726
     9.0062   9.0326   9.0691   9.0864   9.1115   9.1165   9.1567   9.1711
     9.2170   9.2369   9.2594   9.2678   9.2920   9.3029   9.3187   9.3386
     9.3793   9.3932   9.4263   9.4478   9.4620   9.4739   9.4925   9.5054
     9.5219   9.5407   9.5521   9.5639   9.5950   9.6020   9.6231   9.6305
     9.6469   9.6640   9.6829   9.6926   9.7120   9.7414   9.7639   9.7746
     9.7933   9.8019   9.8546   9.8661

     occupation numbers 
     1.0000   1.0000   1.0000   1.0000   1.0000   1.0000   1.0000   1.0000
     1.0000   1.0000   1.0000   1.0000   1.0000   1.0000   1.0000   1.0000
     1.0000   1.0000   1.0000   1.0000   1.0000   1.0000   1.0000   1.0000
     1.0000   1.0000   1.0000   1.0000   1.0000   1.0000   1.0000   1.0000
     1.0000   1.0000   1.0000   1.0000   1.0000   1.0000   1.0000   1.0000
     1.0000   1.0000   1.0000   1.0000   1.0000   1.0000   1.0000   1.0000
     1.0000   1.0000   1.0000   1.0000   1.0000   1.0000   1.0000   1.0000
     1.0000   1.0000   1.0000   1.0000   1.0000   1.0000   1.0000   1.0000
     1.0000   1.0000   1.0000   1.0000   1.0000   1.0000   1.0000   1.0000
     1.0000   1.0000   1.0000   1.0000   1.0000   1.0000   1.0000   1.0000
     1.0000   1.0000   1.0000   1.0000   1.0000   1.0000   1.0000   1.0000
     1.0000   1.0000   1.0000   1.0000   1.0000   1.0000   1.0000   1.0000
     1.0000   1.0000   1.0000   1.0000   1.0000   1.0000   1.0000   1.0000
     1.0000   1.0000   1.0000   1.0000   1.0000   1.0000   1.0000   1.0000
     1.0000   1.0000   1.0000   1.0000   1.0000   1.0000   1.0000   1.0000
     1.0000   1.0000   1.0000   1.0000   1.0000   1.0000   1.0000   1.0000
     1.0000   1.0000   1.0000   1.0000   1.0000   1.0000   1.0000   1.0000
     1.0000   1.0000   1.0000   1.0000   1.0000   1.0000   1.0000   1.0000
     1.0000   1.0000   1.0000   1.0000   1.0000   1.0000   1.0000   1.0000
     1.0000   1.0000   1.0000   1.0000   1.0000   1.0000   1.0000   1.0000
     1.0000   1.0000   1.0000   1.0000   1.0000   1.0000   1.0000   1.0000
     1.0000   1.0000   1.0000   1.0000   1.0000   1.0000   1.0000   1.0000
     1.0000   1.0000   1.0000   1.0000   1.0000   1.0000   1.0000   1.0000
     1.0000   1.0000   1.0000   1.0000   1.0000   1.0000   1.0000   1.0000
     1.0000   1.0000   1.0000   1.0000   1.0000   1.0000   1.0000   1.0000
     1.0000   1.0000   1.0000   1.0000   1.0000   1.0000   1.0000   1.0000
     1.0000   1.0000   1.0000   1.0000   1.0000   1.0000   1.0000   1.0000
     1.0000   1.0000   1.0000   1.0000   1.0000   1.0000   1.0000   1.0000
     1.0000   1.0000   1.0000   1.0000   1.0000   1.0000   1.0000   1.0000
     1.0000   1.0000   1.0000   1.0000   1.0000   1.0000   1.0000   1.0000
     1.0000   1.0000   1.0000   1.0000   1.0000   1.0000   1.0000   1.0000
     1.0000   1.0000   1.0000   1.0000   1.0000   1.0000   1.0000   1.0000
     1.0000   1.0000   1.0000   1.0000   1.0000   1.0000   1.0000   1.0000
     1.0000   1.0000   1.0000   1.0000   1.0000   1.0000   1.0000   1.0000
     1.0000   1.0000   1.0000   1.0000   1.0000   1.0000   1.0000   1.0000
     1.0000   1.0000   1.0000   1.0000   1.0000   1.0000   1.0000   1.0000
     1.0000   1.0000   1.0000   1.0000   1.0000   1.0000   1.0000   1.0000
     1.0000   1.0000   1.0000   1.0000   1.0000   1.0000   1.0000   1.0000
     1.0000   1.0000   1.0000   1.0000   1.0000   1.0000   1.0000   1.0000
     1.0000   1.0000   1.0000   1.0000   1.0000   1.0000   1.0000   1.0000
     1.0000   1.0000   1.0000   1.0000   1.0000   1.0000   1.0000   1.0000
     1.0000   1.0000   1.0000   1.0000   1.0000   1.0000   1.0000   1.0000
     1.0000   1.0000   1.0000   1.0000   1.0000   1.0000   1.0000   1.0000
     1.0000   1.0000   1.0000   1.0000   1.0000   1.0000   1.0000   1.0000
     0.0000   0.0000   0.0000   0.0000   0.0000   0.0000   0.0000   0.0000
     0.0000   0.0000   0.0000   0.0000   0.0000   0.0000   0.0000   0.0000
     0.0000   0.0000   0.0000   0.0000   0.0000   0.0000   0.0000   0.0000
     0.0000   0.0000   0.0000   0.0000   0.0000   0.0000   0.0000   0.0000
     0.0000   0.0000   0.0000   0.0000   0.0000   0.0000   0.0000   0.0000
     0.0000   0.0000   0.0000   0.0000   0.0000   0.0000   0.0000   0.0000
     0.0000   0.0000   0.0000   0.0000   0.0000   0.0000   0.0000   0.0000
     0.0000   0.0000   0.0000   0.0000   0.0000   0.0000   0.0000   0.0000
     0.0000   0.0000   0.0000   0.0000   0.0000   0.0000   0.0000   0.0000
     0.0000   0.0000   0.0000   0.0000   0.0000   0.0000   0.0000   0.0000
     0.0000   0.0000   0.0000   0.0000   0.0000   0.0000   0.0000   0.0000
     0.0000   0.0000   0.0000   0.0000   0.0000   0.0000   0.0000   0.0000
     0.0000   0.0000   0.0000   0.0000   0.0000   0.0000   0.0000   0.0000
     0.0000   0.0000   0.0000   0.0000   0.0000   0.0000   0.0000   0.0000
     0.0000   0.0000   0.0000   0.0000   0.0000   0.0000   0.0000   0.0000
     0.0000   0.0000   0.0000   0.0000   0.0000   0.0000   0.0000   0.0000
     0.0000   0.0000   0.0000   0.0000   0.0000   0.0000   0.0000   0.0000
     0.0000   0.0000   0.0000   0.0000   0.0000   0.0000   0.0000   0.0000
     0.0000   0.0000   0.0000   0.0000

          k = 0.1500 0.1500 0.1500 ( 73902 PWs)   bands (ev):

   -18.1281 -18.1281 -18.0397 -18.0397 -17.9993 -17.9993 -17.9954 -17.9954
   -17.9651 -17.9651 -17.9608 -17.9608 -17.8047 -17.8047 -17.7796 -17.7796
   -15.3216 -15.3216 -15.3009 -15.3009 -15.2536 -15.2531 -15.2490 -15.2487
   -15.2402 -15.2401 -15.2352 -15.2350 -15.2229 -15.2229 -15.2149 -15.2149
   -15.1848 -15.1847 -15.1674 -15.1674 -15.0949 -15.0949 -15.0876 -15.0876
   -15.0734 -15.0734 -15.0686 -15.0685 -15.0092 -15.0092 -15.0005 -15.0005
   -12.7938 -12.7926 -12.7759 -12.7734 -12.7703 -12.7698 -12.7324 -12.7303
   -12.7273 -12.7269 -12.7218 -12.7200 -12.7143 -12.7123 -12.6981 -12.6972
   -12.6844 -12.6838 -12.6575 -12.6572 -12.6564 -12.6562 -12.6463 -12.6450
   -12.6421 -12.6418 -12.6337 -12.6335 -12.5942 -12.5931 -12.5900 -12.5899
   -12.5697 -12.5691 -12.5634 -12.5627 -12.5378 -12.5370 -12.5059 -12.5052
   -12.4984 -12.4982 -12.4911 -12.4910 -12.4889 -12.4883 -12.4173 -12.4172
   -11.4096 -11.4088 -11.3408 -11.3398 -11.2589 -11.2584 -11.2446 -11.2436
   -11.1970 -11.1948 -11.1623 -11.1606 -11.0925 -11.0912 -11.0762 -11.0720
   -11.0498 -11.0486 -11.0298 -11.0281 -11.0195 -11.0174 -10.9818 -10.9808
   -10.9652 -10.9625 -10.9147 -10.9134 -10.8911 -10.8898 -10.8652 -10.8624
   -10.8276 -10.8264 -10.7854 -10.7840 -10.7600 -10.7589 -10.6845 -10.6839
   -10.6415 -10.6410 -10.6272 -10.6270 -10.5788 -10.5781 -10.5388 -10.5385
    -6.0981  -6.0980  -6.0137  -6.0133  -5.9774  -5.9771  -5.9720  -5.9717
    -5.9423  -5.9400  -5.9364  -5.9342  -5.7959  -5.7957  -5.7736  -5.7733
    -5.2918  -5.2909  -4.9318  -4.9312  -4.8934  -4.8924  -4.8522  -4.8509
    -4.5269  -4.5230  -4.5083  -4.5034  -4.4950  -4.4899  -4.4794  -4.4736
    -4.4558  -4.4510  -4.4181  -4.4119  -4.3983  -4.3940  -4.3869  -4.3820
    -4.3773  -4.3747  -4.3661  -4.3642  -4.3570  -4.3556  -4.3494  -4.3474
    -4.3427  -4.3396  -4.3204  -4.3181  -4.3140  -4.3134  -4.2163  -4.2154
    -4.1908  -4.1897  -4.1879  -4.1857  -4.1765  -4.1757  -4.0464  -4.0448
    -0.9798  -0.9111  -0.7889  -0.7632  -0.7245  -0.7022  -0.6634  -0.6494
    -0.6370  -0.6123  -0.5989  -0.5709  -0.5418  -0.5144  -0.4810  -0.4676
    -0.4462  -0.4358  -0.4132  -0.3933  -0.3322  -0.2987  -0.2798  -0.2718
     0.2245   0.2455   0.2903   0.3025   0.3132   0.3290   0.3956   0.4033
     0.4066   0.4403   0.4567   0.4688   0.4824   0.4897   0.5059   0.5243
     0.5514   0.5720   0.5855   0.5992   0.6218   0.6403   0.6586   0.6969
     0.7103   0.7280   0.7447   0.7511   0.7731   0.7908   0.8040   0.8106
     0.8300   0.8404   0.8463   0.8590   0.8759   0.8884   0.8991   0.9109
     0.9147   0.9282   0.9407   0.9453   0.9589   0.9737   0.9801   0.9959
     1.0001   1.0059   1.0234   1.0279   1.0426   1.0537   1.0633   1.0788
     1.0871   1.1033   1.1062   1.1193   1.1235   1.1410   1.1478   1.1525
     1.1728   1.1783   1.1865   1.1971   1.2112   1.2172   1.2228   1.2296
     1.2521   1.2633   1.2716   1.2816   1.3024   1.3134   1.3245   1.3435
     1.3449   1.3558   1.3678   1.3871   1.3972   1.4075   1.4201   1.4359
     1.4565   1.4725   1.4856   1.4958   1.4987   1.5148   1.5354   1.5482
     1.5669   1.5733   1.5839   1.6111   1.6291   1.6418   1.6561   1.6770
     1.6937   1.7043   1.7459   1.7554   1.7856   1.8015   1.8797   1.9253
     2.0569   2.0817   2.1240   2.1390   2.1829   2.1963   2.4525   2.4600
     3.9869   4.0846   4.4911   4.5241   4.5970   4.6205   4.6963   4.7714
     5.1759   5.2319   5.2652   5.3075   5.3483   5.4040   5.4833   5.5161
     5.5472   5.5943   5.7749   5.8114   5.8570   5.8622   5.8898   5.9300
     6.5496   6.5697   6.7178   6.7539   7.0618   7.1122   7.1834   7.2028
     7.2669   7.2946   7.3751   7.4095   7.4469   7.4880   7.5737   7.6159
     7.6725   7.6935   7.7280   7.7360   7.7720   7.7979   7.8134   7.8530
     7.8915   7.8996   7.9218   7.9468   7.9937   8.0060   8.0512   8.0873
     8.0953   8.1174   8.1637   8.1927   8.2256   8.2606   8.2674   8.2834
     8.2981   8.3344   8.3389   8.3709   8.3852   8.4001   8.4052   8.4131
     8.4314   8.4599   8.4788   8.5055   8.5290   8.5436   8.5660   8.5923
     8.6143   8.6280   8.6449   8.6615   8.6793   8.6902   8.7116   8.7222
     8.7374   8.7428   8.7750   8.7850   8.8126   8.8292   8.8424   8.8507
     8.8654   8.8846   8.8929   8.8974   8.9141   8.9343   8.9590   8.9754
     9.0050   9.0299   9.0514   9.0717   9.0967   9.0980   9.1453   9.1665
     9.2025   9.2275   9.2545   9.2610   9.2812   9.2942   9.3046   9.3214
     9.3678   9.3821   9.4085   9.4302   9.4506   9.4693   9.4751   9.4920
     9.5138   9.5279   9.5520   9.5582   9.5801   9.5845   9.6155   9.6251
     9.6412   9.6560   9.6700   9.6823   9.7148   9.7317   9.7672   9.7910
     9.7975   9.8205   9.8737   9.8855

     occupation numbers 
     1.0000   1.0000   1.0000   1.0000   1.0000   1.0000   1.0000   1.0000
     1.0000   1.0000   1.0000   1.0000   1.0000   1.0000   1.0000   1.0000
     1.0000   1.0000   1.0000   1.0000   1.0000   1.0000   1.0000   1.0000
     1.0000   1.0000   1.0000   1.0000   1.0000   1.0000   1.0000   1.0000
     1.0000   1.0000   1.0000   1.0000   1.0000   1.0000   1.0000   1.0000
     1.0000   1.0000   1.0000   1.0000   1.0000   1.0000   1.0000   1.0000
     1.0000   1.0000   1.0000   1.0000   1.0000   1.0000   1.0000   1.0000
     1.0000   1.0000   1.0000   1.0000   1.0000   1.0000   1.0000   1.0000
     1.0000   1.0000   1.0000   1.0000   1.0000   1.0000   1.0000   1.0000
     1.0000   1.0000   1.0000   1.0000   1.0000   1.0000   1.0000   1.0000
     1.0000   1.0000   1.0000   1.0000   1.0000   1.0000   1.0000   1.0000
     1.0000   1.0000   1.0000   1.0000   1.0000   1.0000   1.0000   1.0000
     1.0000   1.0000   1.0000   1.0000   1.0000   1.0000   1.0000   1.0000
     1.0000   1.0000   1.0000   1.0000   1.0000   1.0000   1.0000   1.0000
     1.0000   1.0000   1.0000   1.0000   1.0000   1.0000   1.0000   1.0000
     1.0000   1.0000   1.0000   1.0000   1.0000   1.0000   1.0000   1.0000
     1.0000   1.0000   1.0000   1.0000   1.0000   1.0000   1.0000   1.0000
     1.0000   1.0000   1.0000   1.0000   1.0000   1.0000   1.0000   1.0000
     1.0000   1.0000   1.0000   1.0000   1.0000   1.0000   1.0000   1.0000
     1.0000   1.0000   1.0000   1.0000   1.0000   1.0000   1.0000   1.0000
     1.0000   1.0000   1.0000   1.0000   1.0000   1.0000   1.0000   1.0000
     1.0000   1.0000   1.0000   1.0000   1.0000   1.0000   1.0000   1.0000
     1.0000   1.0000   1.0000   1.0000   1.0000   1.0000   1.0000   1.0000
     1.0000   1.0000   1.0000   1.0000   1.0000   1.0000   1.0000   1.0000
     1.0000   1.0000   1.0000   1.0000   1.0000   1.0000   1.0000   1.0000
     1.0000   1.0000   1.0000   1.0000   1.0000   1.0000   1.0000   1.0000
     1.0000   1.0000   1.0000   1.0000   1.0000   1.0000   1.0000   1.0000
     1.0000   1.0000   1.0000   1.0000   1.0000   1.0000   1.0000   1.0000
     1.0000   1.0000   1.0000   1.0000   1.0000   1.0000   1.0000   1.0000
     1.0000   1.0000   1.0000   1.0000   1.0000   1.0000   1.0000   1.0000
     1.0000   1.0000   1.0000   1.0000   1.0000   1.0000   1.0000   1.0000
     1.0000   1.0000   1.0000   1.0000   1.0000   1.0000   1.0000   1.0000
     1.0000   1.0000   1.0000   1.0000   1.0000   1.0000   1.0000   1.0000
     1.0000   1.0000   1.0000   1.0000   1.0000   1.0000   1.0000   1.0000
     1.0000   1.0000   1.0000   1.0000   1.0000   1.0000   1.0000   1.0000
     1.0000   1.0000   1.0000   1.0000   1.0000   1.0000   1.0000   1.0000
     1.0000   1.0000   1.0000   1.0000   1.0000   1.0000   1.0000   1.0000
     1.0000   1.0000   1.0000   1.0000   1.0000   1.0000   1.0000   1.0000
     1.0000   1.0000   1.0000   1.0000   1.0000   1.0000   1.0000   1.0000
     1.0000   1.0000   1.0000   1.0000   1.0000   1.0000   1.0000   1.0000
     1.0000   1.0000   1.0000   1.0000   1.0000   1.0000   1.0000   1.0000
     1.0000   1.0000   1.0000   1.0000   1.0000   1.0000   1.0000   1.0000
     1.0000   1.0000   1.0000   1.0000   1.0000   1.0000   1.0000   1.0000
     1.0000   1.0000   1.0000   1.0000   1.0000   1.0000   1.0000   1.0000
     0.0000   0.0000   0.0000   0.0000   0.0000   0.0000   0.0000   0.0000
     0.0000   0.0000   0.0000   0.0000   0.0000   0.0000   0.0000   0.0000
     0.0000   0.0000   0.0000   0.0000   0.0000   0.0000   0.0000   0.0000
     0.0000   0.0000   0.0000   0.0000   0.0000   0.0000   0.0000   0.0000
     0.0000   0.0000   0.0000   0.0000   0.0000   0.0000   0.0000   0.0000
     0.0000   0.0000   0.0000   0.0000   0.0000   0.0000   0.0000   0.0000
     0.0000   0.0000   0.0000   0.0000   0.0000   0.0000   0.0000   0.0000
     0.0000   0.0000   0.0000   0.0000   0.0000   0.0000   0.0000   0.0000
     0.0000   0.0000   0.0000   0.0000   0.0000   0.0000   0.0000   0.0000
     0.0000   0.0000   0.0000   0.0000   0.0000   0.0000   0.0000   0.0000
     0.0000   0.0000   0.0000   0.0000   0.0000   0.0000   0.0000   0.0000
     0.0000   0.0000   0.0000   0.0000   0.0000   0.0000   0.0000   0.0000
     0.0000   0.0000   0.0000   0.0000   0.0000   0.0000   0.0000   0.0000
     0.0000   0.0000   0.0000   0.0000   0.0000   0.0000   0.0000   0.0000
     0.0000   0.0000   0.0000   0.0000   0.0000   0.0000   0.0000   0.0000
     0.0000   0.0000   0.0000   0.0000   0.0000   0.0000   0.0000   0.0000
     0.0000   0.0000   0.0000   0.0000   0.0000   0.0000   0.0000   0.0000
     0.0000   0.0000   0.0000   0.0000   0.0000   0.0000   0.0000   0.0000
     0.0000   0.0000   0.0000   0.0000

          k = 0.1750 0.1750 0.1750 ( 73932 PWs)   bands (ev):

   -18.1281 -18.1281 -18.0397 -18.0397 -17.9993 -17.9993 -17.9954 -17.9954
   -17.9651 -17.9651 -17.9608 -17.9608 -17.8047 -17.8047 -17.7796 -17.7796
   -15.3216 -15.3216 -15.3009 -15.3009 -15.2535 -15.2530 -15.2491 -15.2487
   -15.2402 -15.2401 -15.2353 -15.2350 -15.2229 -15.2229 -15.2149 -15.2149
   -15.1848 -15.1847 -15.1675 -15.1674 -15.0949 -15.0949 -15.0876 -15.0876
   -15.0734 -15.0733 -15.0687 -15.0686 -15.0092 -15.0092 -15.0005 -15.0005
   -12.7933 -12.7919 -12.7753 -12.7725 -12.7701 -12.7696 -12.7329 -12.7303
   -12.7272 -12.7268 -12.7224 -12.7205 -12.7146 -12.7123 -12.6977 -12.6967
   -12.6841 -12.6835 -12.6575 -12.6572 -12.6565 -12.6563 -12.6468 -12.6454
   -12.6425 -12.6423 -12.6337 -12.6336 -12.5942 -12.5930 -12.5901 -12.5899
   -12.5699 -12.5692 -12.5631 -12.5624 -12.5384 -12.5374 -12.5061 -12.5054
   -12.4984 -12.4982 -12.4912 -12.4910 -12.4892 -12.4886 -12.4173 -12.4172
   -11.4076 -11.4067 -11.3437 -11.3426 -11.2593 -11.2589 -11.2451 -11.2441
   -11.1986 -11.1963 -11.1642 -11.1625 -11.0932 -11.0918 -11.0748 -11.0706
   -11.0500 -11.0488 -11.0274 -11.0253 -11.0208 -11.0189 -10.9790 -10.9779
   -10.9623 -10.9594 -10.9154 -10.9140 -10.8905 -10.8892 -10.8632 -10.8603
   -10.8277 -10.8265 -10.7853 -10.7838 -10.7612 -10.7600 -10.6844 -10.6837
   -10.6421 -10.6415 -10.6267 -10.6264 -10.5809 -10.5801 -10.5398 -10.5395
    -6.0981  -6.0980  -6.0137  -6.0133  -5.9772  -5.9769  -5.9721  -5.9718
    -5.9424  -5.9398  -5.9366  -5.9341  -5.7959  -5.7957  -5.7737  -5.7733
    -5.2716  -5.2706  -4.9268  -4.9262  -4.8915  -4.8904  -4.8477  -4.8464
    -4.5391  -4.5350  -4.5127  -4.5096  -4.4988  -4.4943  -4.4821  -4.4750
    -4.4623  -4.4584  -4.4187  -4.4125  -4.3986  -4.3938  -4.3873  -4.3824
    -4.3774  -4.3749  -4.3661  -4.3641  -4.3577  -4.3561  -4.3501  -4.3478
    -4.3430  -4.3396  -4.3209  -4.3181  -4.3143  -4.3136  -4.2171  -4.2158
    -4.1916  -4.1903  -4.1880  -4.1858  -4.1774  -4.1759  -4.0774  -4.0753
    -0.9596  -0.8862  -0.7662  -0.7401  -0.7010  -0.6780  -0.6409  -0.6243
    -0.6131  -0.5863  -0.5747  -0.5468  -0.5194  -0.4881  -0.4601  -0.4481
    -0.4238  -0.4119  -0.3909  -0.3722  -0.3112  -0.2759  -0.2616  -0.2528
     0.2219   0.2454   0.2899   0.3022   0.3145   0.3328   0.3840   0.3883
     0.3954   0.4246   0.4484   0.4578   0.4687   0.4778   0.4966   0.5146
     0.5356   0.5509   0.5673   0.5815   0.5998   0.6208   0.6504   0.6836
     0.7007   0.7131   0.7340   0.7440   0.7614   0.7765   0.7946   0.8033
     0.8200   0.8314   0.8374   0.8512   0.8680   0.8806   0.8935   0.9034
     0.9056   0.9261   0.9339   0.9421   0.9483   0.9692   0.9770   0.9913
     0.9942   1.0003   1.0182   1.0222   1.0358   1.0501   1.0604   1.0773
     1.0860   1.1001   1.1055   1.1181   1.1229   1.1388   1.1427   1.1557
     1.1722   1.1776   1.1850   1.2000   1.2089   1.2172   1.2238   1.2314
     1.2526   1.2639   1.2725   1.2829   1.3005   1.3127   1.3254   1.3423
     1.3481   1.3567   1.3644   1.3864   1.3977   1.4091   1.4180   1.4356
     1.4585   1.4704   1.4828   1.4944   1.4979   1.5160   1.5338   1.5465
     1.5637   1.5705   1.5791   1.6045   1.6254   1.6400   1.6542   1.6707
     1.6907   1.7013   1.7327   1.7442   1.7751   1.7939   1.8668   1.9151
     2.0217   2.0461   2.0913   2.1105   2.1537   2.1678   2.3927   2.3983
     4.0604   4.1650   4.5421   4.5754   4.6391   4.6701   4.7497   4.8260
     5.1988   5.2662   5.2877   5.3312   5.3816   5.4447   5.5339   5.5657
     5.6005   5.6539   5.8130   5.8547   5.9018   5.9109   5.9388   5.9804
     6.5407   6.5755   6.7195   6.7584   7.0295   7.0822   7.1484   7.1678
     7.2287   7.2626   7.3361   7.3768   7.4122   7.4572   7.5344   7.5840
     7.6373   7.6775   7.7128   7.7263   7.7593   7.7894   7.8110   7.8387
     7.8730   7.8913   7.9148   7.9320   7.9771   7.9839   8.0252   8.0714
     8.0892   8.1041   8.1454   8.1714   8.2027   8.2394   8.2445   8.2601
     8.2845   8.3122   8.3266   8.3587   8.3662   8.3927   8.3961   8.4025
     8.4189   8.4553   8.4701   8.4967   8.5226   8.5428   8.5581   8.5866
     8.6160   8.6257   8.6463   8.6622   8.6740   8.6841   8.7099   8.7173
     8.7359   8.7505   8.7747   8.7853   8.8147   8.8258   8.8411   8.8479
     8.8603   8.8767   8.8888   8.9009   8.9100   8.9338   8.9600   8.9779
     9.0048   9.0205   9.0394   9.0602   9.0848   9.0868   9.1384   9.1681
     9.1889   9.2115   9.2458   9.2589   9.2641   9.2879   9.2960   9.3100
     9.3594   9.3715   9.3912   9.4118   9.4399   9.4601   9.4650   9.4765
     9.5022   9.5121   9.5462   9.5570   9.5621   9.5744   9.6073   9.6184
     9.6332   9.6494   9.6577   9.6696   9.7163   9.7211   9.7649   9.7852
     9.8228   9.8448   9.8981   9.9104

     occupation numbers 
     1.0000   1.0000   1.0000   1.0000   1.0000   1.0000   1.0000   1.0000
     1.0000   1.0000   1.0000   1.0000   1.0000   1.0000   1.0000   1.0000
     1.0000   1.0000   1.0000   1.0000   1.0000   1.0000   1.0000   1.0000
     1.0000   1.0000   1.0000   1.0000   1.0000   1.0000   1.0000   1.0000
     1.0000   1.0000   1.0000   1.0000   1.0000   1.0000   1.0000   1.0000
     1.0000   1.0000   1.0000   1.0000   1.0000   1.0000   1.0000   1.0000
     1.0000   1.0000   1.0000   1.0000   1.0000   1.0000   1.0000   1.0000
     1.0000   1.0000   1.0000   1.0000   1.0000   1.0000   1.0000   1.0000
     1.0000   1.0000   1.0000   1.0000   1.0000   1.0000   1.0000   1.0000
     1.0000   1.0000   1.0000   1.0000   1.0000   1.0000   1.0000   1.0000
     1.0000   1.0000   1.0000   1.0000   1.0000   1.0000   1.0000   1.0000
     1.0000   1.0000   1.0000   1.0000   1.0000   1.0000   1.0000   1.0000
     1.0000   1.0000   1.0000   1.0000   1.0000   1.0000   1.0000   1.0000
     1.0000   1.0000   1.0000   1.0000   1.0000   1.0000   1.0000   1.0000
     1.0000   1.0000   1.0000   1.0000   1.0000   1.0000   1.0000   1.0000
     1.0000   1.0000   1.0000   1.0000   1.0000   1.0000   1.0000   1.0000
     1.0000   1.0000   1.0000   1.0000   1.0000   1.0000   1.0000   1.0000
     1.0000   1.0000   1.0000   1.0000   1.0000   1.0000   1.0000   1.0000
     1.0000   1.0000   1.0000   1.0000   1.0000   1.0000   1.0000   1.0000
     1.0000   1.0000   1.0000   1.0000   1.0000   1.0000   1.0000   1.0000
     1.0000   1.0000   1.0000   1.0000   1.0000   1.0000   1.0000   1.0000
     1.0000   1.0000   1.0000   1.0000   1.0000   1.0000   1.0000   1.0000
     1.0000   1.0000   1.0000   1.0000   1.0000   1.0000   1.0000   1.0000
     1.0000   1.0000   1.0000   1.0000   1.0000   1.0000   1.0000   1.0000
     1.0000   1.0000   1.0000   1.0000   1.0000   1.0000   1.0000   1.0000
     1.0000   1.0000   1.0000   1.0000   1.0000   1.0000   1.0000   1.0000
     1.0000   1.0000   1.0000   1.0000   1.0000   1.0000   1.0000   1.0000
     1.0000   1.0000   1.0000   1.0000   1.0000   1.0000   1.0000   1.0000
     1.0000   1.0000   1.0000   1.0000   1.0000   1.0000   1.0000   1.0000
     1.0000   1.0000   1.0000   1.0000   1.0000   1.0000   1.0000   1.0000
     1.0000   1.0000   1.0000   1.0000   1.0000   1.0000   1.0000   1.0000
     1.0000   1.0000   1.0000   1.0000   1.0000   1.0000   1.0000   1.0000
     1.0000   1.0000   1.0000   1.0000   1.0000   1.0000   1.0000   1.0000
     1.0000   1.0000   1.0000   1.0000   1.0000   1.0000   1.0000   1.0000
     1.0000   1.0000   1.0000   1.0000   1.0000   1.0000   1.0000   1.0000
     1.0000   1.0000   1.0000   1.0000   1.0000   1.0000   1.0000   1.0000
     1.0000   1.0000   1.0000   1.0000   1.0000   1.0000   1.0000   1.0000
     1.0000   1.0000   1.0000   1.0000   1.0000   1.0000   1.0000   1.0000
     1.0000   1.0000   1.0000   1.0000   1.0000   1.0000   1.0000   1.0000
     1.0000   1.0000   1.0000   1.0000   1.0000   1.0000   1.0000   1.0000
     1.0000   1.0000   1.0000   1.0000   1.0000   1.0000   1.0000   1.0000
     1.0000   1.0000   1.0000   1.0000   1.0000   1.0000   1.0000   1.0000
     1.0000   1.0000   1.0000   1.0000   1.0000   1.0000   1.0000   1.0000
     1.0000   1.0000   1.0000   1.0000   1.0000   1.0000   1.0000   1.0000
     0.0000   0.0000   0.0000   0.0000   0.0000   0.0000   0.0000   0.0000
     0.0000   0.0000   0.0000   0.0000   0.0000   0.0000   0.0000   0.0000
     0.0000   0.0000   0.0000   0.0000   0.0000   0.0000   0.0000   0.0000
     0.0000   0.0000   0.0000   0.0000   0.0000   0.0000   0.0000   0.0000
     0.0000   0.0000   0.0000   0.0000   0.0000   0.0000   0.0000   0.0000
     0.0000   0.0000   0.0000   0.0000   0.0000   0.0000   0.0000   0.0000
     0.0000   0.0000   0.0000   0.0000   0.0000   0.0000   0.0000   0.0000
     0.0000   0.0000   0.0000   0.0000   0.0000   0.0000   0.0000   0.0000
     0.0000   0.0000   0.0000   0.0000   0.0000   0.0000   0.0000   0.0000
     0.0000   0.0000   0.0000   0.0000   0.0000   0.0000   0.0000   0.0000
     0.0000   0.0000   0.0000   0.0000   0.0000   0.0000   0.0000   0.0000
     0.0000   0.0000   0.0000   0.0000   0.0000   0.0000   0.0000   0.0000
     0.0000   0.0000   0.0000   0.0000   0.0000   0.0000   0.0000   0.0000
     0.0000   0.0000   0.0000   0.0000   0.0000   0.0000   0.0000   0.0000
     0.0000   0.0000   0.0000   0.0000   0.0000   0.0000   0.0000   0.0000
     0.0000   0.0000   0.0000   0.0000   0.0000   0.0000   0.0000   0.0000
     0.0000   0.0000   0.0000   0.0000   0.0000   0.0000   0.0000   0.0000
     0.0000   0.0000   0.0000   0.0000   0.0000   0.0000   0.0000   0.0000
     0.0000   0.0000   0.0000   0.0000

          k = 0.2000 0.2000 0.2000 ( 73926 PWs)   bands (ev):

   -18.1281 -18.1281 -18.0397 -18.0397 -17.9993 -17.9993 -17.9954 -17.9954
   -17.9651 -17.9651 -17.9608 -17.9608 -17.8047 -17.8047 -17.7796 -17.7796
   -15.3216 -15.3216 -15.3009 -15.3009 -15.2534 -15.2528 -15.2492 -15.2488
   -15.2402 -15.2401 -15.2353 -15.2350 -15.2229 -15.2228 -15.2149 -15.2149
   -15.1849 -15.1848 -15.1675 -15.1674 -15.0949 -15.0948 -15.0876 -15.0876
   -15.0734 -15.0733 -15.0687 -15.0686 -15.0092 -15.0092 -15.0005 -15.0005
   -12.7928 -12.7912 -12.7746 -12.7715 -12.7699 -12.7693 -12.7335 -12.7305
   -12.7271 -12.7267 -12.7229 -12.7211 -12.7149 -12.7125 -12.6973 -12.6961
   -12.6839 -12.6832 -12.6576 -12.6572 -12.6566 -12.6564 -12.6473 -12.6459
   -12.6430 -12.6427 -12.6337 -12.6336 -12.5942 -12.5929 -12.5901 -12.5899
   -12.5700 -12.5692 -12.5628 -12.5620 -12.5390 -12.5379 -12.5064 -12.5056
   -12.4984 -12.4982 -12.4913 -12.4911 -12.4895 -12.4889 -12.4173 -12.4172
   -11.4054 -11.4044 -11.3466 -11.3454 -11.2600 -11.2598 -11.2455 -11.2446
   -11.1999 -11.1976 -11.1662 -11.1644 -11.0944 -11.0931 -11.0731 -11.0693
   -11.0511 -11.0495 -11.0246 -11.0232 -11.0207 -11.0185 -10.9761 -10.9748
   -10.9593 -10.9562 -10.9162 -10.9146 -10.8900 -10.8888 -10.8610 -10.8580
   -10.8278 -10.8265 -10.7853 -10.7837 -10.7624 -10.7611 -10.6842 -10.6836
   -10.6427 -10.6421 -10.6263 -10.6259 -10.5831 -10.5823 -10.5409 -10.5405
    -6.0981  -6.0980  -6.0137  -6.0132  -5.9770  -5.9767  -5.9723  -5.9719
    -5.9425  -5.9397  -5.9369  -5.9341  -5.7960  -5.7957  -5.7737  -5.7733
    -5.2485  -5.2474  -4.9208  -4.9203  -4.8893  -4.8880  -4.8426  -4.8413
    -4.5537  -4.5495  -4.5202  -4.5172  -4.5012  -4.4970  -4.4850  -4.4763
    -4.4694  -4.4665  -4.4192  -4.4132  -4.3989  -4.3938  -4.3876  -4.3828
    -4.3776  -4.3752  -4.3662  -4.3640  -4.3583  -4.3565  -4.3508  -4.3481
    -4.3432  -4.3397  -4.3213  -4.3181  -4.3147  -4.3138  -4.2184  -4.2164
    -4.1932  -4.1915  -4.1881  -4.1859  -4.1788  -4.1761  -4.1109  -4.1074
    -0.9355  -0.8593  -0.7410  -0.7133  -0.6745  -0.6505  -0.6169  -0.5973
    -0.5855  -0.5592  -0.5458  -0.5200  -0.4938  -0.4596  -0.4377  -0.4261
    -0.4004  -0.3843  -0.3638  -0.3476  -0.2861  -0.2513  -0.2404  -0.2309
     0.2171   0.2429   0.2880   0.2991   0.3131   0.3348   0.3674   0.3736
     0.3837   0.4077   0.4367   0.4445   0.4535   0.4637   0.4851   0.5018
     0.5152   0.5314   0.5476   0.5634   0.5769   0.6003   0.6404   0.6672
     0.6857   0.7011   0.7239   0.7325   0.7518   0.7650   0.7845   0.7957
     0.8095   0.8206   0.8271   0.8450   0.8618   0.8713   0.8865   0.8931
     0.8971   0.9223   0.9270   0.9367   0.9416   0.9617   0.9750   0.9822
     0.9904   0.9967   1.0112   1.0188   1.0295   1.0443   1.0566   1.0737
     1.0853   1.0955   1.1053   1.1179   1.1223   1.1350   1.1381   1.1552
     1.1705   1.1746   1.1852   1.2017   1.2066   1.2196   1.2239   1.2346
     1.2537   1.2628   1.2745   1.2850   1.2995   1.3115   1.3243   1.3417
     1.3499   1.3588   1.3642   1.3849   1.3971   1.4116   1.4163   1.4339
     1.4593   1.4686   1.4762   1.4945   1.5007   1.5167   1.5327   1.5453
     1.5598   1.5653   1.5780   1.5979   1.6216   1.6358   1.6540   1.6641
     1.6868   1.6987   1.7193   1.7332   1.7647   1.7852   1.8501   1.8983
     1.9873   2.0106   2.0584   2.0820   2.1225   2.1373   2.3304   2.3345
     4.1409   4.2504   4.5975   4.6302   4.6868   4.7244   4.8088   4.8843
     5.2242   5.2982   5.3165   5.3569   5.4171   5.4864   5.5918   5.6219
     5.6609   5.7190   5.8567   5.9040   5.9500   5.9662   5.9931   6.0361
     6.5133   6.5589   6.7365   6.7835   6.9961   7.0481   7.1113   7.1283
     7.1861   7.2278   7.2928   7.3407   7.3748   7.4215   7.4901   7.5465
     7.5952   7.6500   7.6802   7.7072   7.7504   7.7800   7.8042   7.8168
     7.8509   7.8858   7.9127   7.9196   7.9535   7.9677   8.0066   8.0541
     8.0784   8.0965   8.1214   8.1509   8.1749   8.2094   8.2203   8.2410
     8.2683   8.2865   8.3144   8.3370   8.3525   8.3759   8.3874   8.3988
     8.4099   8.4432   8.4613   8.4876   8.5139   8.5353   8.5544   8.5867
     8.6115   8.6213   8.6418   8.6577   8.6702   8.6742   8.7033   8.7140
     8.7421   8.7542   8.7702   8.7897   8.8146   8.8234   8.8409   8.8486
     8.8575   8.8706   8.8980   8.9075   8.9161   8.9361   8.9604   8.9763
     9.0046   9.0105   9.0299   9.0515   9.0816   9.0859   9.1305   9.1676
     9.1824   9.1963   9.2320   9.2542   9.2631   9.2760   9.2946   9.3087
     9.3528   9.3606   9.3767   9.3965   9.4274   9.4502   9.4564   9.4615
     9.4908   9.4967   9.5346   9.5454   9.5548   9.5710   9.6002   9.6091
     9.6254   9.6437   9.6484   9.6592   9.7050   9.7171   9.7596   9.7760
     9.8470   9.8688   9.9254   9.9396

     occupation numbers 
     1.0000   1.0000   1.0000   1.0000   1.0000   1.0000   1.0000   1.0000
     1.0000   1.0000   1.0000   1.0000   1.0000   1.0000   1.0000   1.0000
     1.0000   1.0000   1.0000   1.0000   1.0000   1.0000   1.0000   1.0000
     1.0000   1.0000   1.0000   1.0000   1.0000   1.0000   1.0000   1.0000
     1.0000   1.0000   1.0000   1.0000   1.0000   1.0000   1.0000   1.0000
     1.0000   1.0000   1.0000   1.0000   1.0000   1.0000   1.0000   1.0000
     1.0000   1.0000   1.0000   1.0000   1.0000   1.0000   1.0000   1.0000
     1.0000   1.0000   1.0000   1.0000   1.0000   1.0000   1.0000   1.0000
     1.0000   1.0000   1.0000   1.0000   1.0000   1.0000   1.0000   1.0000
     1.0000   1.0000   1.0000   1.0000   1.0000   1.0000   1.0000   1.0000
     1.0000   1.0000   1.0000   1.0000   1.0000   1.0000   1.0000   1.0000
     1.0000   1.0000   1.0000   1.0000   1.0000   1.0000   1.0000   1.0000
     1.0000   1.0000   1.0000   1.0000   1.0000   1.0000   1.0000   1.0000
     1.0000   1.0000   1.0000   1.0000   1.0000   1.0000   1.0000   1.0000
     1.0000   1.0000   1.0000   1.0000   1.0000   1.0000   1.0000   1.0000
     1.0000   1.0000   1.0000   1.0000   1.0000   1.0000   1.0000   1.0000
     1.0000   1.0000   1.0000   1.0000   1.0000   1.0000   1.0000   1.0000
     1.0000   1.0000   1.0000   1.0000   1.0000   1.0000   1.0000   1.0000
     1.0000   1.0000   1.0000   1.0000   1.0000   1.0000   1.0000   1.0000
     1.0000   1.0000   1.0000   1.0000   1.0000   1.0000   1.0000   1.0000
     1.0000   1.0000   1.0000   1.0000   1.0000   1.0000   1.0000   1.0000
     1.0000   1.0000   1.0000   1.0000   1.0000   1.0000   1.0000   1.0000
     1.0000   1.0000   1.0000   1.0000   1.0000   1.0000   1.0000   1.0000
     1.0000   1.0000   1.0000   1.0000   1.0000   1.0000   1.0000   1.0000
     1.0000   1.0000   1.0000   1.0000   1.0000   1.0000   1.0000   1.0000
     1.0000   1.0000   1.0000   1.0000   1.0000   1.0000   1.0000   1.0000
     1.0000   1.0000   1.0000   1.0000   1.0000   1.0000   1.0000   1.0000
     1.0000   1.0000   1.0000   1.0000   1.0000   1.0000   1.0000   1.0000
     1.0000   1.0000   1.0000   1.0000   1.0000   1.0000   1.0000   1.0000
     1.0000   1.0000   1.0000   1.0000   1.0000   1.0000   1.0000   1.0000
     1.0000   1.0000   1.0000   1.0000   1.0000   1.0000   1.0000   1.0000
     1.0000   1.0000   1.0000   1.0000   1.0000   1.0000   1.0000   1.0000
     1.0000   1.0000   1.0000   1.0000   1.0000   1.0000   1.0000   1.0000
     1.0000   1.0000   1.0000   1.0000   1.0000   1.0000   1.0000   1.0000
     1.0000   1.0000   1.0000   1.0000   1.0000   1.0000   1.0000   1.0000
     1.0000   1.0000   1.0000   1.0000   1.0000   1.0000   1.0000   1.0000
     1.0000   1.0000   1.0000   1.0000   1.0000   1.0000   1.0000   1.0000
     1.0000   1.0000   1.0000   1.0000   1.0000   1.0000   1.0000   1.0000
     1.0000   1.0000   1.0000   1.0000   1.0000   1.0000   1.0000   1.0000
     1.0000   1.0000   1.0000   1.0000   1.0000   1.0000   1.0000   1.0000
     1.0000   1.0000   1.0000   1.0000   1.0000   1.0000   1.0000   1.0000
     1.0000   1.0000   1.0000   1.0000   1.0000   1.0000   1.0000   1.0000
     1.0000   1.0000   1.0000   1.0000   1.0000   1.0000   1.0000   1.0000
     1.0000   1.0000   1.0000   1.0000   1.0000   1.0000   1.0000   1.0000
     0.0000   0.0000   0.0000   0.0000   0.0000   0.0000   0.0000   0.0000
     0.0000   0.0000   0.0000   0.0000   0.0000   0.0000   0.0000   0.0000
     0.0000   0.0000   0.0000   0.0000   0.0000   0.0000   0.0000   0.0000
     0.0000   0.0000   0.0000   0.0000   0.0000   0.0000   0.0000   0.0000
     0.0000   0.0000   0.0000   0.0000   0.0000   0.0000   0.0000   0.0000
     0.0000   0.0000   0.0000   0.0000   0.0000   0.0000   0.0000   0.0000
     0.0000   0.0000   0.0000   0.0000   0.0000   0.0000   0.0000   0.0000
     0.0000   0.0000   0.0000   0.0000   0.0000   0.0000   0.0000   0.0000
     0.0000   0.0000   0.0000   0.0000   0.0000   0.0000   0.0000   0.0000
     0.0000   0.0000   0.0000   0.0000   0.0000   0.0000   0.0000   0.0000
     0.0000   0.0000   0.0000   0.0000   0.0000   0.0000   0.0000   0.0000
     0.0000   0.0000   0.0000   0.0000   0.0000   0.0000   0.0000   0.0000
     0.0000   0.0000   0.0000   0.0000   0.0000   0.0000   0.0000   0.0000
     0.0000   0.0000   0.0000   0.0000   0.0000   0.0000   0.0000   0.0000
     0.0000   0.0000   0.0000   0.0000   0.0000   0.0000   0.0000   0.0000
     0.0000   0.0000   0.0000   0.0000   0.0000   0.0000   0.0000   0.0000
     0.0000   0.0000   0.0000   0.0000   0.0000   0.0000   0.0000   0.0000
     0.0000   0.0000   0.0000   0.0000   0.0000   0.0000   0.0000   0.0000
     0.0000   0.0000   0.0000   0.0000

          k = 0.2250 0.2250 0.2250 ( 73935 PWs)   bands (ev):

   -18.1281 -18.1281 -18.0397 -18.0397 -17.9993 -17.9993 -17.9954 -17.9954
   -17.9651 -17.9651 -17.9608 -17.9608 -17.8047 -17.8047 -17.7796 -17.7796
   -15.3216 -15.3216 -15.3009 -15.3009 -15.2533 -15.2527 -15.2494 -15.2488
   -15.2402 -15.2401 -15.2354 -15.2351 -15.2229 -15.2228 -15.2149 -15.2149
   -15.1849 -15.1848 -15.1675 -15.1674 -15.0949 -15.0948 -15.0876 -15.0876
   -15.0734 -15.0733 -15.0687 -15.0686 -15.0092 -15.0092 -15.0005 -15.0005
   -12.7922 -12.7905 -12.7738 -12.7706 -12.7696 -12.7688 -12.7343 -12.7309
   -12.7270 -12.7265 -12.7233 -12.7217 -12.7151 -12.7126 -12.6968 -12.6955
   -12.6836 -12.6829 -12.6576 -12.6572 -12.6567 -12.6565 -12.6479 -12.6466
   -12.6435 -12.6432 -12.6337 -12.6336 -12.5941 -12.5928 -12.5901 -12.5899
   -12.5701 -12.5693 -12.5624 -12.5615 -12.5396 -12.5385 -12.5066 -12.5058
   -12.4984 -12.4983 -12.4914 -12.4911 -12.4898 -12.4892 -12.4173 -12.4172
   -11.4031 -11.4021 -11.3494 -11.3481 -11.2612 -11.2611 -11.2458 -11.2449
   -11.2010 -11.1988 -11.1681 -11.1663 -11.0962 -11.0949 -11.0716 -11.0686
   -11.0521 -11.0496 -11.0257 -11.0230 -11.0174 -11.0139 -10.9732 -10.9716
   -10.9561 -10.9529 -10.9170 -10.9152 -10.8899 -10.8887 -10.8586 -10.8556
   -10.8277 -10.8265 -10.7853 -10.7837 -10.7637 -10.7623 -10.6841 -10.6834
   -10.6434 -10.6428 -10.6259 -10.6253 -10.5853 -10.5846 -10.5420 -10.5416
    -6.0981  -6.0980  -6.0136  -6.0132  -5.9769  -5.9765  -5.9724  -5.9721
    -5.9425  -5.9396  -5.9371  -5.9341  -5.7960  -5.7957  -5.7737  -5.7733
    -5.2228  -5.2216  -4.9138  -4.9134  -4.8867  -4.8854  -4.8370  -4.8356
    -4.5700  -4.5660  -4.5294  -4.5262  -4.5031  -4.4985  -4.4894  -4.4799
    -4.4754  -4.4731  -4.4196  -4.4138  -4.3993  -4.3938  -4.3877  -4.3833
    -4.3777  -4.3756  -4.3662  -4.3639  -4.3590  -4.3570  -4.3515  -4.3485
    -4.3434  -4.3398  -4.3217  -4.3180  -4.3151  -4.3141  -4.2214  -4.2179
    -4.1973  -4.1945  -4.1882  -4.1860  -4.1808  -4.1765  -4.1439  -4.1376
    -0.9076  -0.8302  -0.7138  -0.6832  -0.6456  -0.6201  -0.5909  -0.5694
    -0.5542  -0.5302  -0.5148  -0.4909  -0.4654  -0.4298  -0.4144  -0.4006
    -0.3757  -0.3556  -0.3325  -0.3183  -0.2577  -0.2257  -0.2169  -0.2051
     0.2088   0.2369   0.2831   0.2904   0.3088   0.3344   0.3455   0.3605
     0.3693   0.3917   0.4219   0.4262   0.4393   0.4474   0.4702   0.4868
     0.4931   0.5143   0.5269   0.5447   0.5547   0.5797   0.6250   0.6456
     0.6667   0.6938   0.7134   0.7228   0.7445   0.7571   0.7729   0.7871
     0.7983   0.8104   0.8193   0.8393   0.8545   0.8628   0.8767   0.8831
     0.8874   0.9156   0.9199   0.9304   0.9388   0.9535   0.9707   0.9732
     0.9866   0.9935   1.0045   1.0153   1.0238   1.0370   1.0520   1.0686
     1.0806   1.0945   1.1032   1.1174   1.1208   1.1297   1.1364   1.1515
     1.1653   1.1730   1.1863   1.1996   1.2054   1.2213   1.2256   1.2394
     1.2546   1.2616   1.2769   1.2851   1.3014   1.3098   1.3216   1.3413
     1.3511   1.3589   1.3685   1.3831   1.3964   1.4140   1.4164   1.4307
     1.4584   1.4669   1.4703   1.4955   1.5035   1.5164   1.5317   1.5444
     1.5554   1.5605   1.5782   1.5917   1.6177   1.6311   1.6523   1.6585
     1.6817   1.6953   1.7077   1.7232   1.7546   1.7753   1.8302   1.8745
     1.9547   1.9765   2.0267   2.0545   2.0907   2.1067   2.2667   2.2707
     4.2269   4.3395   4.6557   4.6880   4.7399   4.7824   4.8720   4.9456
     5.2515   5.3253   5.3525   5.3843   5.4548   5.5279   5.6560   5.6838
     5.7273   5.7883   5.9058   5.9584   6.0010   6.0264   6.0517   6.0966
     6.4752   6.5248   6.7592   6.8216   6.9634   7.0122   7.0738   7.0859
     7.1400   7.1911   7.2459   7.3025   7.3357   7.3818   7.4427   7.5045
     7.5480   7.6119   7.6380   7.6758   7.7333   7.7604   7.7858   7.7920
     7.8355   7.8785   7.9034   7.9161   7.9398   7.9494   7.9991   8.0334
     8.0617   8.0872   8.0960   8.1328   8.1480   8.1790   8.1951   8.2208
     8.2476   8.2638   8.2991   8.3141   8.3412   8.3603   8.3754   8.3906
     8.4047   8.4282   8.4493   8.4790   8.5041   8.5215   8.5592   8.5888
     8.6038   8.6118   8.6333   8.6451   8.6621   8.6694   8.6992   8.7113
     8.7461   8.7496   8.7657   8.7923   8.8115   8.8257   8.8377   8.8485
     8.8660   8.8757   8.9078   8.9179   8.9277   8.9394   8.9608   8.9733
     9.0029   9.0091   9.0242   9.0457   9.0844   9.0901   9.1248   9.1534
     9.1831   9.1992   9.2232   9.2504   9.2664   9.2740   9.2942   9.3102
     9.3457   9.3514   9.3649   9.3841   9.4168   9.4393   9.4442   9.4510
     9.4823   9.4845   9.5214   9.5330   9.5491   9.5694   9.5932   9.6013
     9.6169   9.6355   9.6430   9.6551   9.6915   9.7105   9.7533   9.7666
     9.8669   9.8896   9.9512   9.9685

     occupation numbers 
     1.0000   1.0000   1.0000   1.0000   1.0000   1.0000   1.0000   1.0000
     1.0000   1.0000   1.0000   1.0000   1.0000   1.0000   1.0000   1.0000
     1.0000   1.0000   1.0000   1.0000   1.0000   1.0000   1.0000   1.0000
     1.0000   1.0000   1.0000   1.0000   1.0000   1.0000   1.0000   1.0000
     1.0000   1.0000   1.0000   1.0000   1.0000   1.0000   1.0000   1.0000
     1.0000   1.0000   1.0000   1.0000   1.0000   1.0000   1.0000   1.0000
     1.0000   1.0000   1.0000   1.0000   1.0000   1.0000   1.0000   1.0000
     1.0000   1.0000   1.0000   1.0000   1.0000   1.0000   1.0000   1.0000
     1.0000   1.0000   1.0000   1.0000   1.0000   1.0000   1.0000   1.0000
     1.0000   1.0000   1.0000   1.0000   1.0000   1.0000   1.0000   1.0000
     1.0000   1.0000   1.0000   1.0000   1.0000   1.0000   1.0000   1.0000
     1.0000   1.0000   1.0000   1.0000   1.0000   1.0000   1.0000   1.0000
     1.0000   1.0000   1.0000   1.0000   1.0000   1.0000   1.0000   1.0000
     1.0000   1.0000   1.0000   1.0000   1.0000   1.0000   1.0000   1.0000
     1.0000   1.0000   1.0000   1.0000   1.0000   1.0000   1.0000   1.0000
     1.0000   1.0000   1.0000   1.0000   1.0000   1.0000   1.0000   1.0000
     1.0000   1.0000   1.0000   1.0000   1.0000   1.0000   1.0000   1.0000
     1.0000   1.0000   1.0000   1.0000   1.0000   1.0000   1.0000   1.0000
     1.0000   1.0000   1.0000   1.0000   1.0000   1.0000   1.0000   1.0000
     1.0000   1.0000   1.0000   1.0000   1.0000   1.0000   1.0000   1.0000
     1.0000   1.0000   1.0000   1.0000   1.0000   1.0000   1.0000   1.0000
     1.0000   1.0000   1.0000   1.0000   1.0000   1.0000   1.0000   1.0000
     1.0000   1.0000   1.0000   1.0000   1.0000   1.0000   1.0000   1.0000
     1.0000   1.0000   1.0000   1.0000   1.0000   1.0000   1.0000   1.0000
     1.0000   1.0000   1.0000   1.0000   1.0000   1.0000   1.0000   1.0000
     1.0000   1.0000   1.0000   1.0000   1.0000   1.0000   1.0000   1.0000
     1.0000   1.0000   1.0000   1.0000   1.0000   1.0000   1.0000   1.0000
     1.0000   1.0000   1.0000   1.0000   1.0000   1.0000   1.0000   1.0000
     1.0000   1.0000   1.0000   1.0000   1.0000   1.0000   1.0000   1.0000
     1.0000   1.0000   1.0000   1.0000   1.0000   1.0000   1.0000   1.0000
     1.0000   1.0000   1.0000   1.0000   1.0000   1.0000   1.0000   1.0000
     1.0000   1.0000   1.0000   1.0000   1.0000   1.0000   1.0000   1.0000
     1.0000   1.0000   1.0000   1.0000   1.0000   1.0000   1.0000   1.0000
     1.0000   1.0000   1.0000   1.0000   1.0000   1.0000   1.0000   1.0000
     1.0000   1.0000   1.0000   1.0000   1.0000   1.0000   1.0000   1.0000
     1.0000   1.0000   1.0000   1.0000   1.0000   1.0000   1.0000   1.0000
     1.0000   1.0000   1.0000   1.0000   1.0000   1.0000   1.0000   1.0000
     1.0000   1.0000   1.0000   1.0000   1.0000   1.0000   1.0000   1.0000
     1.0000   1.0000   1.0000   1.0000   1.0000   1.0000   1.0000   1.0000
     1.0000   1.0000   1.0000   1.0000   1.0000   1.0000   1.0000   1.0000
     1.0000   1.0000   1.0000   1.0000   1.0000   1.0000   1.0000   1.0000
     1.0000   1.0000   1.0000   1.0000   1.0000   1.0000   1.0000   1.0000
     1.0000   1.0000   1.0000   1.0000   1.0000   1.0000   1.0000   1.0000
     1.0000   1.0000   1.0000   1.0000   1.0000   1.0000   1.0000   1.0000
     0.0000   0.0000   0.0000   0.0000   0.0000   0.0000   0.0000   0.0000
     0.0000   0.0000   0.0000   0.0000   0.0000   0.0000   0.0000   0.0000
     0.0000   0.0000   0.0000   0.0000   0.0000   0.0000   0.0000   0.0000
     0.0000   0.0000   0.0000   0.0000   0.0000   0.0000   0.0000   0.0000
     0.0000   0.0000   0.0000   0.0000   0.0000   0.0000   0.0000   0.0000
     0.0000   0.0000   0.0000   0.0000   0.0000   0.0000   0.0000   0.0000
     0.0000   0.0000   0.0000   0.0000   0.0000   0.0000   0.0000   0.0000
     0.0000   0.0000   0.0000   0.0000   0.0000   0.0000   0.0000   0.0000
     0.0000   0.0000   0.0000   0.0000   0.0000   0.0000   0.0000   0.0000
     0.0000   0.0000   0.0000   0.0000   0.0000   0.0000   0.0000   0.0000
     0.0000   0.0000   0.0000   0.0000   0.0000   0.0000   0.0000   0.0000
     0.0000   0.0000   0.0000   0.0000   0.0000   0.0000   0.0000   0.0000
     0.0000   0.0000   0.0000   0.0000   0.0000   0.0000   0.0000   0.0000
     0.0000   0.0000   0.0000   0.0000   0.0000   0.0000   0.0000   0.0000
     0.0000   0.0000   0.0000   0.0000   0.0000   0.0000   0.0000   0.0000
     0.0000   0.0000   0.0000   0.0000   0.0000   0.0000   0.0000   0.0000
     0.0000   0.0000   0.0000   0.0000   0.0000   0.0000   0.0000   0.0000
     0.0000   0.0000   0.0000   0.0000   0.0000   0.0000   0.0000   0.0000
     0.0000   0.0000   0.0000   0.0000

          k = 0.2500 0.2500 0.2500 ( 73932 PWs)   bands (ev):

   -18.1281 -18.1281 -18.0397 -18.0397 -17.9993 -17.9993 -17.9954 -17.9954
   -17.9651 -17.9651 -17.9608 -17.9608 -17.8047 -17.8047 -17.7796 -17.7796
   -15.3216 -15.3216 -15.3009 -15.3009 -15.2532 -15.2525 -15.2495 -15.2489
   -15.2402 -15.2401 -15.2354 -15.2351 -15.2228 -15.2228 -15.2149 -15.2149
   -15.1849 -15.1848 -15.1675 -15.1675 -15.0949 -15.0948 -15.0876 -15.0876
   -15.0734 -15.0733 -15.0688 -15.0687 -15.0092 -15.0092 -15.0005 -15.0005
   -12.7915 -12.7898 -12.7729 -12.7700 -12.7693 -12.7680 -12.7354 -12.7314
   -12.7269 -12.7264 -12.7236 -12.7222 -12.7154 -12.7128 -12.6962 -12.6949
   -12.6832 -12.6825 -12.6577 -12.6571 -12.6568 -12.6567 -12.6484 -12.6472
   -12.6440 -12.6436 -12.6337 -12.6336 -12.5941 -12.5927 -12.5901 -12.5899
   -12.5701 -12.5693 -12.5620 -12.5611 -12.5403 -12.5391 -12.5069 -12.5061
   -12.4985 -12.4983 -12.4915 -12.4912 -12.4900 -12.4895 -12.4173 -12.4172
   -11.4009 -11.3998 -11.3520 -11.3507 -11.2629 -11.2627 -11.2457 -11.2449
   -11.2019 -11.1999 -11.1698 -11.1681 -11.0985 -11.0973 -11.0705 -11.0686
   -11.0523 -11.0487 -11.0272 -11.0242 -11.0121 -11.0085 -10.9703 -10.9686
   -10.9529 -10.9497 -10.9177 -10.9157 -10.8900 -10.8889 -10.8562 -10.8532
   -10.8276 -10.8264 -10.7855 -10.7839 -10.7649 -10.7634 -10.6838 -10.6831
   -10.6441 -10.6434 -10.6256 -10.6250 -10.5876 -10.5869 -10.5431 -10.5427
    -6.0981  -6.0979  -6.0136  -6.0132  -5.9767  -5.9763  -5.9725  -5.9722
    -5.9426  -5.9395  -5.9372  -5.9342  -5.7960  -5.7957  -5.7737  -5.7733
    -5.1946  -5.1933  -4.9058  -4.9056  -4.8837  -4.8824  -4.8308  -4.8295
    -4.5876  -4.5839  -4.5395  -4.5364  -4.5059  -4.4999  -4.4959  -4.4888
    -4.4772  -4.4763  -4.4200  -4.4143  -4.3997  -4.3940  -4.3878  -4.3839
    -4.3779  -4.3761  -4.3662  -4.3640  -4.3597  -4.3575  -4.3523  -4.3489
    -4.3437  -4.3399  -4.3222  -4.3180  -4.3157  -4.3142  -4.2308  -4.2244
    -4.2067  -4.2016  -4.1883  -4.1862  -4.1832  -4.1774  -4.1682  -4.1584
    -0.8762  -0.7989  -0.6847  -0.6504  -0.6147  -0.5873  -0.5627  -0.5407
    -0.5198  -0.4994  -0.4831  -0.4600  -0.4349  -0.3997  -0.3906  -0.3710
    -0.3493  -0.3272  -0.2985  -0.2834  -0.2271  -0.1991  -0.1917  -0.1750
     0.1955   0.2261   0.2697   0.2772   0.3018   0.3178   0.3316   0.3483
     0.3528   0.3765   0.4011   0.4091   0.4248   0.4327   0.4503   0.4680
     0.4749   0.4952   0.5082   0.5223   0.5362   0.5591   0.6016   0.6171
     0.6570   0.6867   0.7056   0.7161   0.7367   0.7511   0.7611   0.7772
     0.7891   0.8020   0.8130   0.8338   0.8452   0.8552   0.8662   0.8733
     0.8776   0.9077   0.9114   0.9265   0.9357   0.9454   0.9631   0.9659
     0.9819   0.9909   0.9980   1.0110   1.0188   1.0296   1.0464   1.0618
     1.0745   1.0938   1.0991   1.1147   1.1173   1.1277   1.1357   1.1458
     1.1592   1.1723   1.1848   1.1964   1.2034   1.2217   1.2285   1.2450
     1.2547   1.2620   1.2787   1.2837   1.3039   1.3087   1.3195   1.3405
     1.3516   1.3599   1.3723   1.3814   1.3967   1.4156   1.4174   1.4278
     1.4573   1.4639   1.4665   1.4965   1.5047   1.5159   1.5302   1.5433
     1.5517   1.5575   1.5779   1.5865   1.6136   1.6271   1.6466   1.6548
     1.6755   1.6873   1.7016   1.7150   1.7445   1.7638   1.8086   1.8460
     1.9231   1.9444   1.9966   2.0279   2.0605   2.0783   2.2032   2.2086
     4.3171   4.4316   4.7149   4.7484   4.7975   4.8433   4.9374   5.0089
     5.2805   5.3511   5.3905   5.4128   5.4942   5.5685   5.7249   5.7496
     5.7990   5.8601   5.9598   6.0162   6.0530   6.0903   6.1139   6.1613
     6.4342   6.4817   6.7741   6.8630   6.9316   6.9800   7.0360   7.0449
     7.0915   7.1531   7.1968   7.2637   7.2955   7.3387   7.3942   7.4595
     7.4970   7.5653   7.5894   7.6352   7.6948   7.7233   7.7567   7.7803
     7.8233   7.8622   7.8881   7.9115   7.9302   7.9443   7.9877   8.0162
     8.0478   8.0630   8.0809   8.1175   8.1248   8.1515   8.1721   8.1977
     8.2253   8.2444   8.2813   8.2900   8.3309   8.3491   8.3640   8.3764
     8.4003   8.4157   8.4348   8.4681   8.4953   8.5111   8.5629   8.5884
     8.5939   8.5994   8.6205   8.6304   8.6522   8.6684   8.6957   8.7054
     8.7407   8.7437   8.7593   8.7878   8.8100   8.8302   8.8426   8.8538
     8.8717   8.8837   8.9095   8.9301   8.9425   8.9473   8.9627   8.9766
     9.0041   9.0142   9.0262   9.0468   9.0830   9.0953   9.1304   9.1443
     9.1821   9.2051   9.2289   9.2500   9.2708   9.2809   9.2950   9.3106
     9.3369   9.3454   9.3570   9.3738   9.4091   9.4271   9.4339   9.4451
     9.4735   9.4779   9.5130   9.5246   9.5419   9.5652   9.5866   9.5957
     9.6101   9.6243   9.6409   9.6569   9.6788   9.7012   9.7472   9.7587
     9.8817   9.9061   9.9714   9.9905

     occupation numbers 
     1.0000   1.0000   1.0000   1.0000   1.0000   1.0000   1.0000   1.0000
     1.0000   1.0000   1.0000   1.0000   1.0000   1.0000   1.0000   1.0000
     1.0000   1.0000   1.0000   1.0000   1.0000   1.0000   1.0000   1.0000
     1.0000   1.0000   1.0000   1.0000   1.0000   1.0000   1.0000   1.0000
     1.0000   1.0000   1.0000   1.0000   1.0000   1.0000   1.0000   1.0000
     1.0000   1.0000   1.0000   1.0000   1.0000   1.0000   1.0000   1.0000
     1.0000   1.0000   1.0000   1.0000   1.0000   1.0000   1.0000   1.0000
     1.0000   1.0000   1.0000   1.0000   1.0000   1.0000   1.0000   1.0000
     1.0000   1.0000   1.0000   1.0000   1.0000   1.0000   1.0000   1.0000
     1.0000   1.0000   1.0000   1.0000   1.0000   1.0000   1.0000   1.0000
     1.0000   1.0000   1.0000   1.0000   1.0000   1.0000   1.0000   1.0000
     1.0000   1.0000   1.0000   1.0000   1.0000   1.0000   1.0000   1.0000
     1.0000   1.0000   1.0000   1.0000   1.0000   1.0000   1.0000   1.0000
     1.0000   1.0000   1.0000   1.0000   1.0000   1.0000   1.0000   1.0000
     1.0000   1.0000   1.0000   1.0000   1.0000   1.0000   1.0000   1.0000
     1.0000   1.0000   1.0000   1.0000   1.0000   1.0000   1.0000   1.0000
     1.0000   1.0000   1.0000   1.0000   1.0000   1.0000   1.0000   1.0000
     1.0000   1.0000   1.0000   1.0000   1.0000   1.0000   1.0000   1.0000
     1.0000   1.0000   1.0000   1.0000   1.0000   1.0000   1.0000   1.0000
     1.0000   1.0000   1.0000   1.0000   1.0000   1.0000   1.0000   1.0000
     1.0000   1.0000   1.0000   1.0000   1.0000   1.0000   1.0000   1.0000
     1.0000   1.0000   1.0000   1.0000   1.0000   1.0000   1.0000   1.0000
     1.0000   1.0000   1.0000   1.0000   1.0000   1.0000   1.0000   1.0000
     1.0000   1.0000   1.0000   1.0000   1.0000   1.0000   1.0000   1.0000
     1.0000   1.0000   1.0000   1.0000   1.0000   1.0000   1.0000   1.0000
     1.0000   1.0000   1.0000   1.0000   1.0000   1.0000   1.0000   1.0000
     1.0000   1.0000   1.0000   1.0000   1.0000   1.0000   1.0000   1.0000
     1.0000   1.0000   1.0000   1.0000   1.0000   1.0000   1.0000   1.0000
     1.0000   1.0000   1.0000   1.0000   1.0000   1.0000   1.0000   1.0000
     1.0000   1.0000   1.0000   1.0000   1.0000   1.0000   1.0000   1.0000
     1.0000   1.0000   1.0000   1.0000   1.0000   1.0000   1.0000   1.0000
     1.0000   1.0000   1.0000   1.0000   1.0000   1.0000   1.0000   1.0000
     1.0000   1.0000   1.0000   1.0000   1.0000   1.0000   1.0000   1.0000
     1.0000   1.0000   1.0000   1.0000   1.0000   1.0000   1.0000   1.0000
     1.0000   1.0000   1.0000   1.0000   1.0000   1.0000   1.0000   1.0000
     1.0000   1.0000   1.0000   1.0000   1.0000   1.0000   1.0000   1.0000
     1.0000   1.0000   1.0000   1.0000   1.0000   1.0000   1.0000   1.0000
     1.0000   1.0000   1.0000   1.0000   1.0000   1.0000   1.0000   1.0000
     1.0000   1.0000   1.0000   1.0000   1.0000   1.0000   1.0000   1.0000
     1.0000   1.0000   1.0000   1.0000   1.0000   1.0000   1.0000   1.0000
     1.0000   1.0000   1.0000   1.0000   1.0000   1.0000   1.0000   1.0000
     1.0000   1.0000   1.0000   1.0000   1.0000   1.0000   1.0000   1.0000
     1.0000   1.0000   1.0000   1.0000   1.0000   1.0000   1.0000   1.0000
     1.0000   1.0000   1.0000   1.0000   1.0000   1.0000   1.0000   1.0000
     0.0000   0.0000   0.0000   0.0000   0.0000   0.0000   0.0000   0.0000
     0.0000   0.0000   0.0000   0.0000   0.0000   0.0000   0.0000   0.0000
     0.0000   0.0000   0.0000   0.0000   0.0000   0.0000   0.0000   0.0000
     0.0000   0.0000   0.0000   0.0000   0.0000   0.0000   0.0000   0.0000
     0.0000   0.0000   0.0000   0.0000   0.0000   0.0000   0.0000   0.0000
     0.0000   0.0000   0.0000   0.0000   0.0000   0.0000   0.0000   0.0000
     0.0000   0.0000   0.0000   0.0000   0.0000   0.0000   0.0000   0.0000
     0.0000   0.0000   0.0000   0.0000   0.0000   0.0000   0.0000   0.0000
     0.0000   0.0000   0.0000   0.0000   0.0000   0.0000   0.0000   0.0000
     0.0000   0.0000   0.0000   0.0000   0.0000   0.0000   0.0000   0.0000
     0.0000   0.0000   0.0000   0.0000   0.0000   0.0000   0.0000   0.0000
     0.0000   0.0000   0.0000   0.0000   0.0000   0.0000   0.0000   0.0000
     0.0000   0.0000   0.0000   0.0000   0.0000   0.0000   0.0000   0.0000
     0.0000   0.0000   0.0000   0.0000   0.0000   0.0000   0.0000   0.0000
     0.0000   0.0000   0.0000   0.0000   0.0000   0.0000   0.0000   0.0000
     0.0000   0.0000   0.0000   0.0000   0.0000   0.0000   0.0000   0.0000
     0.0000   0.0000   0.0000   0.0000   0.0000   0.0000   0.0000   0.0000
     0.0000   0.0000   0.0000   0.0000   0.0000   0.0000   0.0000   0.0000
     0.0000   0.0000   0.0000   0.0000

          k = 0.2750 0.2750 0.2750 ( 73950 PWs)   bands (ev):

   -18.1281 -18.1281 -18.0397 -18.0397 -17.9993 -17.9993 -17.9954 -17.9954
   -17.9650 -17.9650 -17.9608 -17.9608 -17.8047 -17.8047 -17.7796 -17.7796
   -15.3216 -15.3216 -15.3009 -15.3008 -15.2531 -15.2523 -15.2496 -15.2490
   -15.2402 -15.2401 -15.2354 -15.2351 -15.2228 -15.2228 -15.2149 -15.2148
   -15.1849 -15.1848 -15.1675 -15.1675 -15.0949 -15.0948 -15.0876 -15.0876
   -15.0733 -15.0732 -15.0688 -15.0687 -15.0092 -15.0092 -15.0005 -15.0005
   -12.7908 -12.7890 -12.7719 -12.7697 -12.7690 -12.7668 -12.7366 -12.7321
   -12.7268 -12.7264 -12.7238 -12.7226 -12.7156 -12.7130 -12.6956 -12.6944
   -12.6828 -12.6821 -12.6578 -12.6571 -12.6569 -12.6568 -12.6490 -12.6479
   -12.6446 -12.6441 -12.6338 -12.6336 -12.5940 -12.5927 -12.5900 -12.5899
   -12.5702 -12.5694 -12.5615 -12.5605 -12.5410 -12.5397 -12.5072 -12.5063
   -12.4985 -12.4983 -12.4917 -12.4913 -12.4903 -12.4898 -12.4173 -12.4172
   -11.3988 -11.3976 -11.3544 -11.3530 -11.2651 -11.2647 -11.2453 -11.2444
   -11.2030 -11.2010 -11.1712 -11.1696 -11.1012 -11.1002 -11.0702 -11.0693
   -11.0516 -11.0468 -11.0285 -11.0254 -11.0067 -11.0031 -10.9676 -10.9658
   -10.9496 -10.9464 -10.9184 -10.9163 -10.8904 -10.8894 -10.8538 -10.8509
   -10.8275 -10.8263 -10.7858 -10.7844 -10.7660 -10.7645 -10.6835 -10.6827
   -10.6449 -10.6441 -10.6256 -10.6249 -10.5897 -10.5891 -10.5442 -10.5437
    -6.0981  -6.0979  -6.0136  -6.0132  -5.9765  -5.9761  -5.9726  -5.9723
    -5.9426  -5.9395  -5.9372  -5.9342  -5.7960  -5.7958  -5.7737  -5.7733
    -5.1640  -5.1627  -4.8971  -4.8966  -4.8803  -4.8790  -4.8242  -4.8231
    -4.6063  -4.6028  -4.5502  -4.5473  -4.5120  -4.5062  -4.4993  -4.4960
    -4.4787  -4.4773  -4.4205  -4.4149  -4.4003  -4.3942  -4.3879  -4.3846
    -4.3783  -4.3767  -4.3662  -4.3642  -4.3605  -4.3581  -4.3531  -4.3493
    -4.3441  -4.3402  -4.3227  -4.3180  -4.3166  -4.3144  -4.2553  -4.2495
    -4.2123  -4.2084  -4.1884  -4.1864  -4.1846  -4.1807  -4.1748  -4.1671
    -0.8415  -0.7653  -0.6536  -0.6156  -0.5822  -0.5527  -0.5323  -0.5113
    -0.4837  -0.4670  -0.4507  -0.4279  -0.4034  -0.3700  -0.3652  -0.3379
    -0.3216  -0.2991  -0.2625  -0.2440  -0.1959  -0.1712  -0.1643  -0.1412
     0.1757   0.2083   0.2449   0.2626   0.2796   0.2976   0.3234   0.3318
     0.3417   0.3588   0.3800   0.3935   0.4096   0.4199   0.4277   0.4475
     0.4568   0.4711   0.4923   0.4996   0.5186   0.5384   0.5715   0.5920
     0.6530   0.6802   0.7001   0.7116   0.7285   0.7428   0.7528   0.7684
     0.7824   0.7946   0.8076   0.8285   0.8347   0.8469   0.8565   0.8647
     0.8687   0.8997   0.9022   0.9231   0.9315   0.9380   0.9537   0.9596
     0.9760   0.9866   0.9934   1.0055   1.0129   1.0231   1.0397   1.0539
     1.0693   1.0905   1.0927   1.1103   1.1147   1.1268   1.1346   1.1401
     1.1542   1.1709   1.1802   1.1930   1.2004   1.2220   1.2308   1.2482
     1.2565   1.2635   1.2782   1.2834   1.3021   1.3100   1.3203   1.3397
     1.3518   1.3611   1.3739   1.3805   1.3994   1.4139   1.4177   1.4296
     1.4565   1.4597   1.4642   1.4969   1.5028   1.5161   1.5274   1.5418
     1.5483   1.5568   1.5762   1.5829   1.6094   1.6241   1.6375   1.6506
     1.6686   1.6772   1.6985   1.7096   1.7348   1.7507   1.7871   1.8175
     1.8925   1.9140   1.9674   1.9997   2.0353   2.0536   2.1419   2.1498
     4.4104   4.5255   4.7736   4.8111   4.8585   4.9061   5.0031   5.0732
     5.3107   5.3773   5.4268   5.4424   5.5346   5.6072   5.7961   5.8171
     5.8752   5.9318   6.0176   6.0747   6.1042   6.1564   6.1786   6.2293
     6.3982   6.4373   6.7715   6.8825   6.9091   6.9577   6.9957   7.0183
     7.0425   7.1148   7.1476   7.2264   7.2555   7.2928   7.3467   7.4126
     7.4434   7.5127   7.5364   7.5864   7.6432   7.6714   7.7249   7.7664
     7.8064   7.8406   7.8724   7.8923   7.9237   7.9464   7.9625   8.0166
     8.0298   8.0479   8.0659   8.1011   8.1043   8.1294   8.1543   8.1738
     8.2038   8.2268   8.2621   8.2682   8.3211   8.3415   8.3551   8.3611
     8.3934   8.4059   8.4222   8.4539   8.4878   8.5042   8.5587   8.5727
     8.5830   8.5974   8.6047   8.6213   8.6434   8.6645   8.6874   8.6982
     8.7324   8.7343   8.7505   8.7788   8.8043   8.8369   8.8509   8.8606
     8.8715   8.8927   8.9125   8.9337   8.9556   8.9601   8.9750   8.9846
     9.0126   9.0280   9.0357   9.0562   9.0804   9.1032   9.1403   9.1479
     9.1793   9.2101   9.2404   9.2552   9.2744   9.2859   9.3012   9.3147
     9.3306   9.3403   9.3533   9.3653   9.4033   9.4174   9.4290   9.4424
     9.4666   9.4727   9.5123   9.5205   9.5352   9.5573   9.5829   9.5900
     9.6057   9.6145   9.6411   9.6593   9.6693   9.6919   9.7421   9.7526
     9.8919   9.9182   9.9861  10.0048

     occupation numbers 
     1.0000   1.0000   1.0000   1.0000   1.0000   1.0000   1.0000   1.0000
     1.0000   1.0000   1.0000   1.0000   1.0000   1.0000   1.0000   1.0000
     1.0000   1.0000   1.0000   1.0000   1.0000   1.0000   1.0000   1.0000
     1.0000   1.0000   1.0000   1.0000   1.0000   1.0000   1.0000   1.0000
     1.0000   1.0000   1.0000   1.0000   1.0000   1.0000   1.0000   1.0000
     1.0000   1.0000   1.0000   1.0000   1.0000   1.0000   1.0000   1.0000
     1.0000   1.0000   1.0000   1.0000   1.0000   1.0000   1.0000   1.0000
     1.0000   1.0000   1.0000   1.0000   1.0000   1.0000   1.0000   1.0000
     1.0000   1.0000   1.0000   1.0000   1.0000   1.0000   1.0000   1.0000
     1.0000   1.0000   1.0000   1.0000   1.0000   1.0000   1.0000   1.0000
     1.0000   1.0000   1.0000   1.0000   1.0000   1.0000   1.0000   1.0000
     1.0000   1.0000   1.0000   1.0000   1.0000   1.0000   1.0000   1.0000
     1.0000   1.0000   1.0000   1.0000   1.0000   1.0000   1.0000   1.0000
     1.0000   1.0000   1.0000   1.0000   1.0000   1.0000   1.0000   1.0000
     1.0000   1.0000   1.0000   1.0000   1.0000   1.0000   1.0000   1.0000
     1.0000   1.0000   1.0000   1.0000   1.0000   1.0000   1.0000   1.0000
     1.0000   1.0000   1.0000   1.0000   1.0000   1.0000   1.0000   1.0000
     1.0000   1.0000   1.0000   1.0000   1.0000   1.0000   1.0000   1.0000
     1.0000   1.0000   1.0000   1.0000   1.0000   1.0000   1.0000   1.0000
     1.0000   1.0000   1.0000   1.0000   1.0000   1.0000   1.0000   1.0000
     1.0000   1.0000   1.0000   1.0000   1.0000   1.0000   1.0000   1.0000
     1.0000   1.0000   1.0000   1.0000   1.0000   1.0000   1.0000   1.0000
     1.0000   1.0000   1.0000   1.0000   1.0000   1.0000   1.0000   1.0000
     1.0000   1.0000   1.0000   1.0000   1.0000   1.0000   1.0000   1.0000
     1.0000   1.0000   1.0000   1.0000   1.0000   1.0000   1.0000   1.0000
     1.0000   1.0000   1.0000   1.0000   1.0000   1.0000   1.0000   1.0000
     1.0000   1.0000   1.0000   1.0000   1.0000   1.0000   1.0000   1.0000
     1.0000   1.0000   1.0000   1.0000   1.0000   1.0000   1.0000   1.0000
     1.0000   1.0000   1.0000   1.0000   1.0000   1.0000   1.0000   1.0000
     1.0000   1.0000   1.0000   1.0000   1.0000   1.0000   1.0000   1.0000
     1.0000   1.0000   1.0000   1.0000   1.0000   1.0000   1.0000   1.0000
     1.0000   1.0000   1.0000   1.0000   1.0000   1.0000   1.0000   1.0000
     1.0000   1.0000   1.0000   1.0000   1.0000   1.0000   1.0000   1.0000
     1.0000   1.0000   1.0000   1.0000   1.0000   1.0000   1.0000   1.0000
     1.0000   1.0000   1.0000   1.0000   1.0000   1.0000   1.0000   1.0000
     1.0000   1.0000   1.0000   1.0000   1.0000   1.0000   1.0000   1.0000
     1.0000   1.0000   1.0000   1.0000   1.0000   1.0000   1.0000   1.0000
     1.0000   1.0000   1.0000   1.0000   1.0000   1.0000   1.0000   1.0000
     1.0000   1.0000   1.0000   1.0000   1.0000   1.0000   1.0000   1.0000
     1.0000   1.0000   1.0000   1.0000   1.0000   1.0000   1.0000   1.0000
     1.0000   1.0000   1.0000   1.0000   1.0000   1.0000   1.0000   1.0000
     1.0000   1.0000   1.0000   1.0000   1.0000   1.0000   1.0000   1.0000
     1.0000   1.0000   1.0000   1.0000   1.0000   1.0000   1.0000   1.0000
     1.0000   1.0000   1.0000   1.0000   1.0000   1.0000   1.0000   1.0000
     0.0000   0.0000   0.0000   0.0000   0.0000   0.0000   0.0000   0.0000
     0.0000   0.0000   0.0000   0.0000   0.0000   0.0000   0.0000   0.0000
     0.0000   0.0000   0.0000   0.0000   0.0000   0.0000   0.0000   0.0000
     0.0000   0.0000   0.0000   0.0000   0.0000   0.0000   0.0000   0.0000
     0.0000   0.0000   0.0000   0.0000   0.0000   0.0000   0.0000   0.0000
     0.0000   0.0000   0.0000   0.0000   0.0000   0.0000   0.0000   0.0000
     0.0000   0.0000   0.0000   0.0000   0.0000   0.0000   0.0000   0.0000
     0.0000   0.0000   0.0000   0.0000   0.0000   0.0000   0.0000   0.0000
     0.0000   0.0000   0.0000   0.0000   0.0000   0.0000   0.0000   0.0000
     0.0000   0.0000   0.0000   0.0000   0.0000   0.0000   0.0000   0.0000
     0.0000   0.0000   0.0000   0.0000   0.0000   0.0000   0.0000   0.0000
     0.0000   0.0000   0.0000   0.0000   0.0000   0.0000   0.0000   0.0000
     0.0000   0.0000   0.0000   0.0000   0.0000   0.0000   0.0000   0.0000
     0.0000   0.0000   0.0000   0.0000   0.0000   0.0000   0.0000   0.0000
     0.0000   0.0000   0.0000   0.0000   0.0000   0.0000   0.0000   0.0000
     0.0000   0.0000   0.0000   0.0000   0.0000   0.0000   0.0000   0.0000
     0.0000   0.0000   0.0000   0.0000   0.0000   0.0000   0.0000   0.0000
     0.0000   0.0000   0.0000   0.0000   0.0000   0.0000   0.0000   0.0000
     0.0000   0.0000   0.0000   0.0000

          k = 0.3000 0.3000 0.3000 ( 73938 PWs)   bands (ev):

   -18.1281 -18.1281 -18.0397 -18.0397 -17.9993 -17.9993 -17.9954 -17.9954
   -17.9650 -17.9650 -17.9608 -17.9608 -17.8047 -17.8047 -17.7796 -17.7796
   -15.3216 -15.3216 -15.3009 -15.3008 -15.2529 -15.2521 -15.2498 -15.2491
   -15.2402 -15.2401 -15.2354 -15.2352 -15.2228 -15.2228 -15.2149 -15.2148
   -15.1849 -15.1848 -15.1675 -15.1675 -15.0949 -15.0948 -15.0876 -15.0876
   -15.0733 -15.0732 -15.0689 -15.0688 -15.0092 -15.0092 -15.0005 -15.0005
   -12.7901 -12.7884 -12.7708 -12.7694 -12.7687 -12.7654 -12.7380 -12.7331
   -12.7267 -12.7263 -12.7238 -12.7228 -12.7158 -12.7133 -12.6950 -12.6938
   -12.6824 -12.6818 -12.6580 -12.6572 -12.6571 -12.6569 -12.6495 -12.6486
   -12.6451 -12.6445 -12.6338 -12.6336 -12.5939 -12.5926 -12.5900 -12.5899
   -12.5703 -12.5695 -12.5610 -12.5600 -12.5417 -12.5404 -12.5074 -12.5066
   -12.4985 -12.4984 -12.4919 -12.4914 -12.4904 -12.4901 -12.4173 -12.4172
   -11.3968 -11.3957 -11.3564 -11.3551 -11.2676 -11.2671 -11.2443 -11.2435
   -11.2042 -11.2024 -11.1724 -11.1708 -11.1042 -11.1034 -11.0706 -11.0701
   -11.0499 -11.0444 -11.0294 -11.0262 -11.0014 -10.9978 -10.9652 -10.9634
   -10.9463 -10.9432 -10.9190 -10.9169 -10.8909 -10.8901 -10.8514 -10.8486
   -10.8273 -10.8261 -10.7863 -10.7850 -10.7671 -10.7656 -10.6830 -10.6822
   -10.6456 -10.6448 -10.6258 -10.6250 -10.5916 -10.5911 -10.5451 -10.5447
    -6.0981  -6.0979  -6.0136  -6.0131  -5.9763  -5.9759  -5.9727  -5.9724
    -5.9426  -5.9396  -5.9372  -5.9343  -5.7961  -5.7958  -5.7737  -5.7733
    -5.1315  -5.1300  -4.8881  -4.8869  -4.8758  -4.8749  -4.8174  -4.8164
    -4.6255  -4.6224  -4.5612  -4.5585  -4.5219  -4.5171  -4.5001  -4.4991
    -4.4795  -4.4779  -4.4214  -4.4154  -4.4014  -4.3947  -4.3884  -4.3857
    -4.3791  -4.3774  -4.3665  -4.3648  -4.3615  -4.3591  -4.3540  -4.3497
    -4.3448  -4.3408  -4.3238  -4.3184  -4.3181  -4.3145  -4.2878  -4.2837
    -4.2138  -4.2112  -4.1884  -4.1866  -4.1853  -4.1831  -4.1756  -4.1705
    -0.8039  -0.7295  -0.6204  -0.5795  -0.5485  -0.5170  -0.4999  -0.4809
    -0.4481  -0.4339  -0.4166  -0.3956  -0.3723  -0.3426  -0.3357  -0.3032
    -0.2928  -0.2706  -0.2255  -0.2025  -0.1661  -0.1444  -0.1318  -0.1051
     0.1485   0.1814   0.2145   0.2378   0.2510   0.2832   0.3072   0.3149
     0.3323   0.3406   0.3631   0.3735   0.3955   0.4027   0.4112   0.4239
     0.4373   0.4474   0.4723   0.4800   0.4993   0.5164   0.5449   0.5708
     0.6518   0.6755   0.6957   0.7091   0.7209   0.7326   0.7478   0.7621
     0.7772   0.7880   0.8029   0.8226   0.8244   0.8376   0.8474   0.8580
     0.8619   0.8912   0.8945   0.9183   0.9253   0.9319   0.9444   0.9541
     0.9692   0.9811   0.9904   0.9985   1.0061   1.0170   1.0327   1.0460
     1.0650   1.0826   1.0872   1.1060   1.1121   1.1240   1.1316   1.1371
     1.1496   1.1662   1.1765   1.1884   1.1968   1.2214   1.2334   1.2478
     1.2599   1.2656   1.2762   1.2839   1.2995   1.3100   1.3230   1.3396
     1.3524   1.3615   1.3743   1.3806   1.4038   1.4095   1.4192   1.4339
     1.4548   1.4560   1.4631   1.4960   1.4986   1.5161   1.5244   1.5393
     1.5452   1.5571   1.5743   1.5798   1.6054   1.6214   1.6260   1.6447
     1.6609   1.6687   1.6955   1.7054   1.7259   1.7365   1.7669   1.7937
     1.8644   1.8852   1.9385   1.9680   2.0166   2.0330   2.0850   2.0966
     4.5057   4.6203   4.8308   4.8756   4.9213   4.9699   5.0668   5.1374
     5.3420   5.4037   5.4589   5.4738   5.5750   5.6433   5.8652   5.8824
     5.9550   5.9988   6.0760   6.1281   6.1548   6.2215   6.2445   6.2987
     6.3769   6.4046   6.7527   6.8425   6.9060   6.9401   6.9643   6.9996
     7.0091   7.0774   7.1029   7.1923   7.2173   7.2454   7.3024   7.3647
     7.3887   7.4564   7.4806   7.5304   7.5876   7.6110   7.6826   7.7419
     7.7778   7.8255   7.8499   7.8772   7.9085   7.9312   7.9588   8.0076
     8.0193   8.0345   8.0557   8.0815   8.0875   8.1132   8.1434   8.1536
     8.1839   8.2104   8.2436   8.2559   8.3108   8.3354   8.3415   8.3543
     8.3842   8.3990   8.4129   8.4388   8.4797   8.4986   8.5459   8.5502
     8.5719   8.5841   8.6042   8.6150   8.6357   8.6560   8.6769   8.6896
     8.7207   8.7238   8.7405   8.7668   8.7965   8.8327   8.8519   8.8582
     8.8828   8.9024   8.9240   8.9361   8.9657   8.9776   8.9856   9.0059
     9.0292   9.0456   9.0490   9.0716   9.0840   9.1171   9.1444   9.1562
     9.1832   9.2153   9.2478   9.2649   9.2736   9.2854   9.3079   9.3241
     9.3331   9.3412   9.3545   9.3603   9.3998   9.4110   9.4269   9.4425
     9.4623   9.4710   9.5158   9.5226   9.5295   9.5488   9.5803   9.5868
     9.6001   9.6107   9.6425   9.6557   9.6685   9.6855   9.7382   9.7484
     9.8982   9.9265   9.9968  10.0144

     occupation numbers 
     1.0000   1.0000   1.0000   1.0000   1.0000   1.0000   1.0000   1.0000
     1.0000   1.0000   1.0000   1.0000   1.0000   1.0000   1.0000   1.0000
     1.0000   1.0000   1.0000   1.0000   1.0000   1.0000   1.0000   1.0000
     1.0000   1.0000   1.0000   1.0000   1.0000   1.0000   1.0000   1.0000
     1.0000   1.0000   1.0000   1.0000   1.0000   1.0000   1.0000   1.0000
     1.0000   1.0000   1.0000   1.0000   1.0000   1.0000   1.0000   1.0000
     1.0000   1.0000   1.0000   1.0000   1.0000   1.0000   1.0000   1.0000
     1.0000   1.0000   1.0000   1.0000   1.0000   1.0000   1.0000   1.0000
     1.0000   1.0000   1.0000   1.0000   1.0000   1.0000   1.0000   1.0000
     1.0000   1.0000   1.0000   1.0000   1.0000   1.0000   1.0000   1.0000
     1.0000   1.0000   1.0000   1.0000   1.0000   1.0000   1.0000   1.0000
     1.0000   1.0000   1.0000   1.0000   1.0000   1.0000   1.0000   1.0000
     1.0000   1.0000   1.0000   1.0000   1.0000   1.0000   1.0000   1.0000
     1.0000   1.0000   1.0000   1.0000   1.0000   1.0000   1.0000   1.0000
     1.0000   1.0000   1.0000   1.0000   1.0000   1.0000   1.0000   1.0000
     1.0000   1.0000   1.0000   1.0000   1.0000   1.0000   1.0000   1.0000
     1.0000   1.0000   1.0000   1.0000   1.0000   1.0000   1.0000   1.0000
     1.0000   1.0000   1.0000   1.0000   1.0000   1.0000   1.0000   1.0000
     1.0000   1.0000   1.0000   1.0000   1.0000   1.0000   1.0000   1.0000
     1.0000   1.0000   1.0000   1.0000   1.0000   1.0000   1.0000   1.0000
     1.0000   1.0000   1.0000   1.0000   1.0000   1.0000   1.0000   1.0000
     1.0000   1.0000   1.0000   1.0000   1.0000   1.0000   1.0000   1.0000
     1.0000   1.0000   1.0000   1.0000   1.0000   1.0000   1.0000   1.0000
     1.0000   1.0000   1.0000   1.0000   1.0000   1.0000   1.0000   1.0000
     1.0000   1.0000   1.0000   1.0000   1.0000   1.0000   1.0000   1.0000
     1.0000   1.0000   1.0000   1.0000   1.0000   1.0000   1.0000   1.0000
     1.0000   1.0000   1.0000   1.0000   1.0000   1.0000   1.0000   1.0000
     1.0000   1.0000   1.0000   1.0000   1.0000   1.0000   1.0000   1.0000
     1.0000   1.0000   1.0000   1.0000   1.0000   1.0000   1.0000   1.0000
     1.0000   1.0000   1.0000   1.0000   1.0000   1.0000   1.0000   1.0000
     1.0000   1.0000   1.0000   1.0000   1.0000   1.0000   1.0000   1.0000
     1.0000   1.0000   1.0000   1.0000   1.0000   1.0000   1.0000   1.0000
     1.0000   1.0000   1.0000   1.0000   1.0000   1.0000   1.0000   1.0000
     1.0000   1.0000   1.0000   1.0000   1.0000   1.0000   1.0000   1.0000
     1.0000   1.0000   1.0000   1.0000   1.0000   1.0000   1.0000   1.0000
     1.0000   1.0000   1.0000   1.0000   1.0000   1.0000   1.0000   1.0000
     1.0000   1.0000   1.0000   1.0000   1.0000   1.0000   1.0000   1.0000
     1.0000   1.0000   1.0000   1.0000   1.0000   1.0000   1.0000   1.0000
     1.0000   1.0000   1.0000   1.0000   1.0000   1.0000   1.0000   1.0000
     1.0000   1.0000   1.0000   1.0000   1.0000   1.0000   1.0000   1.0000
     1.0000   1.0000   1.0000   1.0000   1.0000   1.0000   1.0000   1.0000
     1.0000   1.0000   1.0000   1.0000   1.0000   1.0000   1.0000   1.0000
     1.0000   1.0000   1.0000   1.0000   1.0000   1.0000   1.0000   1.0000
     1.0000   1.0000   1.0000   1.0000   1.0000   1.0000   1.0000   1.0000
     0.0000   0.0000   0.0000   0.0000   0.0000   0.0000   0.0000   0.0000
     0.0000   0.0000   0.0000   0.0000   0.0000   0.0000   0.0000   0.0000
     0.0000   0.0000   0.0000   0.0000   0.0000   0.0000   0.0000   0.0000
     0.0000   0.0000   0.0000   0.0000   0.0000   0.0000   0.0000   0.0000
     0.0000   0.0000   0.0000   0.0000   0.0000   0.0000   0.0000   0.0000
     0.0000   0.0000   0.0000   0.0000   0.0000   0.0000   0.0000   0.0000
     0.0000   0.0000   0.0000   0.0000   0.0000   0.0000   0.0000   0.0000
     0.0000   0.0000   0.0000   0.0000   0.0000   0.0000   0.0000   0.0000
     0.0000   0.0000   0.0000   0.0000   0.0000   0.0000   0.0000   0.0000
     0.0000   0.0000   0.0000   0.0000   0.0000   0.0000   0.0000   0.0000
     0.0000   0.0000   0.0000   0.0000   0.0000   0.0000   0.0000   0.0000
     0.0000   0.0000   0.0000   0.0000   0.0000   0.0000   0.0000   0.0000
     0.0000   0.0000   0.0000   0.0000   0.0000   0.0000   0.0000   0.0000
     0.0000   0.0000   0.0000   0.0000   0.0000   0.0000   0.0000   0.0000
     0.0000   0.0000   0.0000   0.0000   0.0000   0.0000   0.0000   0.0000
     0.0000   0.0000   0.0000   0.0000   0.0000   0.0000   0.0000   0.0000
     0.0000   0.0000   0.0000   0.0000   0.0000   0.0000   0.0000   0.0000
     0.0000   0.0000   0.0000   0.0000   0.0000   0.0000   0.0000   0.0000
     0.0000   0.0000   0.0000   0.0000

          k = 0.3250 0.3250 0.3250 ( 73983 PWs)   bands (ev):

   -18.1281 -18.1281 -18.0397 -18.0397 -17.9993 -17.9993 -17.9954 -17.9954
   -17.9650 -17.9650 -17.9608 -17.9608 -17.8047 -17.8047 -17.7796 -17.7796
   -15.3216 -15.3216 -15.3009 -15.3008 -15.2528 -15.2519 -15.2499 -15.2492
   -15.2402 -15.2401 -15.2355 -15.2352 -15.2228 -15.2228 -15.2148 -15.2148
   -15.1849 -15.1849 -15.1675 -15.1675 -15.0949 -15.0948 -15.0876 -15.0876
   -15.0733 -15.0732 -15.0689 -15.0688 -15.0092 -15.0092 -15.0005 -15.0005
   -12.7895 -12.7878 -12.7698 -12.7691 -12.7683 -12.7639 -12.7395 -12.7343
   -12.7267 -12.7263 -12.7238 -12.7229 -12.7160 -12.7136 -12.6944 -12.6932
   -12.6820 -12.6814 -12.6582 -12.6574 -12.6571 -12.6569 -12.6501 -12.6493
   -12.6456 -12.6449 -12.6338 -12.6336 -12.5938 -12.5926 -12.5900 -12.5899
   -12.5703 -12.5695 -12.5605 -12.5595 -12.5424 -12.5411 -12.5076 -12.5069
   -12.4985 -12.4984 -12.4922 -12.4916 -12.4906 -12.4902 -12.4172 -12.4172
   -11.3952 -11.3940 -11.3580 -11.3567 -11.2701 -11.2696 -11.2428 -11.2420
   -11.2056 -11.2040 -11.1734 -11.1718 -11.1073 -11.1065 -11.0717 -11.0709
   -11.0477 -11.0420 -11.0298 -11.0266 -10.9964 -10.9930 -10.9630 -10.9612
   -10.9433 -10.9403 -10.9195 -10.9175 -10.8915 -10.8908 -10.8490 -10.8465
   -10.8272 -10.8261 -10.7870 -10.7859 -10.7681 -10.7666 -10.6824 -10.6816
   -10.6463 -10.6455 -10.6264 -10.6255 -10.5932 -10.5928 -10.5460 -10.5456
    -6.0981  -6.0979  -6.0135  -6.0131  -5.9762  -5.9758  -5.9728  -5.9725
    -5.9425  -5.9398  -5.9371  -5.9344  -5.7961  -5.7958  -5.7737  -5.7733
    -5.0972  -5.0957  -4.8802  -4.8781  -4.8691  -4.8682  -4.8105  -4.8097
    -4.6450  -4.6423  -4.5727  -4.5700  -4.5334  -4.5292  -4.5007  -4.5003
    -4.4801  -4.4784  -4.4236  -4.4161  -4.4043  -4.3964  -4.3902  -4.3880
    -4.3806  -4.3784  -4.3687  -4.3663  -4.3626  -4.3606  -4.3551  -4.3507
    -4.3466  -4.3425  -4.3291  -4.3250  -4.3191  -4.3147  -4.3128  -4.3079
    -4.2143  -4.2125  -4.1884  -4.1869  -4.1855  -4.1842  -4.1758  -4.1722
    -0.7637  -0.6918  -0.5852  -0.5426  -0.5141  -0.4810  -0.4665  -0.4495
    -0.4148  -0.4013  -0.3801  -0.3636  -0.3430  -0.3152  -0.3042  -0.2696
    -0.2619  -0.2415  -0.1889  -0.1612  -0.1378  -0.1193  -0.0949  -0.0681
     0.1144   0.1459   0.1805   0.2031   0.2297   0.2619   0.2868   0.2978
     0.3180   0.3265   0.3457   0.3520   0.3788   0.3832   0.3998   0.4009
     0.4157   0.4288   0.4467   0.4605   0.4782   0.4942   0.5271   0.5526
     0.6528   0.6730   0.6918   0.7076   0.7145   0.7239   0.7433   0.7579
     0.7732   0.7824   0.7985   0.8135   0.8171   0.8294   0.8384   0.8508
     0.8591   0.8832   0.8886   0.9104   0.9188   0.9257   0.9361   0.9497
     0.9619   0.9758   0.9866   0.9907   0.9989   1.0104   1.0260   1.0392
     1.0611   1.0726   1.0830   1.1003   1.1086   1.1199   1.1278   1.1349
     1.1450   1.1580   1.1751   1.1836   1.1921   1.2210   1.2348   1.2465
     1.2604   1.2673   1.2748   1.2843   1.2979   1.3092   1.3248   1.3406
     1.3538   1.3609   1.3744   1.3819   1.4056   1.4093   1.4211   1.4366
     1.4507   1.4546   1.4643   1.4918   1.4947   1.5145   1.5225   1.5343
     1.5434   1.5558   1.5730   1.5764   1.6017   1.6120   1.6203   1.6373
     1.6522   1.6626   1.6934   1.6996   1.7146   1.7263   1.7510   1.7758
     1.8403   1.8583   1.9103   1.9345   1.9987   2.0142   2.0370   2.0529
     4.6016   4.7146   4.8860   4.9413   4.9842   5.0340   5.1261   5.1999
     5.3747   5.4300   5.4866   5.5059   5.6136   5.6751   5.9205   5.9383
     6.0372   6.0568   6.1246   6.1780   6.2058   6.2797   6.3104   6.3609
     6.3825   6.4119   6.7264   6.7943   6.8730   6.9105   6.9318   6.9810
     6.9977   7.0426   7.0747   7.1601   7.1837   7.2007   7.2636   7.3153
     7.3351   7.3991   7.4236   7.4696   7.5305   7.5460   7.6298   7.6926
     7.7526   7.8140   7.8305   7.8659   7.8891   7.9118   7.9608   7.9878
     8.0056   8.0271   8.0390   8.0633   8.0789   8.0998   8.1342   8.1418
     8.1696   8.1953   8.2353   8.2510   8.3018   8.3252   8.3311   8.3496
     8.3773   8.3946   8.4052   8.4247   8.4699   8.4924   8.5272   8.5304
     8.5586   8.5687   8.6049   8.6084   8.6294   8.6429   8.6702   8.6779
     8.7060   8.7122   8.7309   8.7522   8.7856   8.8198   8.8461   8.8584
     8.8950   8.9085   8.9410   8.9495   8.9771   8.9915   9.0025   9.0310
     9.0460   9.0607   9.0680   9.0839   9.1007   9.1321   9.1476   9.1613
     9.1961   9.2199   9.2549   9.2700   9.2766   9.2863   9.3086   9.3249
     9.3398   9.3471   9.3662   9.3704   9.3988   9.4080   9.4258   9.4413
     9.4631   9.4758   9.5178   9.5242   9.5319   9.5432   9.5790   9.5872
     9.5958   9.6116   9.6437   9.6513   9.6713   9.6838   9.7358   9.7457
     9.9020   9.9321  10.0039  10.0202

     occupation numbers 
     1.0000   1.0000   1.0000   1.0000   1.0000   1.0000   1.0000   1.0000
     1.0000   1.0000   1.0000   1.0000   1.0000   1.0000   1.0000   1.0000
     1.0000   1.0000   1.0000   1.0000   1.0000   1.0000   1.0000   1.0000
     1.0000   1.0000   1.0000   1.0000   1.0000   1.0000   1.0000   1.0000
     1.0000   1.0000   1.0000   1.0000   1.0000   1.0000   1.0000   1.0000
     1.0000   1.0000   1.0000   1.0000   1.0000   1.0000   1.0000   1.0000
     1.0000   1.0000   1.0000   1.0000   1.0000   1.0000   1.0000   1.0000
     1.0000   1.0000   1.0000   1.0000   1.0000   1.0000   1.0000   1.0000
     1.0000   1.0000   1.0000   1.0000   1.0000   1.0000   1.0000   1.0000
     1.0000   1.0000   1.0000   1.0000   1.0000   1.0000   1.0000   1.0000
     1.0000   1.0000   1.0000   1.0000   1.0000   1.0000   1.0000   1.0000
     1.0000   1.0000   1.0000   1.0000   1.0000   1.0000   1.0000   1.0000
     1.0000   1.0000   1.0000   1.0000   1.0000   1.0000   1.0000   1.0000
     1.0000   1.0000   1.0000   1.0000   1.0000   1.0000   1.0000   1.0000
     1.0000   1.0000   1.0000   1.0000   1.0000   1.0000   1.0000   1.0000
     1.0000   1.0000   1.0000   1.0000   1.0000   1.0000   1.0000   1.0000
     1.0000   1.0000   1.0000   1.0000   1.0000   1.0000   1.0000   1.0000
     1.0000   1.0000   1.0000   1.0000   1.0000   1.0000   1.0000   1.0000
     1.0000   1.0000   1.0000   1.0000   1.0000   1.0000   1.0000   1.0000
     1.0000   1.0000   1.0000   1.0000   1.0000   1.0000   1.0000   1.0000
     1.0000   1.0000   1.0000   1.0000   1.0000   1.0000   1.0000   1.0000
     1.0000   1.0000   1.0000   1.0000   1.0000   1.0000   1.0000   1.0000
     1.0000   1.0000   1.0000   1.0000   1.0000   1.0000   1.0000   1.0000
     1.0000   1.0000   1.0000   1.0000   1.0000   1.0000   1.0000   1.0000
     1.0000   1.0000   1.0000   1.0000   1.0000   1.0000   1.0000   1.0000
     1.0000   1.0000   1.0000   1.0000   1.0000   1.0000   1.0000   1.0000
     1.0000   1.0000   1.0000   1.0000   1.0000   1.0000   1.0000   1.0000
     1.0000   1.0000   1.0000   1.0000   1.0000   1.0000   1.0000   1.0000
     1.0000   1.0000   1.0000   1.0000   1.0000   1.0000   1.0000   1.0000
     1.0000   1.0000   1.0000   1.0000   1.0000   1.0000   1.0000   1.0000
     1.0000   1.0000   1.0000   1.0000   1.0000   1.0000   1.0000   1.0000
     1.0000   1.0000   1.0000   1.0000   1.0000   1.0000   1.0000   1.0000
     1.0000   1.0000   1.0000   1.0000   1.0000   1.0000   1.0000   1.0000
     1.0000   1.0000   1.0000   1.0000   1.0000   1.0000   1.0000   1.0000
     1.0000   1.0000   1.0000   1.0000   1.0000   1.0000   1.0000   1.0000
     1.0000   1.0000   1.0000   1.0000   1.0000   1.0000   1.0000   1.0000
     1.0000   1.0000   1.0000   1.0000   1.0000   1.0000   1.0000   1.0000
     1.0000   1.0000   1.0000   1.0000   1.0000   1.0000   1.0000   1.0000
     1.0000   1.0000   1.0000   1.0000   1.0000   1.0000   1.0000   1.0000
     1.0000   1.0000   1.0000   1.0000   1.0000   1.0000   1.0000   1.0000
     1.0000   1.0000   1.0000   1.0000   1.0000   1.0000   1.0000   1.0000
     1.0000   1.0000   1.0000   1.0000   1.0000   1.0000   1.0000   1.0000
     1.0000   1.0000   1.0000   1.0000   1.0000   1.0000   1.0000   1.0000
     1.0000   1.0000   1.0000   1.0000   1.0000   1.0000   1.0000   1.0000
     0.0000   0.0000   0.0000   0.0000   0.0000   0.0000   0.0000   0.0000
     0.0000   0.0000   0.0000   0.0000   0.0000   0.0000   0.0000   0.0000
     0.0000   0.0000   0.0000   0.0000   0.0000   0.0000   0.0000   0.0000
     0.0000   0.0000   0.0000   0.0000   0.0000   0.0000   0.0000   0.0000
     0.0000   0.0000   0.0000   0.0000   0.0000   0.0000   0.0000   0.0000
     0.0000   0.0000   0.0000   0.0000   0.0000   0.0000   0.0000   0.0000
     0.0000   0.0000   0.0000   0.0000   0.0000   0.0000   0.0000   0.0000
     0.0000   0.0000   0.0000   0.0000   0.0000   0.0000   0.0000   0.0000
     0.0000   0.0000   0.0000   0.0000   0.0000   0.0000   0.0000   0.0000
     0.0000   0.0000   0.0000   0.0000   0.0000   0.0000   0.0000   0.0000
     0.0000   0.0000   0.0000   0.0000   0.0000   0.0000   0.0000   0.0000
     0.0000   0.0000   0.0000   0.0000   0.0000   0.0000   0.0000   0.0000
     0.0000   0.0000   0.0000   0.0000   0.0000   0.0000   0.0000   0.0000
     0.0000   0.0000   0.0000   0.0000   0.0000   0.0000   0.0000   0.0000
     0.0000   0.0000   0.0000   0.0000   0.0000   0.0000   0.0000   0.0000
     0.0000   0.0000   0.0000   0.0000   0.0000   0.0000   0.0000   0.0000
     0.0000   0.0000   0.0000   0.0000   0.0000   0.0000   0.0000   0.0000
     0.0000   0.0000   0.0000   0.0000   0.0000   0.0000   0.0000   0.0000
     0.0000   0.0000   0.0000   0.0000

          k = 0.3500 0.3500 0.3500 ( 73941 PWs)   bands (ev):

   -18.1281 -18.1281 -18.0397 -18.0397 -17.9993 -17.9993 -17.9954 -17.9954
   -17.9650 -17.9650 -17.9608 -17.9608 -17.8047 -17.8047 -17.7796 -17.7796
   -15.3216 -15.3215 -15.3008 -15.3008 -15.2526 -15.2518 -15.2501 -15.2493
   -15.2402 -15.2401 -15.2355 -15.2353 -15.2228 -15.2228 -15.2148 -15.2148
   -15.1849 -15.1849 -15.1675 -15.1675 -15.0948 -15.0948 -15.0876 -15.0876
   -15.0733 -15.0732 -15.0689 -15.0688 -15.0092 -15.0092 -15.0005 -15.0005
   -12.7888 -12.7872 -12.7692 -12.7688 -12.7675 -12.7624 -12.7411 -12.7356
   -12.7266 -12.7262 -12.7238 -12.7229 -12.7161 -12.7139 -12.6939 -12.6928
   -12.6816 -12.6810 -12.6584 -12.6577 -12.6571 -12.6570 -12.6507 -12.6499
   -12.6460 -12.6453 -12.6338 -12.6336 -12.5937 -12.5926 -12.5900 -12.5899
   -12.5703 -12.5696 -12.5599 -12.5589 -12.5431 -12.5418 -12.5078 -12.5072
   -12.4985 -12.4984 -12.4924 -12.4918 -12.4907 -12.4904 -12.4172 -12.4172
   -11.3938 -11.3928 -11.3591 -11.3580 -11.2727 -11.2721 -11.2408 -11.2401
   -11.2073 -11.2058 -11.1742 -11.1728 -11.1103 -11.1096 -11.0729 -11.0719
   -11.0453 -11.0397 -11.0297 -11.0267 -10.9918 -10.9886 -10.9611 -10.9594
   -10.9405 -10.9377 -10.9201 -10.9181 -10.8920 -10.8914 -10.8469 -10.8446
   -10.8271 -10.8260 -10.7877 -10.7867 -10.7691 -10.7676 -10.6816 -10.6808
   -10.6469 -10.6461 -10.6272 -10.6263 -10.5946 -10.5943 -10.5468 -10.5464
    -6.0980  -6.0979  -6.0135  -6.0131  -5.9761  -5.9757  -5.9728  -5.9726
    -5.9424  -5.9400  -5.9369  -5.9346  -5.7961  -5.7958  -5.7737  -5.7733
    -5.0616  -5.0601  -4.8747  -4.8725  -4.8581  -4.8571  -4.8040  -4.8034
    -4.6644  -4.6621  -4.5849  -4.5818  -4.5452  -4.5412  -4.5014  -4.5010
    -4.4806  -4.4788  -4.4311  -4.4200  -4.4125  -4.4049  -4.3932  -4.3908
    -4.3827  -4.3800  -4.3733  -4.3699  -4.3636  -4.3621  -4.3565  -4.3542
    -4.3492  -4.3468  -4.3368  -4.3352  -4.3208  -4.3170  -4.3146  -4.3133
    -4.2146  -4.2133  -4.1884  -4.1871  -4.1857  -4.1847  -4.1759  -4.1731
    -0.7213  -0.6526  -0.5481  -0.5053  -0.4800  -0.4454  -0.4332  -0.4172
    -0.3851  -0.3697  -0.3437  -0.3311  -0.3161  -0.2866  -0.2733  -0.2391
    -0.2286  -0.2119  -0.1544  -0.1231  -0.1101  -0.0955  -0.0568  -0.0323
     0.0752   0.1059   0.1460   0.1687   0.2071   0.2351   0.2647   0.2806
     0.2975   0.3090   0.3262   0.3351   0.3586   0.3663   0.3807   0.3875
     0.3959   0.4106   0.4222   0.4394   0.4580   0.4734   0.5144   0.5372
     0.6557   0.6721   0.6884   0.7055   0.7110   0.7181   0.7389   0.7553
     0.7702   0.7776   0.7942   0.8043   0.8101   0.8231   0.8303   0.8439
     0.8579   0.8770   0.8840   0.9008   0.9121   0.9186   0.9293   0.9465
     0.9547   0.9699   0.9806   0.9847   0.9920   1.0038   1.0200   1.0338
     1.0568   1.0634   1.0791   1.0933   1.1035   1.1154   1.1240   1.1308
     1.1400   1.1501   1.1727   1.1801   1.1873   1.2202   1.2345   1.2452
     1.2584   1.2664   1.2756   1.2850   1.2970   1.3089   1.3251   1.3422
     1.3555   1.3602   1.3748   1.3844   1.4047   1.4121   1.4239   1.4362
     1.4471   1.4539   1.4671   1.4860   1.4910   1.5115   1.5211   1.5277
     1.5419   1.5517   1.5682   1.5763   1.5970   1.6027   1.6171   1.6300
     1.6429   1.6580   1.6876   1.6934   1.7039   1.7211   1.7417   1.7621
     1.8210   1.8341   1.8841   1.9016   1.9680   1.9906   2.0095   2.0262
     4.6965   4.8066   4.9386   5.0074   5.0456   5.0974   5.1786   5.2586
     5.4090   5.4550   5.5113   5.5372   5.6481   5.7007   5.9343   5.9781
     6.1087   6.1232   6.1555   6.2346   6.2612   6.3337   6.3729   6.4069
     6.4341   6.4639   6.6998   6.7465   6.8340   6.8777   6.8914   6.9570
     6.9718   7.0108   7.0627   7.1245   7.1481   7.1712   7.2330   7.2636
     7.2854   7.3428   7.3670   7.4082   7.4722   7.4789   7.5692   7.6262
     7.7348   7.8030   7.8171   7.8550   7.8731   7.8962   7.9548   7.9672
     7.9843   8.0141   8.0242   8.0504   8.0718   8.0892   8.1186   8.1354
     8.1645   8.1841   8.2385   8.2550   8.2960   8.3143   8.3213   8.3431
     8.3741   8.3928   8.3990   8.4128   8.4588   8.4835   8.5071   8.5139
     8.5455   8.5555   8.5971   8.6020   8.6232   8.6299   8.6612   8.6690
     8.6909   8.6988   8.7216   8.7356   8.7732   8.8049   8.8442   8.8592
     8.8998   8.9148   8.9560   8.9723   8.9887   9.0014   9.0242   9.0500
     9.0615   9.0706   9.0929   9.0972   9.1196   9.1408   9.1532   9.1717
     9.2106   9.2265   9.2634   9.2743   9.2786   9.2921   9.3114   9.3253
     9.3442   9.3513   9.3796   9.3895   9.4010   9.4112   9.4264   9.4374
     9.4721   9.4866   9.5135   9.5236   9.5386   9.5472   9.5812   9.5897
     9.5961   9.6151   9.6449   9.6507   9.6744   9.6859   9.7347   9.7443
     9.9049   9.9364  10.0063  10.0218

     occupation numbers 
     1.0000   1.0000   1.0000   1.0000   1.0000   1.0000   1.0000   1.0000
     1.0000   1.0000   1.0000   1.0000   1.0000   1.0000   1.0000   1.0000
     1.0000   1.0000   1.0000   1.0000   1.0000   1.0000   1.0000   1.0000
     1.0000   1.0000   1.0000   1.0000   1.0000   1.0000   1.0000   1.0000
     1.0000   1.0000   1.0000   1.0000   1.0000   1.0000   1.0000   1.0000
     1.0000   1.0000   1.0000   1.0000   1.0000   1.0000   1.0000   1.0000
     1.0000   1.0000   1.0000   1.0000   1.0000   1.0000   1.0000   1.0000
     1.0000   1.0000   1.0000   1.0000   1.0000   1.0000   1.0000   1.0000
     1.0000   1.0000   1.0000   1.0000   1.0000   1.0000   1.0000   1.0000
     1.0000   1.0000   1.0000   1.0000   1.0000   1.0000   1.0000   1.0000
     1.0000   1.0000   1.0000   1.0000   1.0000   1.0000   1.0000   1.0000
     1.0000   1.0000   1.0000   1.0000   1.0000   1.0000   1.0000   1.0000
     1.0000   1.0000   1.0000   1.0000   1.0000   1.0000   1.0000   1.0000
     1.0000   1.0000   1.0000   1.0000   1.0000   1.0000   1.0000   1.0000
     1.0000   1.0000   1.0000   1.0000   1.0000   1.0000   1.0000   1.0000
     1.0000   1.0000   1.0000   1.0000   1.0000   1.0000   1.0000   1.0000
     1.0000   1.0000   1.0000   1.0000   1.0000   1.0000   1.0000   1.0000
     1.0000   1.0000   1.0000   1.0000   1.0000   1.0000   1.0000   1.0000
     1.0000   1.0000   1.0000   1.0000   1.0000   1.0000   1.0000   1.0000
     1.0000   1.0000   1.0000   1.0000   1.0000   1.0000   1.0000   1.0000
     1.0000   1.0000   1.0000   1.0000   1.0000   1.0000   1.0000   1.0000
     1.0000   1.0000   1.0000   1.0000   1.0000   1.0000   1.0000   1.0000
     1.0000   1.0000   1.0000   1.0000   1.0000   1.0000   1.0000   1.0000
     1.0000   1.0000   1.0000   1.0000   1.0000   1.0000   1.0000   1.0000
     1.0000   1.0000   1.0000   1.0000   1.0000   1.0000   1.0000   1.0000
     1.0000   1.0000   1.0000   1.0000   1.0000   1.0000   1.0000   1.0000
     1.0000   1.0000   1.0000   1.0000   1.0000   1.0000   1.0000   1.0000
     1.0000   1.0000   1.0000   1.0000   1.0000   1.0000   1.0000   1.0000
     1.0000   1.0000   1.0000   1.0000   1.0000   1.0000   1.0000   1.0000
     1.0000   1.0000   1.0000   1.0000   1.0000   1.0000   1.0000   1.0000
     1.0000   1.0000   1.0000   1.0000   1.0000   1.0000   1.0000   1.0000
     1.0000   1.0000   1.0000   1.0000   1.0000   1.0000   1.0000   1.0000
     1.0000   1.0000   1.0000   1.0000   1.0000   1.0000   1.0000   1.0000
     1.0000   1.0000   1.0000   1.0000   1.0000   1.0000   1.0000   1.0000
     1.0000   1.0000   1.0000   1.0000   1.0000   1.0000   1.0000   1.0000
     1.0000   1.0000   1.0000   1.0000   1.0000   1.0000   1.0000   1.0000
     1.0000   1.0000   1.0000   1.0000   1.0000   1.0000   1.0000   1.0000
     1.0000   1.0000   1.0000   1.0000   1.0000   1.0000   1.0000   1.0000
     1.0000   1.0000   1.0000   1.0000   1.0000   1.0000   1.0000   1.0000
     1.0000   1.0000   1.0000   1.0000   1.0000   1.0000   1.0000   1.0000
     1.0000   1.0000   1.0000   1.0000   1.0000   1.0000   1.0000   1.0000
     1.0000   1.0000   1.0000   1.0000   1.0000   1.0000   1.0000   1.0000
     1.0000   1.0000   1.0000   1.0000   1.0000   1.0000   1.0000   1.0000
     1.0000   1.0000   1.0000   1.0000   1.0000   1.0000   1.0000   1.0000
     0.0000   0.0000   0.0000   0.0000   0.0000   0.0000   0.0000   0.0000
     0.0000   0.0000   0.0000   0.0000   0.0000   0.0000   0.0000   0.0000
     0.0000   0.0000   0.0000   0.0000   0.0000   0.0000   0.0000   0.0000
     0.0000   0.0000   0.0000   0.0000   0.0000   0.0000   0.0000   0.0000
     0.0000   0.0000   0.0000   0.0000   0.0000   0.0000   0.0000   0.0000
     0.0000   0.0000   0.0000   0.0000   0.0000   0.0000   0.0000   0.0000
     0.0000   0.0000   0.0000   0.0000   0.0000   0.0000   0.0000   0.0000
     0.0000   0.0000   0.0000   0.0000   0.0000   0.0000   0.0000   0.0000
     0.0000   0.0000   0.0000   0.0000   0.0000   0.0000   0.0000   0.0000
     0.0000   0.0000   0.0000   0.0000   0.0000   0.0000   0.0000   0.0000
     0.0000   0.0000   0.0000   0.0000   0.0000   0.0000   0.0000   0.0000
     0.0000   0.0000   0.0000   0.0000   0.0000   0.0000   0.0000   0.0000
     0.0000   0.0000   0.0000   0.0000   0.0000   0.0000   0.0000   0.0000
     0.0000   0.0000   0.0000   0.0000   0.0000   0.0000   0.0000   0.0000
     0.0000   0.0000   0.0000   0.0000   0.0000   0.0000   0.0000   0.0000
     0.0000   0.0000   0.0000   0.0000   0.0000   0.0000   0.0000   0.0000
     0.0000   0.0000   0.0000   0.0000   0.0000   0.0000   0.0000   0.0000
     0.0000   0.0000   0.0000   0.0000   0.0000   0.0000   0.0000   0.0000
     0.0000   0.0000   0.0000   0.0000

          k = 0.3750 0.3750 0.3750 ( 73968 PWs)   bands (ev):

   -18.1281 -18.1281 -18.0397 -18.0397 -17.9993 -17.9993 -17.9954 -17.9954
   -17.9650 -17.9650 -17.9608 -17.9608 -17.8047 -17.8047 -17.7796 -17.7796
   -15.3216 -15.3215 -15.3008 -15.3008 -15.2524 -15.2516 -15.2502 -15.2495
   -15.2402 -15.2401 -15.2355 -15.2353 -15.2228 -15.2228 -15.2148 -15.2148
   -15.1850 -15.1849 -15.1676 -15.1675 -15.0948 -15.0948 -15.0876 -15.0876
   -15.0732 -15.0732 -15.0690 -15.0689 -15.0093 -15.0092 -15.0005 -15.0005
   -12.7882 -12.7868 -12.7689 -12.7686 -12.7662 -12.7609 -12.7426 -12.7372
   -12.7266 -12.7262 -12.7236 -12.7228 -12.7162 -12.7142 -12.6933 -12.6923
   -12.6812 -12.6807 -12.6586 -12.6579 -12.6571 -12.6570 -12.6512 -12.6505
   -12.6464 -12.6457 -12.6338 -12.6337 -12.5936 -12.5927 -12.5900 -12.5899
   -12.5703 -12.5697 -12.5594 -12.5584 -12.5437 -12.5425 -12.5080 -12.5074
   -12.4985 -12.4984 -12.4926 -12.4920 -12.4907 -12.4905 -12.4172 -12.4172
   -11.3928 -11.3919 -11.3599 -11.3588 -11.2751 -11.2746 -11.2385 -11.2379
   -11.2091 -11.2077 -11.1751 -11.1738 -11.1129 -11.1123 -11.0741 -11.0730
   -11.0429 -11.0378 -11.0291 -11.0265 -10.9877 -10.9848 -10.9594 -10.9578
   -10.9381 -10.9356 -10.9205 -10.9188 -10.8923 -10.8917 -10.8450 -10.8430
   -10.8271 -10.8261 -10.7883 -10.7875 -10.7700 -10.7687 -10.6806 -10.6799
   -10.6476 -10.6468 -10.6281 -10.6273 -10.5958 -10.5955 -10.5474 -10.5471
    -6.0980  -6.0979  -6.0135  -6.0131  -5.9760  -5.9757  -5.9728  -5.9726
    -5.9423  -5.9402  -5.9368  -5.9347  -5.7961  -5.7959  -5.7737  -5.7734
    -5.0254  -5.0239  -4.8707  -4.8687  -4.8441  -4.8428  -4.7982  -4.7978
    -4.6832  -4.6813  -4.5981  -4.5947  -4.5565  -4.5526  -4.5022  -4.5019
    -4.4813  -4.4796  -4.4527  -4.4460  -4.4155  -4.4119  -4.3943  -4.3929
    -4.3838  -4.3817  -4.3755  -4.3737  -4.3640  -4.3625  -4.3581  -4.3562
    -4.3501  -4.3491  -4.3389  -4.3380  -4.3212  -4.3176  -4.3147  -4.3144
    -4.2148  -4.2137  -4.1884  -4.1873  -4.1857  -4.1850  -4.1759  -4.1738
    -0.6774  -0.6128  -0.5095  -0.4681  -0.4474  -0.4121  -0.3997  -0.3854
    -0.3591  -0.3394  -0.3124  -0.2974  -0.2905  -0.2579  -0.2447  -0.2102
    -0.1961  -0.1826  -0.1243  -0.0945  -0.0831  -0.0711  -0.0225  -0.0030
     0.0370   0.0662   0.1157   0.1375   0.1819   0.2076   0.2406   0.2619
     0.2712   0.2875   0.3088   0.3196   0.3401   0.3505   0.3590   0.3725
     0.3795   0.3904   0.4069   0.4189   0.4401   0.4531   0.5041   0.5244
     0.6599   0.6718   0.6854   0.7022   0.7090   0.7169   0.7352   0.7540
     0.7676   0.7737   0.7894   0.7965   0.8039   0.8179   0.8231   0.8387
     0.8554   0.8731   0.8801   0.8926   0.9049   0.9117   0.9239   0.9430
     0.9480   0.9636   0.9721   0.9813   0.9877   0.9972   1.0153   1.0293
     1.0502   1.0573   1.0747   1.0855   1.0975   1.1106   1.1197   1.1244
     1.1345   1.1451   1.1684   1.1766   1.1855   1.2175   1.2331   1.2432
     1.2550   1.2646   1.2770   1.2850   1.2970   1.3096   1.3247   1.3429
     1.3564   1.3611   1.3751   1.3881   1.4054   1.4127   1.4256   1.4358
     1.4438   1.4536   1.4697   1.4810   1.4865   1.5080   1.5186   1.5209
     1.5378   1.5475   1.5623   1.5767   1.5898   1.5987   1.6128   1.6247
     1.6340   1.6543   1.6732   1.6932   1.6994   1.7162   1.7376   1.7515
     1.8054   1.8133   1.8609   1.8720   1.9321   1.9598   2.0004   2.0131
     4.7884   4.8937   4.9883   5.0734   5.1042   5.1591   5.2223   5.3113
     5.4444   5.4773   5.5334   5.5681   5.6742   5.7176   5.9092   5.9811
     6.1536   6.1981   6.2141   6.2931   6.3294   6.3936   6.4304   6.4646
     6.4964   6.5302   6.6774   6.7037   6.7983   6.8417   6.8599   6.9237
     6.9405   6.9801   7.0422   7.0861   7.1146   7.1457   7.2007   7.2210
     7.2395   7.2885   7.3113   7.3519   7.4093   7.4165   7.5032   7.5542
     7.7250   7.7944   7.8071   7.8444   7.8639   7.8848   7.9391   7.9479
     7.9624   7.9955   8.0135   8.0401   8.0656   8.0825   8.1013   8.1265
     8.1608   8.1794   8.2505   8.2647   8.2947   8.3059   8.3131   8.3340
     8.3719   8.3913   8.3974   8.4041   8.4480   8.4703   8.4908   8.4988
     8.5337   8.5456   8.5853   8.5914   8.6155   8.6205   8.6482   8.6618
     8.6779   8.6843   8.7113   8.7192   8.7639   8.7934   8.8439   8.8594
     8.9021   8.9200   8.9678   8.9869   9.0033   9.0127   9.0416   9.0607
     9.0761   9.0848   9.1088   9.1163   9.1357   9.1506   9.1579   9.1829
     9.2252   9.2407   9.2701   9.2785   9.2825   9.2960   9.3200   9.3318
     9.3483   9.3588   9.3868   9.3984   9.4107   9.4175   9.4319   9.4355
     9.4875   9.5006   9.5104   9.5202   9.5467   9.5564   9.5844   9.5944
     9.6021   9.6208   9.6475   9.6555   9.6782   9.6898   9.7341   9.7433
     9.9083   9.9404  10.0028  10.0190

     occupation numbers 
     1.0000   1.0000   1.0000   1.0000   1.0000   1.0000   1.0000   1.0000
     1.0000   1.0000   1.0000   1.0000   1.0000   1.0000   1.0000   1.0000
     1.0000   1.0000   1.0000   1.0000   1.0000   1.0000   1.0000   1.0000
     1.0000   1.0000   1.0000   1.0000   1.0000   1.0000   1.0000   1.0000
     1.0000   1.0000   1.0000   1.0000   1.0000   1.0000   1.0000   1.0000
     1.0000   1.0000   1.0000   1.0000   1.0000   1.0000   1.0000   1.0000
     1.0000   1.0000   1.0000   1.0000   1.0000   1.0000   1.0000   1.0000
     1.0000   1.0000   1.0000   1.0000   1.0000   1.0000   1.0000   1.0000
     1.0000   1.0000   1.0000   1.0000   1.0000   1.0000   1.0000   1.0000
     1.0000   1.0000   1.0000   1.0000   1.0000   1.0000   1.0000   1.0000
     1.0000   1.0000   1.0000   1.0000   1.0000   1.0000   1.0000   1.0000
     1.0000   1.0000   1.0000   1.0000   1.0000   1.0000   1.0000   1.0000
     1.0000   1.0000   1.0000   1.0000   1.0000   1.0000   1.0000   1.0000
     1.0000   1.0000   1.0000   1.0000   1.0000   1.0000   1.0000   1.0000
     1.0000   1.0000   1.0000   1.0000   1.0000   1.0000   1.0000   1.0000
     1.0000   1.0000   1.0000   1.0000   1.0000   1.0000   1.0000   1.0000
     1.0000   1.0000   1.0000   1.0000   1.0000   1.0000   1.0000   1.0000
     1.0000   1.0000   1.0000   1.0000   1.0000   1.0000   1.0000   1.0000
     1.0000   1.0000   1.0000   1.0000   1.0000   1.0000   1.0000   1.0000
     1.0000   1.0000   1.0000   1.0000   1.0000   1.0000   1.0000   1.0000
     1.0000   1.0000   1.0000   1.0000   1.0000   1.0000   1.0000   1.0000
     1.0000   1.0000   1.0000   1.0000   1.0000   1.0000   1.0000   1.0000
     1.0000   1.0000   1.0000   1.0000   1.0000   1.0000   1.0000   1.0000
     1.0000   1.0000   1.0000   1.0000   1.0000   1.0000   1.0000   1.0000
     1.0000   1.0000   1.0000   1.0000   1.0000   1.0000   1.0000   1.0000
     1.0000   1.0000   1.0000   1.0000   1.0000   1.0000   1.0000   1.0000
     1.0000   1.0000   1.0000   1.0000   1.0000   1.0000   1.0000   1.0000
     1.0000   1.0000   1.0000   1.0000   1.0000   1.0000   1.0000   1.0000
     1.0000   1.0000   1.0000   1.0000   1.0000   1.0000   1.0000   1.0000
     1.0000   1.0000   1.0000   1.0000   1.0000   1.0000   1.0000   1.0000
     1.0000   1.0000   1.0000   1.0000   1.0000   1.0000   1.0000   1.0000
     1.0000   1.0000   1.0000   1.0000   1.0000   1.0000   1.0000   1.0000
     1.0000   1.0000   1.0000   1.0000   1.0000   1.0000   1.0000   1.0000
     1.0000   1.0000   1.0000   1.0000   1.0000   1.0000   1.0000   1.0000
     1.0000   1.0000   1.0000   1.0000   1.0000   1.0000   1.0000   1.0000
     1.0000   1.0000   1.0000   1.0000   1.0000   1.0000   1.0000   1.0000
     1.0000   1.0000   1.0000   1.0000   1.0000   1.0000   1.0000   1.0000
     1.0000   1.0000   1.0000   1.0000   1.0000   1.0000   1.0000   1.0000
     1.0000   1.0000   1.0000   1.0000   1.0000   1.0000   1.0000   1.0000
     1.0000   1.0000   1.0000   1.0000   1.0000   1.0000   1.0000   1.0000
     1.0000   1.0000   1.0000   1.0000   1.0000   1.0000   1.0000   1.0000
     1.0000   1.0000   1.0000   1.0000   1.0000   1.0000   1.0000   1.0000
     1.0000   1.0000   1.0000   1.0000   1.0000   1.0000   1.0000   1.0000
     1.0000   1.0000   1.0000   1.0000   1.0000   1.0000   1.0000   1.0000
     0.0000   0.0000   0.0000   0.0000   0.0000   0.0000   0.0000   0.0000
     0.0000   0.0000   0.0000   0.0000   0.0000   0.0000   0.0000   0.0000
     0.0000   0.0000   0.0000   0.0000   0.0000   0.0000   0.0000   0.0000
     0.0000   0.0000   0.0000   0.0000   0.0000   0.0000   0.0000   0.0000
     0.0000   0.0000   0.0000   0.0000   0.0000   0.0000   0.0000   0.0000
     0.0000   0.0000   0.0000   0.0000   0.0000   0.0000   0.0000   0.0000
     0.0000   0.0000   0.0000   0.0000   0.0000   0.0000   0.0000   0.0000
     0.0000   0.0000   0.0000   0.0000   0.0000   0.0000   0.0000   0.0000
     0.0000   0.0000   0.0000   0.0000   0.0000   0.0000   0.0000   0.0000
     0.0000   0.0000   0.0000   0.0000   0.0000   0.0000   0.0000   0.0000
     0.0000   0.0000   0.0000   0.0000   0.0000   0.0000   0.0000   0.0000
     0.0000   0.0000   0.0000   0.0000   0.0000   0.0000   0.0000   0.0000
     0.0000   0.0000   0.0000   0.0000   0.0000   0.0000   0.0000   0.0000
     0.0000   0.0000   0.0000   0.0000   0.0000   0.0000   0.0000   0.0000
     0.0000   0.0000   0.0000   0.0000   0.0000   0.0000   0.0000   0.0000
     0.0000   0.0000   0.0000   0.0000   0.0000   0.0000   0.0000   0.0000
     0.0000   0.0000   0.0000   0.0000   0.0000   0.0000   0.0000   0.0000
     0.0000   0.0000   0.0000   0.0000   0.0000   0.0000   0.0000   0.0000
     0.0000   0.0000   0.0000   0.0000

          k = 0.4000 0.4000 0.4000 ( 73959 PWs)   bands (ev):

   -18.1281 -18.1281 -18.0397 -18.0397 -17.9993 -17.9993 -17.9954 -17.9954
   -17.9650 -17.9650 -17.9608 -17.9608 -17.8047 -17.8047 -17.7796 -17.7796
   -15.3216 -15.3215 -15.3008 -15.3008 -15.2523 -15.2515 -15.2503 -15.2496
   -15.2402 -15.2401 -15.2355 -15.2353 -15.2228 -15.2228 -15.2148 -15.2148
   -15.1850 -15.1849 -15.1676 -15.1675 -15.0948 -15.0948 -15.0876 -15.0876
   -15.0732 -15.0732 -15.0690 -15.0689 -15.0093 -15.0092 -15.0005 -15.0005
   -12.7876 -12.7865 -12.7687 -12.7685 -12.7647 -12.7596 -12.7441 -12.7388
   -12.7265 -12.7262 -12.7235 -12.7228 -12.7162 -12.7145 -12.6928 -12.6920
   -12.6808 -12.6804 -12.6587 -12.6582 -12.6571 -12.6570 -12.6516 -12.6510
   -12.6466 -12.6460 -12.6337 -12.6337 -12.5935 -12.5927 -12.5900 -12.5899
   -12.5703 -12.5698 -12.5588 -12.5580 -12.5443 -12.5432 -12.5082 -12.5077
   -12.4985 -12.4984 -12.4927 -12.4922 -12.4908 -12.4905 -12.4172 -12.4172
   -11.3921 -11.3913 -11.3602 -11.3593 -11.2772 -11.2767 -11.2359 -11.2354
   -11.2109 -11.2098 -11.1760 -11.1750 -11.1151 -11.1145 -11.0752 -11.0741
   -11.0406 -11.0364 -11.0282 -11.0260 -10.9842 -10.9817 -10.9578 -10.9564
   -10.9364 -10.9342 -10.9208 -10.9193 -10.8923 -10.8918 -10.8433 -10.8417
   -10.8271 -10.8262 -10.7887 -10.7882 -10.7709 -10.7697 -10.6796 -10.6789
   -10.6481 -10.6474 -10.6291 -10.6284 -10.5966 -10.5964 -10.5479 -10.5476
    -6.0980  -6.0980  -6.0134  -6.0132  -5.9759  -5.9756  -5.9728  -5.9727
    -5.9422  -5.9405  -5.9366  -5.9349  -5.7961  -5.7959  -5.7736  -5.7734
    -4.9895  -4.9879  -4.8673  -4.8656  -4.8281  -4.8264  -4.7941  -4.7936
    -4.7004  -4.6992  -4.6136  -4.6098  -4.5664  -4.5625  -4.5048  -4.5043
    -4.4868  -4.4849  -4.4759  -4.4737  -4.4160  -4.4143  -4.3949  -4.3938
    -4.3844  -4.3829  -4.3764  -4.3753  -4.3639  -4.3627  -4.3590  -4.3570
    -4.3508  -4.3499  -4.3397  -4.3387  -4.3212  -4.3181  -4.3150  -4.3146
    -4.2149  -4.2141  -4.1883  -4.1874  -4.1857  -4.1851  -4.1759  -4.1743
    -0.6329  -0.5735  -0.4699  -0.4321  -0.4182  -0.3830  -0.3659  -0.3567
    -0.3363  -0.3117  -0.2872  -0.2703  -0.2608  -0.2317  -0.2182  -0.1833
    -0.1666  -0.1550  -0.1019  -0.0791  -0.0637  -0.0457  -0.0153   0.0055
     0.0256   0.0374   0.0987   0.1159   0.1557   0.1835   0.2153   0.2361
     0.2479   0.2676   0.2927   0.3026   0.3225   0.3338   0.3381   0.3567
     0.3661   0.3765   0.3913   0.4034   0.4244   0.4336   0.4955   0.5138
     0.6637   0.6718   0.6835   0.6993   0.7070   0.7196   0.7327   0.7533
     0.7647   0.7701   0.7834   0.7918   0.7990   0.8125   0.8173   0.8361
     0.8503   0.8709   0.8756   0.8881   0.8982   0.9064   0.9195   0.9374
     0.9434   0.9564   0.9646   0.9800   0.9851   0.9921   1.0108   1.0262
     1.0426   1.0533   1.0691   1.0775   1.0916   1.1062   1.1143   1.1170
     1.1285   1.1433   1.1629   1.1728   1.1865   1.2128   1.2301   1.2406
     1.2513   1.2638   1.2781   1.2839   1.2979   1.3106   1.3243   1.3419
     1.3564   1.3639   1.3757   1.3919   1.4070   1.4116   1.4252   1.4383
     1.4410   1.4523   1.4706   1.4764   1.4830   1.5044   1.5126   1.5169
     1.5310   1.5469   1.5567   1.5751   1.5846   1.5946   1.6090   1.6208
     1.6267   1.6523   1.6605   1.6918   1.6985   1.7122   1.7355   1.7444
     1.7900   1.7984   1.8407   1.8483   1.9020   1.9322   1.9957   2.0053
     4.8741   4.9709   5.0361   5.1365   5.1608   5.2173   5.2574   5.3562
     5.4734   5.5009   5.5514   5.6004   5.6823   5.7255   5.8721   5.9470
     6.1987   6.2700   6.2958   6.3490   6.4022   6.4553   6.4845   6.5208
     6.5609   6.5881   6.6603   6.6782   6.7715   6.8079   6.8362   6.8950
     6.9102   6.9484   7.0092   7.0496   7.0852   7.1121   7.1502   7.1916
     7.2023   7.2378   7.2570   7.3043   7.3441   7.3617   7.4344   7.4823
     7.7261   7.7895   7.8004   7.8356   7.8596   7.8775   7.9207   7.9303
     7.9418   7.9776   8.0042   8.0303   8.0582   8.0759   8.0870   8.1164
     8.1563   8.1797   8.2624   8.2697   8.2934   8.3049   8.3149   8.3247
     8.3700   8.3876   8.3993   8.4013   8.4396   8.4558   8.4770   8.4869
     8.5235   8.5376   8.5708   8.5795   8.6082   8.6127   8.6357   8.6498
     8.6687   8.6705   8.6983   8.7063   8.7601   8.7866   8.8429   8.8581
     8.9045   8.9228   8.9693   8.9896   9.0199   9.0309   9.0512   9.0678
     9.0921   9.1025   9.1190   9.1311   9.1499   9.1605   9.1653   9.1920
     9.2369   9.2573   9.2721   9.2826   9.2914   9.3009   9.3301   9.3400
     9.3561   9.3665   9.3919   9.4025   9.4142   9.4246   9.4389   9.4466
     9.4953   9.5107   9.5186   9.5256   9.5562   9.5657   9.5873   9.5987
     9.6132   9.6275   9.6545   9.6639   9.6828   9.6949   9.7328   9.7416
     9.9132   9.9440   9.9946  10.0125

     occupation numbers 
     1.0000   1.0000   1.0000   1.0000   1.0000   1.0000   1.0000   1.0000
     1.0000   1.0000   1.0000   1.0000   1.0000   1.0000   1.0000   1.0000
     1.0000   1.0000   1.0000   1.0000   1.0000   1.0000   1.0000   1.0000
     1.0000   1.0000   1.0000   1.0000   1.0000   1.0000   1.0000   1.0000
     1.0000   1.0000   1.0000   1.0000   1.0000   1.0000   1.0000   1.0000
     1.0000   1.0000   1.0000   1.0000   1.0000   1.0000   1.0000   1.0000
     1.0000   1.0000   1.0000   1.0000   1.0000   1.0000   1.0000   1.0000
     1.0000   1.0000   1.0000   1.0000   1.0000   1.0000   1.0000   1.0000
     1.0000   1.0000   1.0000   1.0000   1.0000   1.0000   1.0000   1.0000
     1.0000   1.0000   1.0000   1.0000   1.0000   1.0000   1.0000   1.0000
     1.0000   1.0000   1.0000   1.0000   1.0000   1.0000   1.0000   1.0000
     1.0000   1.0000   1.0000   1.0000   1.0000   1.0000   1.0000   1.0000
     1.0000   1.0000   1.0000   1.0000   1.0000   1.0000   1.0000   1.0000
     1.0000   1.0000   1.0000   1.0000   1.0000   1.0000   1.0000   1.0000
     1.0000   1.0000   1.0000   1.0000   1.0000   1.0000   1.0000   1.0000
     1.0000   1.0000   1.0000   1.0000   1.0000   1.0000   1.0000   1.0000
     1.0000   1.0000   1.0000   1.0000   1.0000   1.0000   1.0000   1.0000
     1.0000   1.0000   1.0000   1.0000   1.0000   1.0000   1.0000   1.0000
     1.0000   1.0000   1.0000   1.0000   1.0000   1.0000   1.0000   1.0000
     1.0000   1.0000   1.0000   1.0000   1.0000   1.0000   1.0000   1.0000
     1.0000   1.0000   1.0000   1.0000   1.0000   1.0000   1.0000   1.0000
     1.0000   1.0000   1.0000   1.0000   1.0000   1.0000   1.0000   1.0000
     1.0000   1.0000   1.0000   1.0000   1.0000   1.0000   1.0000   1.0000
     1.0000   1.0000   1.0000   1.0000   1.0000   1.0000   1.0000   1.0000
     1.0000   1.0000   1.0000   1.0000   1.0000   1.0000   1.0000   1.0000
     1.0000   1.0000   1.0000   1.0000   1.0000   1.0000   1.0000   1.0000
     1.0000   1.0000   1.0000   1.0000   1.0000   1.0000   1.0000   1.0000
     1.0000   1.0000   1.0000   1.0000   1.0000   1.0000   1.0000   1.0000
     1.0000   1.0000   1.0000   1.0000   1.0000   1.0000   1.0000   1.0000
     1.0000   1.0000   1.0000   1.0000   1.0000   1.0000   1.0000   1.0000
     1.0000   1.0000   1.0000   1.0000   1.0000   1.0000   1.0000   1.0000
     1.0000   1.0000   1.0000   1.0000   1.0000   1.0000   1.0000   1.0000
     1.0000   1.0000   1.0000   1.0000   1.0000   1.0000   1.0000   1.0000
     1.0000   1.0000   1.0000   1.0000   1.0000   1.0000   1.0000   1.0000
     1.0000   1.0000   1.0000   1.0000   1.0000   1.0000   1.0000   1.0000
     1.0000   1.0000   1.0000   1.0000   1.0000   1.0000   1.0000   1.0000
     1.0000   1.0000   1.0000   1.0000   1.0000   1.0000   1.0000   1.0000
     1.0000   1.0000   1.0000   1.0000   1.0000   1.0000   1.0000   1.0000
     1.0000   1.0000   1.0000   1.0000   1.0000   1.0000   1.0000   1.0000
     1.0000   1.0000   1.0000   1.0000   1.0000   1.0000   1.0000   1.0000
     1.0000   1.0000   1.0000   1.0000   1.0000   1.0000   1.0000   1.0000
     1.0000   1.0000   1.0000   1.0000   1.0000   1.0000   1.0000   1.0000
     1.0000   1.0000   1.0000   1.0000   1.0000   1.0000   1.0000   1.0000
     1.0000   1.0000   1.0000   1.0000   1.0000   1.0000   1.0000   1.0000
     0.0000   0.0000   0.0000   0.0000   0.0000   0.0000   0.0000   0.0000
     0.0000   0.0000   0.0000   0.0000   0.0000   0.0000   0.0000   0.0000
     0.0000   0.0000   0.0000   0.0000   0.0000   0.0000   0.0000   0.0000
     0.0000   0.0000   0.0000   0.0000   0.0000   0.0000   0.0000   0.0000
     0.0000   0.0000   0.0000   0.0000   0.0000   0.0000   0.0000   0.0000
     0.0000   0.0000   0.0000   0.0000   0.0000   0.0000   0.0000   0.0000
     0.0000   0.0000   0.0000   0.0000   0.0000   0.0000   0.0000   0.0000
     0.0000   0.0000   0.0000   0.0000   0.0000   0.0000   0.0000   0.0000
     0.0000   0.0000   0.0000   0.0000   0.0000   0.0000   0.0000   0.0000
     0.0000   0.0000   0.0000   0.0000   0.0000   0.0000   0.0000   0.0000
     0.0000   0.0000   0.0000   0.0000   0.0000   0.0000   0.0000   0.0000
     0.0000   0.0000   0.0000   0.0000   0.0000   0.0000   0.0000   0.0000
     0.0000   0.0000   0.0000   0.0000   0.0000   0.0000   0.0000   0.0000
     0.0000   0.0000   0.0000   0.0000   0.0000   0.0000   0.0000   0.0000
     0.0000   0.0000   0.0000   0.0000   0.0000   0.0000   0.0000   0.0000
     0.0000   0.0000   0.0000   0.0000   0.0000   0.0000   0.0000   0.0000
     0.0000   0.0000   0.0000   0.0000   0.0000   0.0000   0.0000   0.0000
     0.0000   0.0000   0.0000   0.0000   0.0000   0.0000   0.0000   0.0000
     0.0000   0.0000   0.0000   0.0000

          k = 0.4250 0.4250 0.4250 ( 73944 PWs)   bands (ev):

   -18.1281 -18.1281 -18.0397 -18.0397 -17.9993 -17.9993 -17.9954 -17.9954
   -17.9650 -17.9650 -17.9608 -17.9608 -17.8047 -17.8047 -17.7796 -17.7796
   -15.3216 -15.3215 -15.3008 -15.3008 -15.2521 -15.2514 -15.2504 -15.2498
   -15.2402 -15.2401 -15.2355 -15.2354 -15.2228 -15.2227 -15.2148 -15.2148
   -15.1850 -15.1849 -15.1676 -15.1675 -15.0948 -15.0948 -15.0876 -15.0876
   -15.0732 -15.0731 -15.0690 -15.0690 -15.0093 -15.0092 -15.0005 -15.0005
   -12.7872 -12.7862 -12.7686 -12.7684 -12.7631 -12.7585 -12.7452 -12.7405
   -12.7265 -12.7262 -12.7233 -12.7228 -12.7162 -12.7149 -12.6924 -12.6917
   -12.6805 -12.6801 -12.6589 -12.6585 -12.6571 -12.6570 -12.6519 -12.6515
   -12.6468 -12.6463 -12.6337 -12.6337 -12.5933 -12.5928 -12.5900 -12.5899
   -12.5703 -12.5699 -12.5583 -12.5576 -12.5447 -12.5438 -12.5082 -12.5079
   -12.4985 -12.4985 -12.4928 -12.4924 -12.4908 -12.4906 -12.4172 -12.4172
   -11.3916 -11.3910 -11.3603 -11.3596 -11.2789 -11.2786 -11.2332 -11.2328
   -11.2127 -11.2118 -11.1769 -11.1761 -11.1168 -11.1162 -11.0761 -11.0752
   -11.0386 -11.0354 -11.0271 -11.0255 -10.9813 -10.9793 -10.9564 -10.9553
   -10.9354 -10.9336 -10.9209 -10.9198 -10.8922 -10.8917 -10.8420 -10.8407
   -10.8271 -10.8264 -10.7890 -10.7887 -10.7717 -10.7708 -10.6785 -10.6780
   -10.6486 -10.6480 -10.6300 -10.6294 -10.5973 -10.5971 -10.5483 -10.5481
    -6.0980  -6.0980  -6.0134  -6.0132  -5.9758  -5.9756  -5.9728  -5.9727
    -5.9420  -5.9407  -5.9363  -5.9350  -5.7960  -5.7959  -5.7736  -5.7734
    -4.9551  -4.9537  -4.8643  -4.8629  -4.8112  -4.8092  -4.7913  -4.7906
    -4.7150  -4.7143  -4.6327  -4.6290  -4.5739  -4.5704  -4.5202  -4.5188
    -4.4984  -4.4970  -4.4789  -4.4785  -4.4163  -4.4152  -4.3952  -4.3942
    -4.3846  -4.3836  -4.3769  -4.3760  -4.3638  -4.3629  -4.3593  -4.3575
    -4.3512  -4.3503  -4.3399  -4.3391  -4.3211  -4.3185  -4.3150  -4.3147
    -4.2149  -4.2144  -4.1882  -4.1875  -4.1856  -4.1852  -4.1758  -4.1747
    -0.5891  -0.5368  -0.4303  -0.4008  -0.3927  -0.3585  -0.3381  -0.3309
    -0.3153  -0.2879  -0.2682  -0.2497  -0.2324  -0.2112  -0.1920  -0.1617
    -0.1426  -0.1310  -0.0944  -0.0762  -0.0580  -0.0425  -0.0180  -0.0035
     0.0238   0.0373   0.1013   0.1103   0.1355   0.1675   0.1910   0.2067
     0.2292   0.2516   0.2768   0.2863   0.3007   0.3180   0.3254   0.3439
     0.3534   0.3656   0.3752   0.3926   0.4105   0.4164   0.4890   0.5049
     0.6646   0.6718   0.6847   0.6981   0.7054   0.7235   0.7317   0.7514
     0.7617   0.7667   0.7783   0.7889   0.7956   0.8055   0.8152   0.8353
     0.8445   0.8664   0.8732   0.8850   0.8943   0.9032   0.9163   0.9302
     0.9403   0.9485   0.9608   0.9801   0.9821   0.9904   1.0056   1.0247
     1.0359   1.0498   1.0633   1.0698   1.0864   1.1015   1.1080   1.1107
     1.1241   1.1430   1.1574   1.1697   1.1884   1.2071   1.2258   1.2359
     1.2501   1.2635   1.2788   1.2825   1.2994   1.3111   1.3246   1.3398
     1.3566   1.3670   1.3766   1.3928   1.4094   1.4112   1.4262   1.4367
     1.4426   1.4496   1.4693   1.4728   1.4800   1.5012   1.5059   1.5140
     1.5270   1.5477   1.5517   1.5703   1.5816   1.5905   1.6059   1.6159
     1.6233   1.6497   1.6537   1.6884   1.6996   1.7099   1.7333   1.7407
     1.7754   1.7881   1.8242   1.8312   1.8809   1.9094   1.9930   2.0000
     4.9492   5.0289   5.0872   5.1886   5.2190   5.2684   5.2900   5.3920
     5.4854   5.5325   5.5630   5.6332   5.6595   5.7278   5.8394   5.9034
     6.2481   6.3382   6.3652   6.4033   6.4720   6.5106   6.5317   6.5682
     6.6103   6.6226   6.6471   6.6970   6.7547   6.7875   6.8164   6.8707
     6.8916   6.9182   6.9753   7.0153   7.0500   7.0807   7.1017   7.1536
     7.1631   7.1956   7.2127   7.2604   7.2861   7.3118   7.3675   7.4151
     7.7371   7.7879   7.7976   7.8284   7.8591   7.8734   7.9066   7.9162
     7.9245   7.9611   7.9972   8.0212   8.0484   8.0649   8.0776   8.1050
     8.1566   8.1826   8.2582   8.2729   8.2889   8.3047   8.3243   8.3284
     8.3712   8.3842   8.3980   8.4060   8.4350   8.4446   8.4651   8.4786
     8.5146   8.5293   8.5571   8.5683   8.6021   8.6050   8.6236   8.6370
     8.6583   8.6634   8.6846   8.6961   8.7607   8.7823   8.8421   8.8570
     8.9049   8.9211   8.9664   8.9848   9.0368   9.0492   9.0580   9.0734
     9.1092   9.1152   9.1308   9.1403   9.1574   9.1667   9.1799   9.2008
     9.2413   9.2641   9.2737   9.2873   9.3008   9.3154   9.3327   9.3491
     9.3678   9.3731   9.3960   9.4006   9.4154   9.4271   9.4544   9.4649
     9.4958   9.5108   9.5355   9.5419   9.5659   9.5750   9.5917   9.6028
     9.6247   9.6337   9.6652   9.6737   9.6883   9.7010   9.7305   9.7382
     9.9196   9.9457   9.9858  10.0034

     occupation numbers 
     1.0000   1.0000   1.0000   1.0000   1.0000   1.0000   1.0000   1.0000
     1.0000   1.0000   1.0000   1.0000   1.0000   1.0000   1.0000   1.0000
     1.0000   1.0000   1.0000   1.0000   1.0000   1.0000   1.0000   1.0000
     1.0000   1.0000   1.0000   1.0000   1.0000   1.0000   1.0000   1.0000
     1.0000   1.0000   1.0000   1.0000   1.0000   1.0000   1.0000   1.0000
     1.0000   1.0000   1.0000   1.0000   1.0000   1.0000   1.0000   1.0000
     1.0000   1.0000   1.0000   1.0000   1.0000   1.0000   1.0000   1.0000
     1.0000   1.0000   1.0000   1.0000   1.0000   1.0000   1.0000   1.0000
     1.0000   1.0000   1.0000   1.0000   1.0000   1.0000   1.0000   1.0000
     1.0000   1.0000   1.0000   1.0000   1.0000   1.0000   1.0000   1.0000
     1.0000   1.0000   1.0000   1.0000   1.0000   1.0000   1.0000   1.0000
     1.0000   1.0000   1.0000   1.0000   1.0000   1.0000   1.0000   1.0000
     1.0000   1.0000   1.0000   1.0000   1.0000   1.0000   1.0000   1.0000
     1.0000   1.0000   1.0000   1.0000   1.0000   1.0000   1.0000   1.0000
     1.0000   1.0000   1.0000   1.0000   1.0000   1.0000   1.0000   1.0000
     1.0000   1.0000   1.0000   1.0000   1.0000   1.0000   1.0000   1.0000
     1.0000   1.0000   1.0000   1.0000   1.0000   1.0000   1.0000   1.0000
     1.0000   1.0000   1.0000   1.0000   1.0000   1.0000   1.0000   1.0000
     1.0000   1.0000   1.0000   1.0000   1.0000   1.0000   1.0000   1.0000
     1.0000   1.0000   1.0000   1.0000   1.0000   1.0000   1.0000   1.0000
     1.0000   1.0000   1.0000   1.0000   1.0000   1.0000   1.0000   1.0000
     1.0000   1.0000   1.0000   1.0000   1.0000   1.0000   1.0000   1.0000
     1.0000   1.0000   1.0000   1.0000   1.0000   1.0000   1.0000   1.0000
     1.0000   1.0000   1.0000   1.0000   1.0000   1.0000   1.0000   1.0000
     1.0000   1.0000   1.0000   1.0000   1.0000   1.0000   1.0000   1.0000
     1.0000   1.0000   1.0000   1.0000   1.0000   1.0000   1.0000   1.0000
     1.0000   1.0000   1.0000   1.0000   1.0000   1.0000   1.0000   1.0000
     1.0000   1.0000   1.0000   1.0000   1.0000   1.0000   1.0000   1.0000
     1.0000   1.0000   1.0000   1.0000   1.0000   1.0000   1.0000   1.0000
     1.0000   1.0000   1.0000   1.0000   1.0000   1.0000   1.0000   1.0000
     1.0000   1.0000   1.0000   1.0000   1.0000   1.0000   1.0000   1.0000
     1.0000   1.0000   1.0000   1.0000   1.0000   1.0000   1.0000   1.0000
     1.0000   1.0000   1.0000   1.0000   1.0000   1.0000   1.0000   1.0000
     1.0000   1.0000   1.0000   1.0000   1.0000   1.0000   1.0000   1.0000
     1.0000   1.0000   1.0000   1.0000   1.0000   1.0000   1.0000   1.0000
     1.0000   1.0000   1.0000   1.0000   1.0000   1.0000   1.0000   1.0000
     1.0000   1.0000   1.0000   1.0000   1.0000   1.0000   1.0000   1.0000
     1.0000   1.0000   1.0000   1.0000   1.0000   1.0000   1.0000   1.0000
     1.0000   1.0000   1.0000   1.0000   1.0000   1.0000   1.0000   1.0000
     1.0000   1.0000   1.0000   1.0000   1.0000   1.0000   1.0000   1.0000
     1.0000   1.0000   1.0000   1.0000   1.0000   1.0000   1.0000   1.0000
     1.0000   1.0000   1.0000   1.0000   1.0000   1.0000   1.0000   1.0000
     1.0000   1.0000   1.0000   1.0000   1.0000   1.0000   1.0000   1.0000
     1.0000   1.0000   1.0000   1.0000   1.0000   1.0000   1.0000   1.0000
     0.0000   0.0000   0.0000   0.0000   0.0000   0.0000   0.0000   0.0000
     0.0000   0.0000   0.0000   0.0000   0.0000   0.0000   0.0000   0.0000
     0.0000   0.0000   0.0000   0.0000   0.0000   0.0000   0.0000   0.0000
     0.0000   0.0000   0.0000   0.0000   0.0000   0.0000   0.0000   0.0000
     0.0000   0.0000   0.0000   0.0000   0.0000   0.0000   0.0000   0.0000
     0.0000   0.0000   0.0000   0.0000   0.0000   0.0000   0.0000   0.0000
     0.0000   0.0000   0.0000   0.0000   0.0000   0.0000   0.0000   0.0000
     0.0000   0.0000   0.0000   0.0000   0.0000   0.0000   0.0000   0.0000
     0.0000   0.0000   0.0000   0.0000   0.0000   0.0000   0.0000   0.0000
     0.0000   0.0000   0.0000   0.0000   0.0000   0.0000   0.0000   0.0000
     0.0000   0.0000   0.0000   0.0000   0.0000   0.0000   0.0000   0.0000
     0.0000   0.0000   0.0000   0.0000   0.0000   0.0000   0.0000   0.0000
     0.0000   0.0000   0.0000   0.0000   0.0000   0.0000   0.0000   0.0000
     0.0000   0.0000   0.0000   0.0000   0.0000   0.0000   0.0000   0.0000
     0.0000   0.0000   0.0000   0.0000   0.0000   0.0000   0.0000   0.0000
     0.0000   0.0000   0.0000   0.0000   0.0000   0.0000   0.0000   0.0000
     0.0000   0.0000   0.0000   0.0000   0.0000   0.0000   0.0000   0.0000
     0.0000   0.0000   0.0000   0.0000   0.0000   0.0000   0.0000   0.0000
     0.0000   0.0000   0.0000   0.0000

          k = 0.4500 0.4500 0.4500 ( 73977 PWs)   bands (ev):

   -18.1281 -18.1281 -18.0397 -18.0397 -17.9993 -17.9993 -17.9954 -17.9954
   -17.9650 -17.9650 -17.9608 -17.9608 -17.8047 -17.8047 -17.7796 -17.7796
   -15.3216 -15.3215 -15.3008 -15.3008 -15.2519 -15.2514 -15.2504 -15.2499
   -15.2402 -15.2402 -15.2355 -15.2354 -15.2228 -15.2227 -15.2148 -15.2148
   -15.1850 -15.1849 -15.1676 -15.1676 -15.0948 -15.0948 -15.0876 -15.0876
   -15.0732 -15.0731 -15.0690 -15.0690 -15.0093 -15.0093 -15.0005 -15.0005
   -12.7868 -12.7861 -12.7685 -12.7683 -12.7616 -12.7580 -12.7458 -12.7421
   -12.7264 -12.7262 -12.7232 -12.7228 -12.7161 -12.7152 -12.6920 -12.6916
   -12.6802 -12.6800 -12.6590 -12.6587 -12.6571 -12.6570 -12.6522 -12.6518
   -12.6469 -12.6465 -12.6337 -12.6337 -12.5932 -12.5928 -12.5900 -12.5900
   -12.5702 -12.5700 -12.5579 -12.5574 -12.5450 -12.5443 -12.5083 -12.5080
   -12.4985 -12.4985 -12.4929 -12.4926 -12.4908 -12.4907 -12.4172 -12.4172
   -11.3913 -11.3909 -11.3602 -11.3597 -11.2802 -11.2799 -11.2307 -11.2304
   -11.2143 -11.2136 -11.1777 -11.1772 -11.1179 -11.1175 -11.0767 -11.0761
   -11.0370 -11.0348 -11.0261 -11.0251 -10.9791 -10.9777 -10.9552 -10.9544
   -10.9349 -10.9336 -10.9207 -10.9200 -10.8919 -10.8915 -10.8410 -10.8402
   -10.8271 -10.8266 -10.7891 -10.7889 -10.7724 -10.7717 -10.6776 -10.6772
   -10.6490 -10.6486 -10.6307 -10.6303 -10.5977 -10.5976 -10.5485 -10.5484
    -6.0980  -6.0980  -6.0133  -6.0132  -5.9758  -5.9756  -5.9728  -5.9728
    -5.9418  -5.9410  -5.9361  -5.9352  -5.7960  -5.7960  -5.7736  -5.7734
    -4.9246  -4.9234  -4.8618  -4.8605  -4.8030  -4.8021  -4.7811  -4.7802
    -4.7254  -4.7249  -4.6563  -4.6532  -4.5784  -4.5757  -4.5413  -4.5399
    -4.4999  -4.4993  -4.4794  -4.4790  -4.4163  -4.4157  -4.3952  -4.3946
    -4.3848  -4.3841  -4.3770  -4.3764  -4.3636  -4.3630  -4.3593  -4.3580
    -4.3513  -4.3506  -4.3400  -4.3394  -4.3208  -4.3190  -4.3150  -4.3147
    -4.2149  -4.2146  -4.1881  -4.1877  -4.1856  -4.1853  -4.1757  -4.1750
    -0.5481  -0.5065  -0.3931  -0.3828  -0.3663  -0.3428  -0.3212  -0.3070
    -0.2949  -0.2701  -0.2568  -0.2350  -0.2113  -0.1960  -0.1686  -0.1507
    -0.1297  -0.1147  -0.0974  -0.0790  -0.0640  -0.0567  -0.0130  -0.0023
     0.0254   0.0394   0.0991   0.1066   0.1405   0.1643   0.1709   0.1837
     0.2137   0.2408   0.2607   0.2716   0.2832   0.3083   0.3114   0.3339
     0.3431   0.3554   0.3649   0.3823   0.3993   0.4038   0.4852   0.4974
     0.6638   0.6698   0.6891   0.6991   0.7044   0.7261   0.7326   0.7474
     0.7583   0.7651   0.7750   0.7867   0.7925   0.7991   0.8166   0.8341
     0.8414   0.8596   0.8733   0.8811   0.8942   0.9013   0.9142   0.9234
     0.9366   0.9425   0.9603   0.9783   0.9818   0.9900   1.0019   1.0217
     1.0324   1.0461   1.0597   1.0641   1.0817   1.0934   1.1036   1.1061
     1.1233   1.1417   1.1544   1.1664   1.1905   1.2018   1.2220   1.2297
     1.2514   1.2625   1.2794   1.2816   1.3010   1.3101   1.3259   1.3373
     1.3579   1.3687   1.3783   1.3896   1.4116   1.4149   1.4279   1.4336
     1.4438   1.4467   1.4653   1.4726   1.4766   1.4960   1.5028   1.5127
     1.5262   1.5460   1.5497   1.5646   1.5794   1.5881   1.6029   1.6100
     1.6236   1.6419   1.6572   1.6835   1.7013   1.7085   1.7317   1.7380
     1.7658   1.7793   1.8130   1.8189   1.8693   1.8913   1.9916   1.9963
     5.0089   5.0622   5.1416   5.2225   5.2701   5.3139   5.3310   5.4169
     5.4890   5.5569   5.5698   5.6115   5.6644   5.7183   5.8170   5.8698
     6.2949   6.3817   6.4122   6.4629   6.5294   6.5520   6.5673   6.5984
     6.6289   6.6454   6.6705   6.7231   6.7503   6.7837   6.8021   6.8534
     6.8806   6.9034   6.9473   6.9856   7.0097   7.0570   7.0676   7.1122
     7.1210   7.1617   7.1825   7.2150   7.2411   7.2657   7.3138   7.3575
     7.7524   7.7864   7.7994   7.8223   7.8604   7.8710   7.8972   7.9080
     7.9156   7.9476   7.9923   8.0116   8.0402   8.0522   8.0703   8.0917
     8.1628   8.1861   8.2486   8.2685   8.2878   8.3001   8.3332   8.3360
     8.3776   8.3854   8.3962   8.4126   8.4318   8.4396   8.4573   8.4730
     8.5070   8.5186   8.5484   8.5584   8.5947   8.5986   8.6141   8.6263
     8.6516   8.6604   8.6729   8.6866   8.7631   8.7784   8.8436   8.8577
     8.9013   8.9144   8.9655   8.9787   9.0490   9.0560   9.0716   9.0812
     9.1195   9.1230   9.1429   9.1461   9.1605   9.1770   9.1921   9.2069
     9.2415   9.2612   9.2780   9.2919   9.3077   9.3242   9.3389   9.3555
     9.3772   9.3800   9.3943   9.4010   9.4156   9.4256   9.4746   9.4823
     9.5003   9.5122   9.5480   9.5538   9.5742   9.5828   9.5987   9.6076
     9.6339   9.6388   9.6757   9.6823   9.6959   9.7061   9.7292   9.7345
     9.9254   9.9423   9.9786   9.9919

     occupation numbers 
     1.0000   1.0000   1.0000   1.0000   1.0000   1.0000   1.0000   1.0000
     1.0000   1.0000   1.0000   1.0000   1.0000   1.0000   1.0000   1.0000
     1.0000   1.0000   1.0000   1.0000   1.0000   1.0000   1.0000   1.0000
     1.0000   1.0000   1.0000   1.0000   1.0000   1.0000   1.0000   1.0000
     1.0000   1.0000   1.0000   1.0000   1.0000   1.0000   1.0000   1.0000
     1.0000   1.0000   1.0000   1.0000   1.0000   1.0000   1.0000   1.0000
     1.0000   1.0000   1.0000   1.0000   1.0000   1.0000   1.0000   1.0000
     1.0000   1.0000   1.0000   1.0000   1.0000   1.0000   1.0000   1.0000
     1.0000   1.0000   1.0000   1.0000   1.0000   1.0000   1.0000   1.0000
     1.0000   1.0000   1.0000   1.0000   1.0000   1.0000   1.0000   1.0000
     1.0000   1.0000   1.0000   1.0000   1.0000   1.0000   1.0000   1.0000
     1.0000   1.0000   1.0000   1.0000   1.0000   1.0000   1.0000   1.0000
     1.0000   1.0000   1.0000   1.0000   1.0000   1.0000   1.0000   1.0000
     1.0000   1.0000   1.0000   1.0000   1.0000   1.0000   1.0000   1.0000
     1.0000   1.0000   1.0000   1.0000   1.0000   1.0000   1.0000   1.0000
     1.0000   1.0000   1.0000   1.0000   1.0000   1.0000   1.0000   1.0000
     1.0000   1.0000   1.0000   1.0000   1.0000   1.0000   1.0000   1.0000
     1.0000   1.0000   1.0000   1.0000   1.0000   1.0000   1.0000   1.0000
     1.0000   1.0000   1.0000   1.0000   1.0000   1.0000   1.0000   1.0000
     1.0000   1.0000   1.0000   1.0000   1.0000   1.0000   1.0000   1.0000
     1.0000   1.0000   1.0000   1.0000   1.0000   1.0000   1.0000   1.0000
     1.0000   1.0000   1.0000   1.0000   1.0000   1.0000   1.0000   1.0000
     1.0000   1.0000   1.0000   1.0000   1.0000   1.0000   1.0000   1.0000
     1.0000   1.0000   1.0000   1.0000   1.0000   1.0000   1.0000   1.0000
     1.0000   1.0000   1.0000   1.0000   1.0000   1.0000   1.0000   1.0000
     1.0000   1.0000   1.0000   1.0000   1.0000   1.0000   1.0000   1.0000
     1.0000   1.0000   1.0000   1.0000   1.0000   1.0000   1.0000   1.0000
     1.0000   1.0000   1.0000   1.0000   1.0000   1.0000   1.0000   1.0000
     1.0000   1.0000   1.0000   1.0000   1.0000   1.0000   1.0000   1.0000
     1.0000   1.0000   1.0000   1.0000   1.0000   1.0000   1.0000   1.0000
     1.0000   1.0000   1.0000   1.0000   1.0000   1.0000   1.0000   1.0000
     1.0000   1.0000   1.0000   1.0000   1.0000   1.0000   1.0000   1.0000
     1.0000   1.0000   1.0000   1.0000   1.0000   1.0000   1.0000   1.0000
     1.0000   1.0000   1.0000   1.0000   1.0000   1.0000   1.0000   1.0000
     1.0000   1.0000   1.0000   1.0000   1.0000   1.0000   1.0000   1.0000
     1.0000   1.0000   1.0000   1.0000   1.0000   1.0000   1.0000   1.0000
     1.0000   1.0000   1.0000   1.0000   1.0000   1.0000   1.0000   1.0000
     1.0000   1.0000   1.0000   1.0000   1.0000   1.0000   1.0000   1.0000
     1.0000   1.0000   1.0000   1.0000   1.0000   1.0000   1.0000   1.0000
     1.0000   1.0000   1.0000   1.0000   1.0000   1.0000   1.0000   1.0000
     1.0000   1.0000   1.0000   1.0000   1.0000   1.0000   1.0000   1.0000
     1.0000   1.0000   1.0000   1.0000   1.0000   1.0000   1.0000   1.0000
     1.0000   1.0000   1.0000   1.0000   1.0000   1.0000   1.0000   1.0000
     1.0000   1.0000   1.0000   1.0000   1.0000   1.0000   1.0000   1.0000
     0.0000   0.0000   0.0000   0.0000   0.0000   0.0000   0.0000   0.0000
     0.0000   0.0000   0.0000   0.0000   0.0000   0.0000   0.0000   0.0000
     0.0000   0.0000   0.0000   0.0000   0.0000   0.0000   0.0000   0.0000
     0.0000   0.0000   0.0000   0.0000   0.0000   0.0000   0.0000   0.0000
     0.0000   0.0000   0.0000   0.0000   0.0000   0.0000   0.0000   0.0000
     0.0000   0.0000   0.0000   0.0000   0.0000   0.0000   0.0000   0.0000
     0.0000   0.0000   0.0000   0.0000   0.0000   0.0000   0.0000   0.0000
     0.0000   0.0000   0.0000   0.0000   0.0000   0.0000   0.0000   0.0000
     0.0000   0.0000   0.0000   0.0000   0.0000   0.0000   0.0000   0.0000
     0.0000   0.0000   0.0000   0.0000   0.0000   0.0000   0.0000   0.0000
     0.0000   0.0000   0.0000   0.0000   0.0000   0.0000   0.0000   0.0000
     0.0000   0.0000   0.0000   0.0000   0.0000   0.0000   0.0000   0.0000
     0.0000   0.0000   0.0000   0.0000   0.0000   0.0000   0.0000   0.0000
     0.0000   0.0000   0.0000   0.0000   0.0000   0.0000   0.0000   0.0000
     0.0000   0.0000   0.0000   0.0000   0.0000   0.0000   0.0000   0.0000
     0.0000   0.0000   0.0000   0.0000   0.0000   0.0000   0.0000   0.0000
     0.0000   0.0000   0.0000   0.0000   0.0000   0.0000   0.0000   0.0000
     0.0000   0.0000   0.0000   0.0000   0.0000   0.0000   0.0000   0.0000
     0.0000   0.0000   0.0000   0.0000

          k = 0.4750 0.4750 0.4750 ( 74001 PWs)   bands (ev):

   -18.1281 -18.1281 -18.0397 -18.0397 -17.9993 -17.9993 -17.9954 -17.9954
   -17.9650 -17.9650 -17.9608 -17.9608 -17.8047 -17.8047 -17.7796 -17.7796
   -15.3216 -15.3215 -15.3008 -15.3008 -15.2517 -15.2515 -15.2503 -15.2501
   -15.2402 -15.2402 -15.2355 -15.2354 -15.2228 -15.2227 -15.2148 -15.2148
   -15.1850 -15.1850 -15.1676 -15.1676 -15.0948 -15.0948 -15.0876 -15.0876
   -15.0732 -15.0732 -15.0690 -15.0690 -15.0093 -15.0093 -15.0005 -15.0005
   -12.7864 -12.7861 -12.7684 -12.7683 -12.7601 -12.7581 -12.7457 -12.7436
   -12.7264 -12.7263 -12.7230 -12.7228 -12.7159 -12.7155 -12.6918 -12.6916
   -12.6800 -12.6799 -12.6590 -12.6589 -12.6571 -12.6571 -12.6523 -12.6521
   -12.6469 -12.6467 -12.6337 -12.6337 -12.5931 -12.5929 -12.5900 -12.5900
   -12.5702 -12.5700 -12.5575 -12.5573 -12.5451 -12.5448 -12.5083 -12.5082
   -12.4985 -12.4985 -12.4929 -12.4928 -12.4908 -12.4907 -12.4172 -12.4172
   -11.3912 -11.3910 -11.3600 -11.3598 -11.2810 -11.2808 -11.2288 -11.2286
   -11.2155 -11.2152 -11.1783 -11.1780 -11.1185 -11.1183 -11.0771 -11.0767
   -11.0358 -11.0347 -11.0254 -11.0249 -10.9777 -10.9770 -10.9543 -10.9539
   -10.9346 -10.9339 -10.9205 -10.9201 -10.8916 -10.8914 -10.8403 -10.8399
   -10.8271 -10.8268 -10.7891 -10.7890 -10.7728 -10.7724 -10.6769 -10.6767
   -10.6493 -10.6490 -10.6311 -10.6309 -10.5979 -10.5979 -10.5486 -10.5486
    -6.0980  -6.0980  -6.0133  -6.0132  -5.9757  -5.9757  -5.9728  -5.9728
    -5.9416  -5.9412  -5.9359  -5.9354  -5.7960  -5.7960  -5.7735  -5.7735
    -4.9019  -4.9011  -4.8594  -4.8582  -4.8076  -4.8071  -4.7610  -4.7596
    -4.7307  -4.7301  -4.6817  -4.6795  -4.5801  -4.5785  -4.5550  -4.5541
    -4.5002  -4.5000  -4.4795  -4.4793  -4.4163  -4.4160  -4.3952  -4.3948
    -4.3848  -4.3844  -4.3770  -4.3767  -4.3634  -4.3631  -4.3591  -4.3585
    -4.3512  -4.3509  -4.3399  -4.3396  -4.3204  -4.3195  -4.3150  -4.3148
    -4.2149  -4.2147  -4.1880  -4.1878  -4.1855  -4.1854  -4.1756  -4.1753
    -0.5137  -0.4892  -0.3720  -0.3644  -0.3492  -0.3369  -0.3057  -0.2947
    -0.2765  -0.2610  -0.2521  -0.2328  -0.1966  -0.1862  -0.1527  -0.1449
    -0.1285  -0.1178  -0.0932  -0.0807  -0.0695  -0.0644  -0.0072  -0.0029
     0.0317   0.0390   0.0938   0.0988   0.1477   0.1559   0.1660   0.1834
     0.2073   0.2341   0.2479   0.2545   0.2780   0.2956   0.3067   0.3220
     0.3399   0.3478   0.3611   0.3720   0.3931   0.3958   0.4845   0.4911
     0.6636   0.6669   0.6933   0.6990   0.7080   0.7233   0.7360   0.7433
     0.7569   0.7622   0.7750   0.7832   0.7908   0.7956   0.8205   0.8302
     0.8431   0.8530   0.8741   0.8778   0.8958   0.8999   0.9133   0.9178
     0.9340   0.9381   0.9632   0.9741   0.9837   0.9889   1.0029   1.0150
     1.0334   1.0413   1.0597   1.0619   1.0779   1.0846   1.1010   1.1029
     1.1265   1.1375   1.1552   1.1624   1.1927   1.1979   1.2201   1.2242
     1.2538   1.2601   1.2800   1.2812   1.3030   1.3080   1.3283   1.3344
     1.3608   1.3678   1.3804   1.3858   1.4143   1.4186   1.4284   1.4321
     1.4428   1.4451   1.4634   1.4690   1.4781   1.4890   1.5042   1.5106
     1.5287   1.5400   1.5522   1.5599   1.5794   1.5855   1.6012   1.6051
     1.6262   1.6355   1.6629   1.6771   1.7032   1.7071   1.7316   1.7352
     1.7629   1.7714   1.8075   1.8107   1.8659   1.8778   1.9913   1.9937
     5.0499   5.0759   5.1875   5.2312   5.3128   5.3511   5.3755   5.4284
     5.4934   5.5462   5.5687   5.5828   5.6823   5.6996   5.8136   5.8463
     6.3350   6.3839   6.4579   6.4955   6.5588   6.5832   6.6006   6.6139
     6.6419   6.6719   6.7052   6.7190   6.7482   6.7745   6.8054   6.8440
     6.8810   6.9017   6.9261   6.9750   6.9805   7.0331   7.0476   7.0843
     7.0925   7.1389   7.1593   7.1804   7.2084   7.2217   7.2886   7.3146
     7.7660   7.7824   7.8052   7.8172   7.8608   7.8683   7.8934   7.9013
     7.9205   7.9380   7.9900   8.0011   8.0359   8.0417   8.0666   8.0789
     8.1721   8.1867   8.2440   8.2575   8.2909   8.2970   8.3363   8.3387
     8.3822   8.3872   8.4014   8.4173   8.4307   8.4395   8.4556   8.4675
     8.5019   8.5079   8.5452   8.5509   8.5880   8.5922   8.6107   8.6184
     8.6504   8.6585   8.6667   8.6776   8.7662   8.7739   8.8484   8.8584
     8.8966   8.9055   8.9671   8.9738   9.0547   9.0573   9.0855   9.0906
     9.1222   9.1249   9.1467   9.1532   9.1683   9.1821   9.2014   9.2089
     9.2428   9.2548   9.2845   9.2934   9.3124   9.3214   9.3493   9.3572
     9.3817   9.3858   9.3930   9.4018   9.4168   9.4228   9.4880   9.4912
     9.5113   9.5171   9.5541   9.5577   9.5812   9.5873   9.6059   9.6109
     9.6393   9.6418   9.6835   9.6870   9.7041   9.7085   9.7309   9.7337
     9.9271   9.9340   9.9727   9.9792

     occupation numbers 
     1.0000   1.0000   1.0000   1.0000   1.0000   1.0000   1.0000   1.0000
     1.0000   1.0000   1.0000   1.0000   1.0000   1.0000   1.0000   1.0000
     1.0000   1.0000   1.0000   1.0000   1.0000   1.0000   1.0000   1.0000
     1.0000   1.0000   1.0000   1.0000   1.0000   1.0000   1.0000   1.0000
     1.0000   1.0000   1.0000   1.0000   1.0000   1.0000   1.0000   1.0000
     1.0000   1.0000   1.0000   1.0000   1.0000   1.0000   1.0000   1.0000
     1.0000   1.0000   1.0000   1.0000   1.0000   1.0000   1.0000   1.0000
     1.0000   1.0000   1.0000   1.0000   1.0000   1.0000   1.0000   1.0000
     1.0000   1.0000   1.0000   1.0000   1.0000   1.0000   1.0000   1.0000
     1.0000   1.0000   1.0000   1.0000   1.0000   1.0000   1.0000   1.0000
     1.0000   1.0000   1.0000   1.0000   1.0000   1.0000   1.0000   1.0000
     1.0000   1.0000   1.0000   1.0000   1.0000   1.0000   1.0000   1.0000
     1.0000   1.0000   1.0000   1.0000   1.0000   1.0000   1.0000   1.0000
     1.0000   1.0000   1.0000   1.0000   1.0000   1.0000   1.0000   1.0000
     1.0000   1.0000   1.0000   1.0000   1.0000   1.0000   1.0000   1.0000
     1.0000   1.0000   1.0000   1.0000   1.0000   1.0000   1.0000   1.0000
     1.0000   1.0000   1.0000   1.0000   1.0000   1.0000   1.0000   1.0000
     1.0000   1.0000   1.0000   1.0000   1.0000   1.0000   1.0000   1.0000
     1.0000   1.0000   1.0000   1.0000   1.0000   1.0000   1.0000   1.0000
     1.0000   1.0000   1.0000   1.0000   1.0000   1.0000   1.0000   1.0000
     1.0000   1.0000   1.0000   1.0000   1.0000   1.0000   1.0000   1.0000
     1.0000   1.0000   1.0000   1.0000   1.0000   1.0000   1.0000   1.0000
     1.0000   1.0000   1.0000   1.0000   1.0000   1.0000   1.0000   1.0000
     1.0000   1.0000   1.0000   1.0000   1.0000   1.0000   1.0000   1.0000
     1.0000   1.0000   1.0000   1.0000   1.0000   1.0000   1.0000   1.0000
     1.0000   1.0000   1.0000   1.0000   1.0000   1.0000   1.0000   1.0000
     1.0000   1.0000   1.0000   1.0000   1.0000   1.0000   1.0000   1.0000
     1.0000   1.0000   1.0000   1.0000   1.0000   1.0000   1.0000   1.0000
     1.0000   1.0000   1.0000   1.0000   1.0000   1.0000   1.0000   1.0000
     1.0000   1.0000   1.0000   1.0000   1.0000   1.0000   1.0000   1.0000
     1.0000   1.0000   1.0000   1.0000   1.0000   1.0000   1.0000   1.0000
     1.0000   1.0000   1.0000   1.0000   1.0000   1.0000   1.0000   1.0000
     1.0000   1.0000   1.0000   1.0000   1.0000   1.0000   1.0000   1.0000
     1.0000   1.0000   1.0000   1.0000   1.0000   1.0000   1.0000   1.0000
     1.0000   1.0000   1.0000   1.0000   1.0000   1.0000   1.0000   1.0000
     1.0000   1.0000   1.0000   1.0000   1.0000   1.0000   1.0000   1.0000
     1.0000   1.0000   1.0000   1.0000   1.0000   1.0000   1.0000   1.0000
     1.0000   1.0000   1.0000   1.0000   1.0000   1.0000   1.0000   1.0000
     1.0000   1.0000   1.0000   1.0000   1.0000   1.0000   1.0000   1.0000
     1.0000   1.0000   1.0000   1.0000   1.0000   1.0000   1.0000   1.0000
     1.0000   1.0000   1.0000   1.0000   1.0000   1.0000   1.0000   1.0000
     1.0000   1.0000   1.0000   1.0000   1.0000   1.0000   1.0000   1.0000
     1.0000   1.0000   1.0000   1.0000   1.0000   1.0000   1.0000   1.0000
     1.0000   1.0000   1.0000   1.0000   1.0000   1.0000   1.0000   1.0000
     0.0000   0.0000   0.0000   0.0000   0.0000   0.0000   0.0000   0.0000
     0.0000   0.0000   0.0000   0.0000   0.0000   0.0000   0.0000   0.0000
     0.0000   0.0000   0.0000   0.0000   0.0000   0.0000   0.0000   0.0000
     0.0000   0.0000   0.0000   0.0000   0.0000   0.0000   0.0000   0.0000
     0.0000   0.0000   0.0000   0.0000   0.0000   0.0000   0.0000   0.0000
     0.0000   0.0000   0.0000   0.0000   0.0000   0.0000   0.0000   0.0000
     0.0000   0.0000   0.0000   0.0000   0.0000   0.0000   0.0000   0.0000
     0.0000   0.0000   0.0000   0.0000   0.0000   0.0000   0.0000   0.0000
     0.0000   0.0000   0.0000   0.0000   0.0000   0.0000   0.0000   0.0000
     0.0000   0.0000   0.0000   0.0000   0.0000   0.0000   0.0000   0.0000
     0.0000   0.0000   0.0000   0.0000   0.0000   0.0000   0.0000   0.0000
     0.0000   0.0000   0.0000   0.0000   0.0000   0.0000   0.0000   0.0000
     0.0000   0.0000   0.0000   0.0000   0.0000   0.0000   0.0000   0.0000
     0.0000   0.0000   0.0000   0.0000   0.0000   0.0000   0.0000   0.0000
     0.0000   0.0000   0.0000   0.0000   0.0000   0.0000   0.0000   0.0000
     0.0000   0.0000   0.0000   0.0000   0.0000   0.0000   0.0000   0.0000
     0.0000   0.0000   0.0000   0.0000   0.0000   0.0000   0.0000   0.0000
     0.0000   0.0000   0.0000   0.0000   0.0000   0.0000   0.0000   0.0000
     0.0000   0.0000   0.0000   0.0000

          k = 0.5000 0.5000 0.5000 ( 73992 PWs)   bands (ev):

   -18.1281 -18.1281 -18.0397 -18.0397 -17.9993 -17.9993 -17.9954 -17.9954
   -17.9650 -17.9650 -17.9608 -17.9608 -17.8047 -17.8047 -17.7796 -17.7796
   -15.3216 -15.3216 -15.3008 -15.3008 -15.2516 -15.2516 -15.2502 -15.2502
   -15.2402 -15.2402 -15.2355 -15.2355 -15.2227 -15.2227 -15.2148 -15.2148
   -15.1850 -15.1850 -15.1676 -15.1676 -15.0948 -15.0948 -15.0876 -15.0876
   -15.0732 -15.0732 -15.0690 -15.0690 -15.0093 -15.0093 -15.0005 -15.0005
   -12.7862 -12.7862 -12.7683 -12.7683 -12.7589 -12.7589 -12.7449 -12.7449
   -12.7263 -12.7263 -12.7229 -12.7229 -12.7157 -12.7157 -12.6916 -12.6916
   -12.6799 -12.6799 -12.6590 -12.6590 -12.6571 -12.6571 -12.6522 -12.6522
   -12.6468 -12.6468 -12.6337 -12.6337 -12.5930 -12.5930 -12.5900 -12.5900
   -12.5701 -12.5701 -12.5573 -12.5573 -12.5450 -12.5450 -12.5083 -12.5083
   -12.4985 -12.4985 -12.4929 -12.4929 -12.4907 -12.4907 -12.4172 -12.4172
   -11.3910 -11.3910 -11.3599 -11.3599 -11.2812 -11.2812 -11.2279 -11.2279
   -11.2159 -11.2159 -11.1784 -11.1784 -11.1186 -11.1186 -11.0771 -11.0771
   -11.0351 -11.0351 -11.0250 -11.0250 -10.9769 -10.9769 -10.9538 -10.9538
   -10.9343 -10.9343 -10.9203 -10.9203 -10.8914 -10.8914 -10.8400 -10.8400
   -10.8270 -10.8270 -10.7891 -10.7891 -10.7728 -10.7728 -10.6766 -10.6766
   -10.6493 -10.6493 -10.6312 -10.6312 -10.5980 -10.5980 -10.5487 -10.5487
    -6.0980  -6.0980  -6.0133  -6.0133  -5.9757  -5.9757  -5.9728  -5.9728
    -5.9414  -5.9414  -5.9357  -5.9357  -5.7960  -5.7960  -5.7735  -5.7735
    -4.8928  -4.8928  -4.8574  -4.8574  -4.8111  -4.8111  -4.7482  -4.7482
    -4.7308  -4.7308  -4.6957  -4.6957  -4.5797  -4.5797  -4.5594  -4.5594
    -4.5002  -4.5002  -4.4794  -4.4794  -4.4162  -4.4162  -4.3950  -4.3950
    -4.3847  -4.3847  -4.3769  -4.3769  -4.3633  -4.3633  -4.3588  -4.3588
    -4.3511  -4.3511  -4.3398  -4.3398  -4.3200  -4.3200  -4.3149  -4.3149
    -4.2148  -4.2148  -4.1879  -4.1879  -4.1855  -4.1855  -4.1755  -4.1755
    -0.4918  -0.4918  -0.3623  -0.3623  -0.3380  -0.3380  -0.2944  -0.2944
    -0.2651  -0.2651  -0.2429  -0.2429  -0.1865  -0.1865  -0.1413  -0.1413
    -0.1297  -0.1297  -0.0876  -0.0876  -0.0659  -0.0659  -0.0042  -0.0042
     0.0362   0.0362   0.0938   0.0938   0.1472   0.1472   0.1774   0.1774
     0.2214   0.2214   0.2443   0.2443   0.2834   0.2834   0.3115   0.3115
     0.3423   0.3423   0.3640   0.3640   0.3921   0.3921   0.4867   0.4867
     0.6646   0.6646   0.6965   0.6965   0.7160   0.7160   0.7399   0.7399
     0.7585   0.7585   0.7782   0.7782   0.7928   0.7928   0.8253   0.8253
     0.8473   0.8473   0.8755   0.8755   0.8981   0.8981   0.9143   0.9143
     0.9347   0.9347   0.9684   0.9684   0.9865   0.9865   1.0080   1.0080
     1.0367   1.0367   1.0613   1.0613   1.0783   1.0783   1.1010   1.1010
     1.1319   1.1319   1.1583   1.1583   1.1951   1.1951   1.2207   1.2207
     1.2569   1.2569   1.2807   1.2807   1.3054   1.3054   1.3313   1.3313
     1.3646   1.3646   1.3828   1.3828   1.4175   1.4175   1.4303   1.4303
     1.4433   1.4433   1.4648   1.4648   1.4829   1.4829   1.5073   1.5073
     1.5338   1.5338   1.5557   1.5557   1.5820   1.5820   1.6020   1.6020
     1.6303   1.6303   1.6699   1.6699   1.7053   1.7053   1.7328   1.7328
     1.7654   1.7654   1.8069   1.8069   1.8692   1.8692   1.9920   1.9920
     5.0720   5.0720   5.2179   5.2179   5.3469   5.3469   5.4163   5.4163
     5.5104   5.5104   5.5733   5.5733   5.6897   5.6897   5.8267   5.8267
     6.3657   6.3657   6.4887   6.4887   6.5767   6.5767   6.6273   6.6273
     6.6619   6.6619   6.7213   6.7213   6.7512   6.7512   6.8249   6.8249
     6.8903   6.8903   6.9445   6.9445   6.9987   6.9987   7.0589   7.0589
     7.1064   7.1064   7.1639   7.1639   7.1972   7.1972   7.2907   7.2907
     7.7757   7.7757   7.8119   7.8119   7.8634   7.8634   7.8961   7.8961
     7.9298   7.9298   7.9926   7.9926   8.0361   8.0361   8.0696   8.0696
     8.1813   8.1813   8.2478   8.2478   8.2942   8.2942   8.3378   8.3378
     8.3850   8.3850   8.4114   8.4114   8.4368   8.4368   8.4604   8.4604
     8.5017   8.5017   8.5464   8.5464   8.5873   8.5873   8.6128   8.6128
     8.6535   8.6535   8.6700   8.6700   8.7697   8.7697   8.8549   8.8549
     8.8980   8.8980   8.9700   8.9700   9.0568   9.0568   9.0934   9.0934
     9.1228   9.1228   9.1515   9.1515   9.1782   9.1782   9.2072   9.2072
     9.2479   9.2479   9.2905   9.2905   9.3169   9.3169   9.3550   9.3550
     9.3843   9.3843   9.3986   9.3986   9.4196   9.4196   9.4925   9.4925
     9.5193   9.5193   9.5566   9.5566   9.5865   9.5865   9.6103   9.6103
     9.6417   9.6417   9.6873   9.6873   9.7083   9.7083   9.7336   9.7336
     9.9276   9.9276   9.9724   9.9724

     occupation numbers 
     1.0000   1.0000   1.0000   1.0000   1.0000   1.0000   1.0000   1.0000
     1.0000   1.0000   1.0000   1.0000   1.0000   1.0000   1.0000   1.0000
     1.0000   1.0000   1.0000   1.0000   1.0000   1.0000   1.0000   1.0000
     1.0000   1.0000   1.0000   1.0000   1.0000   1.0000   1.0000   1.0000
     1.0000   1.0000   1.0000   1.0000   1.0000   1.0000   1.0000   1.0000
     1.0000   1.0000   1.0000   1.0000   1.0000   1.0000   1.0000   1.0000
     1.0000   1.0000   1.0000   1.0000   1.0000   1.0000   1.0000   1.0000
     1.0000   1.0000   1.0000   1.0000   1.0000   1.0000   1.0000   1.0000
     1.0000   1.0000   1.0000   1.0000   1.0000   1.0000   1.0000   1.0000
     1.0000   1.0000   1.0000   1.0000   1.0000   1.0000   1.0000   1.0000
     1.0000   1.0000   1.0000   1.0000   1.0000   1.0000   1.0000   1.0000
     1.0000   1.0000   1.0000   1.0000   1.0000   1.0000   1.0000   1.0000
     1.0000   1.0000   1.0000   1.0000   1.0000   1.0000   1.0000   1.0000
     1.0000   1.0000   1.0000   1.0000   1.0000   1.0000   1.0000   1.0000
     1.0000   1.0000   1.0000   1.0000   1.0000   1.0000   1.0000   1.0000
     1.0000   1.0000   1.0000   1.0000   1.0000   1.0000   1.0000   1.0000
     1.0000   1.0000   1.0000   1.0000   1.0000   1.0000   1.0000   1.0000
     1.0000   1.0000   1.0000   1.0000   1.0000   1.0000   1.0000   1.0000
     1.0000   1.0000   1.0000   1.0000   1.0000   1.0000   1.0000   1.0000
     1.0000   1.0000   1.0000   1.0000   1.0000   1.0000   1.0000   1.0000
     1.0000   1.0000   1.0000   1.0000   1.0000   1.0000   1.0000   1.0000
     1.0000   1.0000   1.0000   1.0000   1.0000   1.0000   1.0000   1.0000
     1.0000   1.0000   1.0000   1.0000   1.0000   1.0000   1.0000   1.0000
     1.0000   1.0000   1.0000   1.0000   1.0000   1.0000   1.0000   1.0000
     1.0000   1.0000   1.0000   1.0000   1.0000   1.0000   1.0000   1.0000
     1.0000   1.0000   1.0000   1.0000   1.0000   1.0000   1.0000   1.0000
     1.0000   1.0000   1.0000   1.0000   1.0000   1.0000   1.0000   1.0000
     1.0000   1.0000   1.0000   1.0000   1.0000   1.0000   1.0000   1.0000
     1.0000   1.0000   1.0000   1.0000   1.0000   1.0000   1.0000   1.0000
     1.0000   1.0000   1.0000   1.0000   1.0000   1.0000   1.0000   1.0000
     1.0000   1.0000   1.0000   1.0000   1.0000   1.0000   1.0000   1.0000
     1.0000   1.0000   1.0000   1.0000   1.0000   1.0000   1.0000   1.0000
     1.0000   1.0000   1.0000   1.0000   1.0000   1.0000   1.0000   1.0000
     1.0000   1.0000   1.0000   1.0000   1.0000   1.0000   1.0000   1.0000
     1.0000   1.0000   1.0000   1.0000   1.0000   1.0000   1.0000   1.0000
     1.0000   1.0000   1.0000   1.0000   1.0000   1.0000   1.0000   1.0000
     1.0000   1.0000   1.0000   1.0000   1.0000   1.0000   1.0000   1.0000
     1.0000   1.0000   1.0000   1.0000   1.0000   1.0000   1.0000   1.0000
     1.0000   1.0000   1.0000   1.0000   1.0000   1.0000   1.0000   1.0000
     1.0000   1.0000   1.0000   1.0000   1.0000   1.0000   1.0000   1.0000
     1.0000   1.0000   1.0000   1.0000   1.0000   1.0000   1.0000   1.0000
     1.0000   1.0000   1.0000   1.0000   1.0000   1.0000   1.0000   1.0000
     1.0000   1.0000   1.0000   1.0000   1.0000   1.0000   1.0000   1.0000
     1.0000   1.0000   1.0000   1.0000   1.0000   1.0000   1.0000   1.0000
     0.0000   0.0000   0.0000   0.0000   0.0000   0.0000   0.0000   0.0000
     0.0000   0.0000   0.0000   0.0000   0.0000   0.0000   0.0000   0.0000
     0.0000   0.0000   0.0000   0.0000   0.0000   0.0000   0.0000   0.0000
     0.0000   0.0000   0.0000   0.0000   0.0000   0.0000   0.0000   0.0000
     0.0000   0.0000   0.0000   0.0000   0.0000   0.0000   0.0000   0.0000
     0.0000   0.0000   0.0000   0.0000   0.0000   0.0000   0.0000   0.0000
     0.0000   0.0000   0.0000   0.0000   0.0000   0.0000   0.0000   0.0000
     0.0000   0.0000   0.0000   0.0000   0.0000   0.0000   0.0000   0.0000
     0.0000   0.0000   0.0000   0.0000   0.0000   0.0000   0.0000   0.0000
     0.0000   0.0000   0.0000   0.0000   0.0000   0.0000   0.0000   0.0000
     0.0000   0.0000   0.0000   0.0000   0.0000   0.0000   0.0000   0.0000
     0.0000   0.0000   0.0000   0.0000   0.0000   0.0000   0.0000   0.0000
     0.0000   0.0000   0.0000   0.0000   0.0000   0.0000   0.0000   0.0000
     0.0000   0.0000   0.0000   0.0000   0.0000   0.0000   0.0000   0.0000
     0.0000   0.0000   0.0000   0.0000   0.0000   0.0000   0.0000   0.0000
     0.0000   0.0000   0.0000   0.0000   0.0000   0.0000   0.0000   0.0000
     0.0000   0.0000   0.0000   0.0000   0.0000   0.0000   0.0000   0.0000
     0.0000   0.0000   0.0000   0.0000   0.0000   0.0000   0.0000   0.0000
     0.0000   0.0000   0.0000   0.0000

          k = 0.5000 0.4750 0.4750 ( 74002 PWs)   bands (ev):

   -18.1281 -18.1281 -18.0397 -18.0397 -17.9993 -17.9993 -17.9954 -17.9954
   -17.9650 -17.9650 -17.9608 -17.9608 -17.8047 -17.8047 -17.7796 -17.7796
   -15.3216 -15.3216 -15.3008 -15.3008 -15.2517 -15.2515 -15.2503 -15.2501
   -15.2402 -15.2402 -15.2355 -15.2354 -15.2228 -15.2227 -15.2148 -15.2148
   -15.1850 -15.1850 -15.1676 -15.1676 -15.0948 -15.0948 -15.0876 -15.0876
   -15.0732 -15.0732 -15.0690 -15.0690 -15.0093 -15.0093 -15.0005 -15.0005
   -12.7862 -12.7862 -12.7684 -12.7683 -12.7601 -12.7581 -12.7457 -12.7436
   -12.7263 -12.7263 -12.7229 -12.7229 -12.7158 -12.7157 -12.6918 -12.6916
   -12.6800 -12.6799 -12.6590 -12.6589 -12.6571 -12.6570 -12.6523 -12.6521
   -12.6468 -12.6467 -12.6337 -12.6337 -12.5931 -12.5930 -12.5900 -12.5900
   -12.5702 -12.5700 -12.5574 -12.5573 -12.5450 -12.5450 -12.5083 -12.5082
   -12.4985 -12.4985 -12.4929 -12.4928 -12.4907 -12.4907 -12.4172 -12.4172
   -11.3913 -11.3910 -11.3599 -11.3596 -11.2811 -11.2810 -11.2285 -11.2283
   -11.2161 -11.2158 -11.1780 -11.1778 -11.1186 -11.1183 -11.0772 -11.0768
   -11.0355 -11.0348 -11.0254 -11.0247 -10.9772 -10.9770 -10.9541 -10.9540
   -10.9345 -10.9342 -10.9205 -10.9203 -10.8917 -10.8913 -10.8402 -10.8399
   -10.8270 -10.8267 -10.7891 -10.7890 -10.7729 -10.7725 -10.6770 -10.6768
   -10.6491 -10.6490 -10.6310 -10.6309 -10.5981 -10.5980 -10.5486 -10.5486
    -6.0980  -6.0980  -6.0133  -6.0132  -5.9757  -5.9757  -5.9728  -5.9728
    -5.9416  -5.9412  -5.9359  -5.9354  -5.7960  -5.7960  -5.7735  -5.7735
    -4.8998  -4.8991  -4.8549  -4.8539  -4.8134  -4.8128  -4.7581  -4.7564
    -4.7313  -4.7305  -4.6832  -4.6809  -4.5810  -4.5798  -4.5562  -4.5556
    -4.5002  -4.5001  -4.4795  -4.4793  -4.4163  -4.4161  -4.3952  -4.3947
    -4.3847  -4.3845  -4.3770  -4.3768  -4.3634  -4.3632  -4.3590  -4.3586
    -4.3512  -4.3509  -4.3400  -4.3396  -4.3203  -4.3196  -4.3150  -4.3147
    -4.2149  -4.2148  -4.1880  -4.1878  -4.1855  -4.1854  -4.1756  -4.1753
    -0.5160  -0.4880  -0.3665  -0.3581  -0.3478  -0.3321  -0.3009  -0.2908
    -0.2740  -0.2617  -0.2507  -0.2387  -0.1951  -0.1842  -0.1560  -0.1448
    -0.1233  -0.1209  -0.0951  -0.0815  -0.0710  -0.0644  -0.0070  -0.0010
     0.0321   0.0417   0.0914   0.0976   0.1453   0.1569   0.1696   0.1843
     0.2079   0.2329   0.2447   0.2522   0.2741   0.2960   0.3068   0.3185
     0.3368   0.3491   0.3655   0.3671   0.3879   0.3996   0.4840   0.4918
     0.6618   0.6673   0.6946   0.6978   0.7083   0.7234   0.7354   0.7443
     0.7555   0.7630   0.7751   0.7819   0.7911   0.7948   0.8208   0.8297
     0.8436   0.8519   0.8739   0.8782   0.8938   0.9015   0.9141   0.9160
     0.9332   0.9386   0.9645   0.9727   0.9860   0.9866   1.0046   1.0126
     1.0331   1.0415   1.0603   1.0638   1.0752   1.0827   1.1007   1.1037
     1.1283   1.1356   1.1554   1.1624   1.1929   1.1977   1.2195   1.2228
     1.2555   1.2586   1.2798   1.2820   1.3044   1.3061   1.3288   1.3339
     1.3618   1.3674   1.3807   1.3848   1.4142   1.4187   1.4283   1.4339
     1.4417   1.4450   1.4643   1.4665   1.4799   1.4869   1.5043   1.5109
     1.5292   1.5391   1.5533   1.5580   1.5783   1.5856   1.6018   1.6038
     1.6273   1.6341   1.6654   1.6747   1.7043   1.7061   1.7320   1.7346
     1.7631   1.7705   1.8066   1.8103   1.8650   1.8769   1.9910   1.9938
     5.0490   5.0832   5.1842   5.2407   5.3207   5.3534   5.3817   5.4402
     5.4965   5.5297   5.5615   5.5837   5.6850   5.6996   5.8077   5.8501
     6.3422   6.3803   6.4575   6.4988   6.5604   6.5778   6.6055   6.6292
     6.6543   6.6767   6.7118   6.7250   6.7392   6.7662   6.8063   6.8401
     6.8872   6.8959   6.9286   6.9614   6.9817   7.0266   7.0516   7.0727
     7.0960   7.1292   7.1604   7.1738   7.1984   7.2228   7.2889   7.3103
     7.7727   7.7781   7.8105   7.8147   7.8578   7.8680   7.8907   7.9037
     7.9229   7.9378   7.9882   8.0001   8.0340   8.0414   8.0648   8.0780
     8.1760   8.1856   8.2435   8.2535   8.2912   8.2977   8.3357   8.3403
     8.3805   8.3868   8.4032   8.4187   8.4322   8.4383   8.4559   8.4681
     8.5017   8.5075   8.5438   8.5499   8.5886   8.5902   8.6108   8.6165
     8.6487   8.6577   8.6668   8.6760   8.7656   8.7739   8.8505   8.8566
     8.8975   8.9047   8.9656   8.9712   9.0548   9.0579   9.0858   9.0927
     9.1222   9.1262   9.1471   9.1528   9.1727   9.1843   9.2024   9.2108
     9.2419   9.2513   9.2857   9.2908   9.3145   9.3181   9.3483   9.3607
     9.3835   9.3875   9.3962   9.3991   9.4176   9.4217   9.4888   9.4924
     9.5150   9.5189   9.5550   9.5563   9.5843   9.5873   9.6066   9.6127
     9.6380   9.6434   9.6840   9.6898   9.7061   9.7109   9.7319   9.7342
     9.9234   9.9304   9.9710   9.9790

     occupation numbers 
     1.0000   1.0000   1.0000   1.0000   1.0000   1.0000   1.0000   1.0000
     1.0000   1.0000   1.0000   1.0000   1.0000   1.0000   1.0000   1.0000
     1.0000   1.0000   1.0000   1.0000   1.0000   1.0000   1.0000   1.0000
     1.0000   1.0000   1.0000   1.0000   1.0000   1.0000   1.0000   1.0000
     1.0000   1.0000   1.0000   1.0000   1.0000   1.0000   1.0000   1.0000
     1.0000   1.0000   1.0000   1.0000   1.0000   1.0000   1.0000   1.0000
     1.0000   1.0000   1.0000   1.0000   1.0000   1.0000   1.0000   1.0000
     1.0000   1.0000   1.0000   1.0000   1.0000   1.0000   1.0000   1.0000
     1.0000   1.0000   1.0000   1.0000   1.0000   1.0000   1.0000   1.0000
     1.0000   1.0000   1.0000   1.0000   1.0000   1.0000   1.0000   1.0000
     1.0000   1.0000   1.0000   1.0000   1.0000   1.0000   1.0000   1.0000
     1.0000   1.0000   1.0000   1.0000   1.0000   1.0000   1.0000   1.0000
     1.0000   1.0000   1.0000   1.0000   1.0000   1.0000   1.0000   1.0000
     1.0000   1.0000   1.0000   1.0000   1.0000   1.0000   1.0000   1.0000
     1.0000   1.0000   1.0000   1.0000   1.0000   1.0000   1.0000   1.0000
     1.0000   1.0000   1.0000   1.0000   1.0000   1.0000   1.0000   1.0000
     1.0000   1.0000   1.0000   1.0000   1.0000   1.0000   1.0000   1.0000
     1.0000   1.0000   1.0000   1.0000   1.0000   1.0000   1.0000   1.0000
     1.0000   1.0000   1.0000   1.0000   1.0000   1.0000   1.0000   1.0000
     1.0000   1.0000   1.0000   1.0000   1.0000   1.0000   1.0000   1.0000
     1.0000   1.0000   1.0000   1.0000   1.0000   1.0000   1.0000   1.0000
     1.0000   1.0000   1.0000   1.0000   1.0000   1.0000   1.0000   1.0000
     1.0000   1.0000   1.0000   1.0000   1.0000   1.0000   1.0000   1.0000
     1.0000   1.0000   1.0000   1.0000   1.0000   1.0000   1.0000   1.0000
     1.0000   1.0000   1.0000   1.0000   1.0000   1.0000   1.0000   1.0000
     1.0000   1.0000   1.0000   1.0000   1.0000   1.0000   1.0000   1.0000
     1.0000   1.0000   1.0000   1.0000   1.0000   1.0000   1.0000   1.0000
     1.0000   1.0000   1.0000   1.0000   1.0000   1.0000   1.0000   1.0000
     1.0000   1.0000   1.0000   1.0000   1.0000   1.0000   1.0000   1.0000
     1.0000   1.0000   1.0000   1.0000   1.0000   1.0000   1.0000   1.0000
     1.0000   1.0000   1.0000   1.0000   1.0000   1.0000   1.0000   1.0000
     1.0000   1.0000   1.0000   1.0000   1.0000   1.0000   1.0000   1.0000
     1.0000   1.0000   1.0000   1.0000   1.0000   1.0000   1.0000   1.0000
     1.0000   1.0000   1.0000   1.0000   1.0000   1.0000   1.0000   1.0000
     1.0000   1.0000   1.0000   1.0000   1.0000   1.0000   1.0000   1.0000
     1.0000   1.0000   1.0000   1.0000   1.0000   1.0000   1.0000   1.0000
     1.0000   1.0000   1.0000   1.0000   1.0000   1.0000   1.0000   1.0000
     1.0000   1.0000   1.0000   1.0000   1.0000   1.0000   1.0000   1.0000
     1.0000   1.0000   1.0000   1.0000   1.0000   1.0000   1.0000   1.0000
     1.0000   1.0000   1.0000   1.0000   1.0000   1.0000   1.0000   1.0000
     1.0000   1.0000   1.0000   1.0000   1.0000   1.0000   1.0000   1.0000
     1.0000   1.0000   1.0000   1.0000   1.0000   1.0000   1.0000   1.0000
     1.0000   1.0000   1.0000   1.0000   1.0000   1.0000   1.0000   1.0000
     1.0000   1.0000   1.0000   1.0000   1.0000   1.0000   1.0000   1.0000
     0.0000   0.0000   0.0000   0.0000   0.0000   0.0000   0.0000   0.0000
     0.0000   0.0000   0.0000   0.0000   0.0000   0.0000   0.0000   0.0000
     0.0000   0.0000   0.0000   0.0000   0.0000   0.0000   0.0000   0.0000
     0.0000   0.0000   0.0000   0.0000   0.0000   0.0000   0.0000   0.0000
     0.0000   0.0000   0.0000   0.0000   0.0000   0.0000   0.0000   0.0000
     0.0000   0.0000   0.0000   0.0000   0.0000   0.0000   0.0000   0.0000
     0.0000   0.0000   0.0000   0.0000   0.0000   0.0000   0.0000   0.0000
     0.0000   0.0000   0.0000   0.0000   0.0000   0.0000   0.0000   0.0000
     0.0000   0.0000   0.0000   0.0000   0.0000   0.0000   0.0000   0.0000
     0.0000   0.0000   0.0000   0.0000   0.0000   0.0000   0.0000   0.0000
     0.0000   0.0000   0.0000   0.0000   0.0000   0.0000   0.0000   0.0000
     0.0000   0.0000   0.0000   0.0000   0.0000   0.0000   0.0000   0.0000
     0.0000   0.0000   0.0000   0.0000   0.0000   0.0000   0.0000   0.0000
     0.0000   0.0000   0.0000   0.0000   0.0000   0.0000   0.0000   0.0000
     0.0000   0.0000   0.0000   0.0000   0.0000   0.0000   0.0000   0.0000
     0.0000   0.0000   0.0000   0.0000   0.0000   0.0000   0.0000   0.0000
     0.0000   0.0000   0.0000   0.0000   0.0000   0.0000   0.0000   0.0000
     0.0000   0.0000   0.0000   0.0000   0.0000   0.0000   0.0000   0.0000
     0.0000   0.0000   0.0000   0.0000

          k = 0.5000 0.4500 0.4500 ( 74010 PWs)   bands (ev):

   -18.1281 -18.1281 -18.0397 -18.0397 -17.9993 -17.9993 -17.9954 -17.9954
   -17.9650 -17.9650 -17.9608 -17.9608 -17.8047 -17.8047 -17.7796 -17.7796
   -15.3216 -15.3216 -15.3008 -15.3008 -15.2519 -15.2514 -15.2504 -15.2499
   -15.2402 -15.2402 -15.2355 -15.2354 -15.2228 -15.2227 -15.2148 -15.2148
   -15.1850 -15.1850 -15.1676 -15.1676 -15.0948 -15.0948 -15.0876 -15.0876
   -15.0732 -15.0732 -15.0690 -15.0690 -15.0093 -15.0093 -15.0005 -15.0005
   -12.7863 -12.7862 -12.7685 -12.7683 -12.7616 -12.7580 -12.7458 -12.7422
   -12.7263 -12.7263 -12.7230 -12.7228 -12.7159 -12.7156 -12.6920 -12.6916
   -12.6801 -12.6800 -12.6590 -12.6589 -12.6571 -12.6570 -12.6522 -12.6518
   -12.6468 -12.6466 -12.6337 -12.6337 -12.5931 -12.5929 -12.5900 -12.5900
   -12.5702 -12.5699 -12.5575 -12.5574 -12.5451 -12.5449 -12.5083 -12.5081
   -12.4985 -12.4985 -12.4929 -12.4927 -12.4907 -12.4907 -12.4172 -12.4172
   -11.3916 -11.3911 -11.3596 -11.3591 -11.2807 -11.2805 -11.2299 -11.2295
   -11.2162 -11.2156 -11.1769 -11.1765 -11.1181 -11.1175 -11.0773 -11.0765
   -11.0361 -11.0347 -11.0260 -11.0248 -10.9777 -10.9773 -10.9547 -10.9544
   -10.9349 -10.9343 -10.9210 -10.9206 -10.8920 -10.8912 -10.8405 -10.8401
   -10.8268 -10.8262 -10.7890 -10.7889 -10.7728 -10.7721 -10.6779 -10.6776
   -10.6486 -10.6483 -10.6305 -10.6303 -10.5982 -10.5980 -10.5485 -10.5484
    -6.0980  -6.0980  -6.0133  -6.0132  -5.9758  -5.9756  -5.9729  -5.9727
    -5.9418  -5.9410  -5.9361  -5.9352  -5.7960  -5.7960  -5.7736  -5.7735
    -4.9155  -4.9147  -4.8498  -4.8486  -4.8206  -4.8192  -4.7748  -4.7738
    -4.7251  -4.7245  -4.6596  -4.6563  -4.5817  -4.5797  -4.5474  -4.5460
    -4.5001  -4.4998  -4.4796  -4.4791  -4.4163  -4.4158  -4.3954  -4.3943
    -4.3847  -4.3843  -4.3769  -4.3766  -4.3635  -4.3632  -4.3591  -4.3583
    -4.3512  -4.3508  -4.3401  -4.3393  -4.3207  -4.3192  -4.3151  -4.3146
    -4.2149  -4.2147  -4.1882  -4.1877  -4.1856  -4.1853  -4.1757  -4.1752
    -0.5516  -0.5060  -0.3776  -0.3671  -0.3468  -0.3313  -0.3090  -0.2907
    -0.2846  -0.2691  -0.2578  -0.2419  -0.2055  -0.1939  -0.1685  -0.1565
    -0.1236  -0.1174  -0.0937  -0.0811  -0.0749  -0.0602  -0.0065   0.0013
     0.0297   0.0460   0.0920   0.1010   0.1418   0.1694   0.1725   0.1849
     0.2084   0.2379   0.2494   0.2628   0.2748   0.3034   0.3126   0.3209
     0.3391   0.3556   0.3702   0.3742   0.3890   0.4090   0.4840   0.4988
     0.6590   0.6695   0.6922   0.6966   0.7041   0.7292   0.7312   0.7469
     0.7563   0.7675   0.7731   0.7858   0.7902   0.7967   0.8173   0.8328
     0.8418   0.8570   0.8732   0.8819   0.8907   0.9030   0.9138   0.9202
     0.9351   0.9433   0.9621   0.9770   0.9856   0.9867   1.0031   1.0181
     1.0308   1.0466   1.0607   1.0671   1.0746   1.0879   1.1029   1.1084
     1.1254   1.1390   1.1541   1.1673   1.1910   1.2006   1.2193   1.2255
     1.2544   1.2603   1.2791   1.2839   1.3035   1.3066   1.3267   1.3363
     1.3595   1.3695   1.3785   1.3865   1.4108   1.4170   1.4285   1.4365
     1.4408   1.4470   1.4645   1.4694   1.4784   1.4916   1.5024   1.5142
     1.5256   1.5445   1.5512   1.5603   1.5760   1.5874   1.6031   1.6074
     1.6252   1.6389   1.6619   1.6791   1.7033   1.7066   1.7319   1.7370
     1.7643   1.7776   1.8098   1.8166   1.8653   1.8878   1.9907   1.9964
     5.0169   5.0754   5.1485   5.2426   5.2884   5.3286   5.3502   5.4511
     5.4872   5.5314   5.5638   5.5979   5.6810   5.7079   5.8049   5.8734
     6.3124   6.3810   6.4150   6.4801   6.5389   6.5558   6.5873   6.6109
     6.6523   6.6717   6.6909   6.7264   6.7491   6.7693   6.8075   6.8412
     6.8771   6.8985   6.9285   6.9652   6.9936   7.0435   7.0717   7.0823
     7.1128   7.1485   7.1812   7.1901   7.2252   7.2554   7.3091   7.3445
     7.7685   7.7799   7.8107   7.8197   7.8507   7.8691   7.8931   7.9113
     7.9197   7.9459   7.9861   8.0098   8.0366   8.0487   8.0654   8.0874
     8.1706   8.1882   8.2418   8.2590   8.2886   8.3022   8.3343   8.3417
     8.3742   8.3842   8.3969   8.4193   8.4331   8.4388   8.4567   8.4747
     8.5074   8.5178   8.5422   8.5550   8.5923   8.5956   8.6117   8.6219
     8.6455   8.6588   8.6698   8.6827   8.7619   8.7778   8.8455   8.8541
     8.9046   8.9149   8.9582   8.9694   9.0515   9.0578   9.0741   9.0850
     9.1224   9.1280   9.1416   9.1488   9.1699   9.1879   9.1987   9.2119
     9.2345   9.2526   9.2767   9.2877   9.3119   9.3180   9.3407   9.3616
     9.3853   9.3887   9.3951   9.3989   9.4158   9.4244   9.4815   9.4885
     9.5082   9.5147   9.5510   9.5539   9.5799   9.5866   9.6021   9.6138
     9.6336   9.6423   9.6809   9.6904   9.7056   9.7135   9.7296   9.7339
     9.9177   9.9299   9.9760   9.9892

     occupation numbers 
     1.0000   1.0000   1.0000   1.0000   1.0000   1.0000   1.0000   1.0000
     1.0000   1.0000   1.0000   1.0000   1.0000   1.0000   1.0000   1.0000
     1.0000   1.0000   1.0000   1.0000   1.0000   1.0000   1.0000   1.0000
     1.0000   1.0000   1.0000   1.0000   1.0000   1.0000   1.0000   1.0000
     1.0000   1.0000   1.0000   1.0000   1.0000   1.0000   1.0000   1.0000
     1.0000   1.0000   1.0000   1.0000   1.0000   1.0000   1.0000   1.0000
     1.0000   1.0000   1.0000   1.0000   1.0000   1.0000   1.0000   1.0000
     1.0000   1.0000   1.0000   1.0000   1.0000   1.0000   1.0000   1.0000
     1.0000   1.0000   1.0000   1.0000   1.0000   1.0000   1.0000   1.0000
     1.0000   1.0000   1.0000   1.0000   1.0000   1.0000   1.0000   1.0000
     1.0000   1.0000   1.0000   1.0000   1.0000   1.0000   1.0000   1.0000
     1.0000   1.0000   1.0000   1.0000   1.0000   1.0000   1.0000   1.0000
     1.0000   1.0000   1.0000   1.0000   1.0000   1.0000   1.0000   1.0000
     1.0000   1.0000   1.0000   1.0000   1.0000   1.0000   1.0000   1.0000
     1.0000   1.0000   1.0000   1.0000   1.0000   1.0000   1.0000   1.0000
     1.0000   1.0000   1.0000   1.0000   1.0000   1.0000   1.0000   1.0000
     1.0000   1.0000   1.0000   1.0000   1.0000   1.0000   1.0000   1.0000
     1.0000   1.0000   1.0000   1.0000   1.0000   1.0000   1.0000   1.0000
     1.0000   1.0000   1.0000   1.0000   1.0000   1.0000   1.0000   1.0000
     1.0000   1.0000   1.0000   1.0000   1.0000   1.0000   1.0000   1.0000
     1.0000   1.0000   1.0000   1.0000   1.0000   1.0000   1.0000   1.0000
     1.0000   1.0000   1.0000   1.0000   1.0000   1.0000   1.0000   1.0000
     1.0000   1.0000   1.0000   1.0000   1.0000   1.0000   1.0000   1.0000
     1.0000   1.0000   1.0000   1.0000   1.0000   1.0000   1.0000   1.0000
     1.0000   1.0000   1.0000   1.0000   1.0000   1.0000   1.0000   1.0000
     1.0000   1.0000   1.0000   1.0000   1.0000   1.0000   1.0000   1.0000
     1.0000   1.0000   1.0000   1.0000   1.0000   1.0000   1.0000   1.0000
     1.0000   1.0000   1.0000   1.0000   1.0000   1.0000   1.0000   1.0000
     1.0000   1.0000   1.0000   1.0000   1.0000   1.0000   1.0000   1.0000
     1.0000   1.0000   1.0000   1.0000   1.0000   1.0000   1.0000   1.0000
     1.0000   1.0000   1.0000   1.0000   1.0000   1.0000   1.0000   1.0000
     1.0000   1.0000   1.0000   1.0000   1.0000   1.0000   1.0000   1.0000
     1.0000   1.0000   1.0000   1.0000   1.0000   1.0000   1.0000   1.0000
     1.0000   1.0000   1.0000   1.0000   1.0000   1.0000   1.0000   1.0000
     1.0000   1.0000   1.0000   1.0000   1.0000   1.0000   1.0000   1.0000
     1.0000   1.0000   1.0000   1.0000   1.0000   1.0000   1.0000   1.0000
     1.0000   1.0000   1.0000   1.0000   1.0000   1.0000   1.0000   1.0000
     1.0000   1.0000   1.0000   1.0000   1.0000   1.0000   1.0000   1.0000
     1.0000   1.0000   1.0000   1.0000   1.0000   1.0000   1.0000   1.0000
     1.0000   1.0000   1.0000   1.0000   1.0000   1.0000   1.0000   1.0000
     1.0000   1.0000   1.0000   1.0000   1.0000   1.0000   1.0000   1.0000
     1.0000   1.0000   1.0000   1.0000   1.0000   1.0000   1.0000   1.0000
     1.0000   1.0000   1.0000   1.0000   1.0000   1.0000   1.0000   1.0000
     1.0000   1.0000   1.0000   1.0000   1.0000   1.0000   1.0000   1.0000
     0.0000   0.0000   0.0000   0.0000   0.0000   0.0000   0.0000   0.0000
     0.0000   0.0000   0.0000   0.0000   0.0000   0.0000   0.0000   0.0000
     0.0000   0.0000   0.0000   0.0000   0.0000   0.0000   0.0000   0.0000
     0.0000   0.0000   0.0000   0.0000   0.0000   0.0000   0.0000   0.0000
     0.0000   0.0000   0.0000   0.0000   0.0000   0.0000   0.0000   0.0000
     0.0000   0.0000   0.0000   0.0000   0.0000   0.0000   0.0000   0.0000
     0.0000   0.0000   0.0000   0.0000   0.0000   0.0000   0.0000   0.0000
     0.0000   0.0000   0.0000   0.0000   0.0000   0.0000   0.0000   0.0000
     0.0000   0.0000   0.0000   0.0000   0.0000   0.0000   0.0000   0.0000
     0.0000   0.0000   0.0000   0.0000   0.0000   0.0000   0.0000   0.0000
     0.0000   0.0000   0.0000   0.0000   0.0000   0.0000   0.0000   0.0000
     0.0000   0.0000   0.0000   0.0000   0.0000   0.0000   0.0000   0.0000
     0.0000   0.0000   0.0000   0.0000   0.0000   0.0000   0.0000   0.0000
     0.0000   0.0000   0.0000   0.0000   0.0000   0.0000   0.0000   0.0000
     0.0000   0.0000   0.0000   0.0000   0.0000   0.0000   0.0000   0.0000
     0.0000   0.0000   0.0000   0.0000   0.0000   0.0000   0.0000   0.0000
     0.0000   0.0000   0.0000   0.0000   0.0000   0.0000   0.0000   0.0000
     0.0000   0.0000   0.0000   0.0000   0.0000   0.0000   0.0000   0.0000
     0.0000   0.0000   0.0000   0.0000

          k = 0.5000 0.4250 0.4250 ( 73994 PWs)   bands (ev):

   -18.1281 -18.1281 -18.0397 -18.0397 -17.9993 -17.9993 -17.9954 -17.9954
   -17.9650 -17.9650 -17.9608 -17.9608 -17.8047 -17.8047 -17.7796 -17.7796
   -15.3216 -15.3215 -15.3008 -15.3008 -15.2521 -15.2514 -15.2504 -15.2498
   -15.2402 -15.2402 -15.2355 -15.2354 -15.2228 -15.2227 -15.2148 -15.2148
   -15.1850 -15.1850 -15.1676 -15.1675 -15.0948 -15.0948 -15.0876 -15.0876
   -15.0732 -15.0732 -15.0690 -15.0690 -15.0093 -15.0093 -15.0005 -15.0005
   -12.7863 -12.7862 -12.7686 -12.7683 -12.7633 -12.7585 -12.7453 -12.7406
   -12.7263 -12.7263 -12.7230 -12.7228 -12.7159 -12.7156 -12.6924 -12.6917
   -12.6803 -12.6802 -12.6589 -12.6588 -12.6571 -12.6570 -12.6520 -12.6514
   -12.6467 -12.6465 -12.6337 -12.6337 -12.5931 -12.5928 -12.5900 -12.5899
   -12.5702 -12.5698 -12.5576 -12.5574 -12.5450 -12.5448 -12.5082 -12.5079
   -12.4986 -12.4985 -12.4928 -12.4926 -12.4907 -12.4907 -12.4172 -12.4172
   -11.3921 -11.3914 -11.3591 -11.3583 -11.2800 -11.2798 -11.2320 -11.2315
   -11.2160 -11.2153 -11.1752 -11.1747 -11.1171 -11.1164 -11.0772 -11.0762
   -11.0367 -11.0349 -11.0268 -11.0250 -10.9785 -10.9779 -10.9556 -10.9552
   -10.9356 -10.9347 -10.9215 -10.9211 -10.8924 -10.8913 -10.8409 -10.8403
   -10.8265 -10.8256 -10.7890 -10.7887 -10.7725 -10.7716 -10.6792 -10.6788
   -10.6477 -10.6474 -10.6296 -10.6293 -10.5984 -10.5981 -10.5483 -10.5481
    -6.0980  -6.0980  -6.0133  -6.0132  -5.9758  -5.9756  -5.9729  -5.9727
    -5.9420  -5.9407  -5.9364  -5.9350  -5.7960  -5.7960  -5.7736  -5.7734
    -4.9357  -4.9347  -4.8489  -4.8482  -4.8308  -4.8298  -4.7859  -4.7852
    -4.7162  -4.7154  -4.6371  -4.6331  -4.5782  -4.5758  -4.5350  -4.5323
    -4.4997  -4.4990  -4.4795  -4.4787  -4.4163  -4.4155  -4.3955  -4.3938
    -4.3847  -4.3841  -4.3769  -4.3764  -4.3636  -4.3632  -4.3591  -4.3580
    -4.3512  -4.3506  -4.3402  -4.3391  -4.3209  -4.3188  -4.3152  -4.3144
    -4.2149  -4.2146  -4.1883  -4.1875  -4.1857  -4.1852  -4.1758  -4.1750
    -0.5926  -0.5372  -0.4031  -0.3806  -0.3495  -0.3369  -0.3193  -0.3000
    -0.2900  -0.2796  -0.2671  -0.2518  -0.2178  -0.2121  -0.1835  -0.1701
    -0.1380  -0.1230  -0.0937  -0.0867  -0.0639  -0.0465  -0.0051   0.0033
     0.0318   0.0498   0.0933   0.1039   0.1346   0.1597   0.1924   0.2017
     0.2199   0.2429   0.2570   0.2642   0.2895   0.3052   0.3182   0.3294
     0.3486   0.3623   0.3743   0.3856   0.3971   0.4199   0.4869   0.5070
     0.6563   0.6709   0.6879   0.6924   0.7054   0.7266   0.7331   0.7482
     0.7604   0.7697   0.7744   0.7873   0.7921   0.7987   0.8161   0.8337
     0.8430   0.8622   0.8733   0.8864   0.8894   0.9040   0.9133   0.9255
     0.9396   0.9473   0.9623   0.9797   0.9856   0.9884   1.0039   1.0237
     1.0301   1.0512   1.0610   1.0706   1.0782   1.0938   1.1067   1.1145
     1.1240   1.1418   1.1545   1.1729   1.1895   1.2036   1.2200   1.2286
     1.2539   1.2614   1.2788   1.2866   1.3027   1.3066   1.3253   1.3380
     1.3583   1.3704   1.3764   1.3877   1.4084   1.4148   1.4281   1.4373
     1.4412   1.4490   1.4651   1.4732   1.4786   1.4963   1.5025   1.5163
     1.5239   1.5469   1.5524   1.5628   1.5759   1.5876   1.6048   1.6131
     1.6240   1.6445   1.6596   1.6823   1.7028   1.7074   1.7323   1.7396
     1.7699   1.7863   1.8163   1.8255   1.8712   1.9018   1.9912   1.9998
     4.9773   5.0403   5.1181   5.2153   5.2537   5.2960   5.3213   5.4446
     5.4726   5.5312   5.5609   5.6235   5.6622   5.7205   5.8224   5.8961
     6.2773   6.3462   6.3826   6.4442   6.5043   6.5324   6.5632   6.5943
     6.6299   6.6583   6.6633   6.7236   6.7611   6.7755   6.8142   6.8353
     6.8732   6.8968   6.9382   6.9755   7.0186   7.0494   7.0981   7.1149
     7.1483   7.1754   7.2003   7.2268   7.2660   7.2910   7.3427   7.3921
     7.7622   7.7806   7.8127   7.8279   7.8414   7.8721   7.9013   7.9184
     7.9232   7.9549   7.9862   8.0186   8.0441   8.0578   8.0706   8.0962
     8.1659   8.1893   8.2423   8.2631   8.2867   8.3083   8.3325   8.3391
     8.3694   8.3763   8.3958   8.4131   8.4394   8.4446   8.4610   8.4801
     8.5159   8.5304   8.5415   8.5633   8.5928   8.6013   8.6178   8.6298
     8.6455   8.6607   8.6761   8.6898   8.7589   8.7813   8.8401   8.8487
     8.9151   8.9262   8.9493   8.9660   9.0459   9.0552   9.0623   9.0762
     9.1188   9.1209   9.1365   9.1441   9.1684   9.1853   9.1984   9.2099
     9.2278   9.2524   9.2661   9.2828   9.3080   9.3173   9.3314   9.3570
     9.3825   9.3863   9.3959   9.4018   9.4155   9.4282   9.4712   9.4810
     9.5014   9.5094   9.5437   9.5496   9.5728   9.5830   9.5981   9.6125
     9.6293   9.6382   9.6786   9.6880   9.7079   9.7163   9.7275   9.7339
     9.9101   9.9251   9.9861  10.0006

     occupation numbers 
     1.0000   1.0000   1.0000   1.0000   1.0000   1.0000   1.0000   1.0000
     1.0000   1.0000   1.0000   1.0000   1.0000   1.0000   1.0000   1.0000
     1.0000   1.0000   1.0000   1.0000   1.0000   1.0000   1.0000   1.0000
     1.0000   1.0000   1.0000   1.0000   1.0000   1.0000   1.0000   1.0000
     1.0000   1.0000   1.0000   1.0000   1.0000   1.0000   1.0000   1.0000
     1.0000   1.0000   1.0000   1.0000   1.0000   1.0000   1.0000   1.0000
     1.0000   1.0000   1.0000   1.0000   1.0000   1.0000   1.0000   1.0000
     1.0000   1.0000   1.0000   1.0000   1.0000   1.0000   1.0000   1.0000
     1.0000   1.0000   1.0000   1.0000   1.0000   1.0000   1.0000   1.0000
     1.0000   1.0000   1.0000   1.0000   1.0000   1.0000   1.0000   1.0000
     1.0000   1.0000   1.0000   1.0000   1.0000   1.0000   1.0000   1.0000
     1.0000   1.0000   1.0000   1.0000   1.0000   1.0000   1.0000   1.0000
     1.0000   1.0000   1.0000   1.0000   1.0000   1.0000   1.0000   1.0000
     1.0000   1.0000   1.0000   1.0000   1.0000   1.0000   1.0000   1.0000
     1.0000   1.0000   1.0000   1.0000   1.0000   1.0000   1.0000   1.0000
     1.0000   1.0000   1.0000   1.0000   1.0000   1.0000   1.0000   1.0000
     1.0000   1.0000   1.0000   1.0000   1.0000   1.0000   1.0000   1.0000
     1.0000   1.0000   1.0000   1.0000   1.0000   1.0000   1.0000   1.0000
     1.0000   1.0000   1.0000   1.0000   1.0000   1.0000   1.0000   1.0000
     1.0000   1.0000   1.0000   1.0000   1.0000   1.0000   1.0000   1.0000
     1.0000   1.0000   1.0000   1.0000   1.0000   1.0000   1.0000   1.0000
     1.0000   1.0000   1.0000   1.0000   1.0000   1.0000   1.0000   1.0000
     1.0000   1.0000   1.0000   1.0000   1.0000   1.0000   1.0000   1.0000
     1.0000   1.0000   1.0000   1.0000   1.0000   1.0000   1.0000   1.0000
     1.0000   1.0000   1.0000   1.0000   1.0000   1.0000   1.0000   1.0000
     1.0000   1.0000   1.0000   1.0000   1.0000   1.0000   1.0000   1.0000
     1.0000   1.0000   1.0000   1.0000   1.0000   1.0000   1.0000   1.0000
     1.0000   1.0000   1.0000   1.0000   1.0000   1.0000   1.0000   1.0000
     1.0000   1.0000   1.0000   1.0000   1.0000   1.0000   1.0000   1.0000
     1.0000   1.0000   1.0000   1.0000   1.0000   1.0000   1.0000   1.0000
     1.0000   1.0000   1.0000   1.0000   1.0000   1.0000   1.0000   1.0000
     1.0000   1.0000   1.0000   1.0000   1.0000   1.0000   1.0000   1.0000
     1.0000   1.0000   1.0000   1.0000   1.0000   1.0000   1.0000   1.0000
     1.0000   1.0000   1.0000   1.0000   1.0000   1.0000   1.0000   1.0000
     1.0000   1.0000   1.0000   1.0000   1.0000   1.0000   1.0000   1.0000
     1.0000   1.0000   1.0000   1.0000   1.0000   1.0000   1.0000   1.0000
     1.0000   1.0000   1.0000   1.0000   1.0000   1.0000   1.0000   1.0000
     1.0000   1.0000   1.0000   1.0000   1.0000   1.0000   1.0000   1.0000
     1.0000   1.0000   1.0000   1.0000   1.0000   1.0000   1.0000   1.0000
     1.0000   1.0000   1.0000   1.0000   1.0000   1.0000   1.0000   1.0000
     1.0000   1.0000   1.0000   1.0000   1.0000   1.0000   1.0000   1.0000
     1.0000   1.0000   1.0000   1.0000   1.0000   1.0000   1.0000   1.0000
     1.0000   1.0000   1.0000   1.0000   1.0000   1.0000   1.0000   1.0000
     1.0000   1.0000   1.0000   1.0000   1.0000   1.0000   1.0000   1.0000
     0.0000   0.0000   0.0000   0.0000   0.0000   0.0000   0.0000   0.0000
     0.0000   0.0000   0.0000   0.0000   0.0000   0.0000   0.0000   0.0000
     0.0000   0.0000   0.0000   0.0000   0.0000   0.0000   0.0000   0.0000
     0.0000   0.0000   0.0000   0.0000   0.0000   0.0000   0.0000   0.0000
     0.0000   0.0000   0.0000   0.0000   0.0000   0.0000   0.0000   0.0000
     0.0000   0.0000   0.0000   0.0000   0.0000   0.0000   0.0000   0.0000
     0.0000   0.0000   0.0000   0.0000   0.0000   0.0000   0.0000   0.0000
     0.0000   0.0000   0.0000   0.0000   0.0000   0.0000   0.0000   0.0000
     0.0000   0.0000   0.0000   0.0000   0.0000   0.0000   0.0000   0.0000
     0.0000   0.0000   0.0000   0.0000   0.0000   0.0000   0.0000   0.0000
     0.0000   0.0000   0.0000   0.0000   0.0000   0.0000   0.0000   0.0000
     0.0000   0.0000   0.0000   0.0000   0.0000   0.0000   0.0000   0.0000
     0.0000   0.0000   0.0000   0.0000   0.0000   0.0000   0.0000   0.0000
     0.0000   0.0000   0.0000   0.0000   0.0000   0.0000   0.0000   0.0000
     0.0000   0.0000   0.0000   0.0000   0.0000   0.0000   0.0000   0.0000
     0.0000   0.0000   0.0000   0.0000   0.0000   0.0000   0.0000   0.0000
     0.0000   0.0000   0.0000   0.0000   0.0000   0.0000   0.0000   0.0000
     0.0000   0.0000   0.0000   0.0000   0.0000   0.0000   0.0000   0.0000
     0.0000   0.0000   0.0000   0.0000

          k = 0.5000 0.4000 0.4000 ( 73966 PWs)   bands (ev):

   -18.1281 -18.1281 -18.0397 -18.0397 -17.9993 -17.9993 -17.9954 -17.9954
   -17.9650 -17.9650 -17.9608 -17.9608 -17.8047 -17.8047 -17.7796 -17.7796
   -15.3215 -15.3215 -15.3008 -15.3008 -15.2523 -15.2515 -15.2503 -15.2496
   -15.2402 -15.2401 -15.2355 -15.2353 -15.2228 -15.2228 -15.2148 -15.2148
   -15.1850 -15.1849 -15.1676 -15.1675 -15.0948 -15.0948 -15.0876 -15.0876
   -15.0732 -15.0732 -15.0690 -15.0690 -15.0093 -15.0093 -15.0005 -15.0005
   -12.7864 -12.7862 -12.7688 -12.7684 -12.7649 -12.7596 -12.7442 -12.7390
   -12.7263 -12.7263 -12.7230 -12.7227 -12.7161 -12.7156 -12.6928 -12.6920
   -12.6806 -12.6804 -12.6588 -12.6587 -12.6571 -12.6570 -12.6517 -12.6510
   -12.6466 -12.6463 -12.6337 -12.6337 -12.5931 -12.5927 -12.5900 -12.5899
   -12.5701 -12.5697 -12.5577 -12.5576 -12.5450 -12.5447 -12.5081 -12.5078
   -12.4986 -12.4985 -12.4927 -12.4925 -12.4907 -12.4907 -12.4172 -12.4172
   -11.3928 -11.3919 -11.3583 -11.3573 -11.2791 -11.2789 -11.2345 -11.2340
   -11.2156 -11.2146 -11.1732 -11.1727 -11.1157 -11.1148 -11.0771 -11.0759
   -11.0373 -11.0351 -11.0276 -11.0256 -10.9796 -10.9788 -10.9570 -10.9565
   -10.9368 -10.9354 -10.9220 -10.9215 -10.8928 -10.8915 -10.8414 -10.8407
   -10.8260 -10.8248 -10.7889 -10.7886 -10.7721 -10.7708 -10.6807 -10.6802
   -10.6468 -10.6464 -10.6285 -10.6280 -10.5986 -10.5982 -10.5479 -10.5477
    -6.0980  -6.0980  -6.0134  -6.0132  -5.9758  -5.9756  -5.9729  -5.9727
    -5.9422  -5.9405  -5.9366  -5.9349  -5.7960  -5.7959  -5.7736  -5.7734
    -4.9581  -4.9571  -4.8655  -4.8635  -4.8314  -4.8306  -4.7899  -4.7892
    -4.7071  -4.7060  -4.6217  -4.6180  -4.5657  -4.5639  -4.5208  -4.5158
    -4.4989  -4.4969  -4.4794  -4.4778  -4.4162  -4.4150  -4.3956  -4.3931
    -4.3846  -4.3837  -4.3767  -4.3760  -4.3637  -4.3631  -4.3589  -4.3577
    -4.3511  -4.3504  -4.3403  -4.3389  -4.3211  -4.3183  -4.3153  -4.3142
    -4.2149  -4.2145  -4.1884  -4.1874  -4.1857  -4.1851  -4.1758  -4.1748
    -0.6358  -0.5744  -0.4313  -0.4046  -0.3637  -0.3517  -0.3367  -0.3162
    -0.2974  -0.2884  -0.2759  -0.2589  -0.2363  -0.2321  -0.2024  -0.1869
    -0.1577  -0.1417  -0.0950  -0.0921  -0.0447  -0.0317  -0.0055   0.0026
     0.0439   0.0578   0.0930   0.1037   0.1338   0.1509   0.2107   0.2142
     0.2423   0.2513   0.2623   0.2721   0.3007   0.3114   0.3242   0.3428
     0.3598   0.3708   0.3796   0.3983   0.4101   0.4319   0.4924   0.5161
     0.6539   0.6710   0.6828   0.6899   0.7076   0.7230   0.7350   0.7503
     0.7624   0.7723   0.7777   0.7874   0.7955   0.8016   0.8175   0.8340
     0.8463   0.8673   0.8746   0.8893   0.8914   0.9060   0.9137   0.9307
     0.9434   0.9521   0.9656   0.9799   0.9869   0.9932   1.0070   1.0276
     1.0324   1.0547   1.0613   1.0746   1.0848   1.1003   1.1105   1.1209
     1.1256   1.1448   1.1561   1.1792   1.1881   1.2064   1.2217   1.2314
     1.2542   1.2618   1.2785   1.2898   1.3020   1.3063   1.3247   1.3386
     1.3586   1.3699   1.3746   1.3877   1.4078   1.4131   1.4266   1.4369
     1.4427   1.4503   1.4663   1.4768   1.4807   1.4996   1.5061   1.5163
     1.5252   1.5457   1.5567   1.5662   1.5780   1.5876   1.6064   1.6198
     1.6236   1.6502   1.6596   1.6842   1.7029   1.7087   1.7325   1.7426
     1.7801   1.7966   1.8256   1.8374   1.8837   1.9189   1.9925   2.0042
     4.9309   4.9859   5.0813   5.1772   5.2031   5.2744   5.2895   5.4208
     5.4560   5.5251   5.5583   5.6175   5.6629   5.7402   5.8489   5.9186
     6.2361   6.2876   6.3455   6.4094   6.4717   6.4956   6.5391   6.5746
     6.5964   6.6344   6.6486   6.7096   6.7647   6.7759   6.8197   6.8276
     6.8837   6.9095   6.9482   6.9960   7.0408   7.0721   7.1289   7.1514
     7.1872   7.2102   7.2345   7.2643   7.3135   7.3353   7.3794   7.4482
     7.7546   7.7788   7.8144   7.8348   7.8420   7.8797   7.9103   7.9274
     7.9332   7.9654   7.9896   8.0260   8.0541   8.0688   8.0779   8.1043
     8.1625   8.1892   8.2438   8.2653   8.2858   8.3152   8.3265   8.3332
     8.3658   8.3751   8.3969   8.4073   8.4459   8.4539   8.4698   8.4864
     8.5225   8.5404   8.5451   8.5755   8.5909   8.6047   8.6286   8.6396
     8.6500   8.6660   8.6834   8.6976   8.7568   8.7843   8.8341   8.8419
     8.9203   8.9359   8.9437   8.9644   9.0365   9.0449   9.0575   9.0696
     9.1048   9.1110   9.1284   9.1415   9.1661   9.1799   9.1966   9.2055
     9.2238   9.2476   9.2594   9.2763   9.3032   9.3135   9.3225   9.3498
     9.3764   9.3815   9.3941   9.4033   9.4188   9.4328   9.4604   9.4714
     9.4959   9.5042   9.5341   9.5438   9.5640   9.5767   9.5949   9.6080
     9.6254   9.6328   9.6760   9.6840   9.7119   9.7197   9.7260   9.7353
     9.9020   9.9175   9.9988  10.0124

     occupation numbers 
     1.0000   1.0000   1.0000   1.0000   1.0000   1.0000   1.0000   1.0000
     1.0000   1.0000   1.0000   1.0000   1.0000   1.0000   1.0000   1.0000
     1.0000   1.0000   1.0000   1.0000   1.0000   1.0000   1.0000   1.0000
     1.0000   1.0000   1.0000   1.0000   1.0000   1.0000   1.0000   1.0000
     1.0000   1.0000   1.0000   1.0000   1.0000   1.0000   1.0000   1.0000
     1.0000   1.0000   1.0000   1.0000   1.0000   1.0000   1.0000   1.0000
     1.0000   1.0000   1.0000   1.0000   1.0000   1.0000   1.0000   1.0000
     1.0000   1.0000   1.0000   1.0000   1.0000   1.0000   1.0000   1.0000
     1.0000   1.0000   1.0000   1.0000   1.0000   1.0000   1.0000   1.0000
     1.0000   1.0000   1.0000   1.0000   1.0000   1.0000   1.0000   1.0000
     1.0000   1.0000   1.0000   1.0000   1.0000   1.0000   1.0000   1.0000
     1.0000   1.0000   1.0000   1.0000   1.0000   1.0000   1.0000   1.0000
     1.0000   1.0000   1.0000   1.0000   1.0000   1.0000   1.0000   1.0000
     1.0000   1.0000   1.0000   1.0000   1.0000   1.0000   1.0000   1.0000
     1.0000   1.0000   1.0000   1.0000   1.0000   1.0000   1.0000   1.0000
     1.0000   1.0000   1.0000   1.0000   1.0000   1.0000   1.0000   1.0000
     1.0000   1.0000   1.0000   1.0000   1.0000   1.0000   1.0000   1.0000
     1.0000   1.0000   1.0000   1.0000   1.0000   1.0000   1.0000   1.0000
     1.0000   1.0000   1.0000   1.0000   1.0000   1.0000   1.0000   1.0000
     1.0000   1.0000   1.0000   1.0000   1.0000   1.0000   1.0000   1.0000
     1.0000   1.0000   1.0000   1.0000   1.0000   1.0000   1.0000   1.0000
     1.0000   1.0000   1.0000   1.0000   1.0000   1.0000   1.0000   1.0000
     1.0000   1.0000   1.0000   1.0000   1.0000   1.0000   1.0000   1.0000
     1.0000   1.0000   1.0000   1.0000   1.0000   1.0000   1.0000   1.0000
     1.0000   1.0000   1.0000   1.0000   1.0000   1.0000   1.0000   1.0000
     1.0000   1.0000   1.0000   1.0000   1.0000   1.0000   1.0000   1.0000
     1.0000   1.0000   1.0000   1.0000   1.0000   1.0000   1.0000   1.0000
     1.0000   1.0000   1.0000   1.0000   1.0000   1.0000   1.0000   1.0000
     1.0000   1.0000   1.0000   1.0000   1.0000   1.0000   1.0000   1.0000
     1.0000   1.0000   1.0000   1.0000   1.0000   1.0000   1.0000   1.0000
     1.0000   1.0000   1.0000   1.0000   1.0000   1.0000   1.0000   1.0000
     1.0000   1.0000   1.0000   1.0000   1.0000   1.0000   1.0000   1.0000
     1.0000   1.0000   1.0000   1.0000   1.0000   1.0000   1.0000   1.0000
     1.0000   1.0000   1.0000   1.0000   1.0000   1.0000   1.0000   1.0000
     1.0000   1.0000   1.0000   1.0000   1.0000   1.0000   1.0000   1.0000
     1.0000   1.0000   1.0000   1.0000   1.0000   1.0000   1.0000   1.0000
     1.0000   1.0000   1.0000   1.0000   1.0000   1.0000   1.0000   1.0000
     1.0000   1.0000   1.0000   1.0000   1.0000   1.0000   1.0000   1.0000
     1.0000   1.0000   1.0000   1.0000   1.0000   1.0000   1.0000   1.0000
     1.0000   1.0000   1.0000   1.0000   1.0000   1.0000   1.0000   1.0000
     1.0000   1.0000   1.0000   1.0000   1.0000   1.0000   1.0000   1.0000
     1.0000   1.0000   1.0000   1.0000   1.0000   1.0000   1.0000   1.0000
     1.0000   1.0000   1.0000   1.0000   1.0000   1.0000   1.0000   1.0000
     1.0000   1.0000   1.0000   1.0000   1.0000   1.0000   1.0000   1.0000
     0.0000   0.0000   0.0000   0.0000   0.0000   0.0000   0.0000   0.0000
     0.0000   0.0000   0.0000   0.0000   0.0000   0.0000   0.0000   0.0000
     0.0000   0.0000   0.0000   0.0000   0.0000   0.0000   0.0000   0.0000
     0.0000   0.0000   0.0000   0.0000   0.0000   0.0000   0.0000   0.0000
     0.0000   0.0000   0.0000   0.0000   0.0000   0.0000   0.0000   0.0000
     0.0000   0.0000   0.0000   0.0000   0.0000   0.0000   0.0000   0.0000
     0.0000   0.0000   0.0000   0.0000   0.0000   0.0000   0.0000   0.0000
     0.0000   0.0000   0.0000   0.0000   0.0000   0.0000   0.0000   0.0000
     0.0000   0.0000   0.0000   0.0000   0.0000   0.0000   0.0000   0.0000
     0.0000   0.0000   0.0000   0.0000   0.0000   0.0000   0.0000   0.0000
     0.0000   0.0000   0.0000   0.0000   0.0000   0.0000   0.0000   0.0000
     0.0000   0.0000   0.0000   0.0000   0.0000   0.0000   0.0000   0.0000
     0.0000   0.0000   0.0000   0.0000   0.0000   0.0000   0.0000   0.0000
     0.0000   0.0000   0.0000   0.0000   0.0000   0.0000   0.0000   0.0000
     0.0000   0.0000   0.0000   0.0000   0.0000   0.0000   0.0000   0.0000
     0.0000   0.0000   0.0000   0.0000   0.0000   0.0000   0.0000   0.0000
     0.0000   0.0000   0.0000   0.0000   0.0000   0.0000   0.0000   0.0000
     0.0000   0.0000   0.0000   0.0000   0.0000   0.0000   0.0000   0.0000
     0.0000   0.0000   0.0000   0.0000

          k = 0.5000 0.3750 0.3750 ( 73958 PWs)   bands (ev):

   -18.1281 -18.1281 -18.0397 -18.0397 -17.9993 -17.9993 -17.9954 -17.9954
   -17.9650 -17.9650 -17.9608 -17.9608 -17.8047 -17.8047 -17.7796 -17.7796
   -15.3216 -15.3215 -15.3008 -15.3008 -15.2525 -15.2516 -15.2502 -15.2495
   -15.2402 -15.2401 -15.2354 -15.2353 -15.2228 -15.2228 -15.2148 -15.2148
   -15.1849 -15.1849 -15.1676 -15.1675 -15.0948 -15.0948 -15.0876 -15.0876
   -15.0732 -15.0732 -15.0690 -15.0690 -15.0093 -15.0092 -15.0005 -15.0005
   -12.7865 -12.7863 -12.7690 -12.7684 -12.7666 -12.7611 -12.7429 -12.7374
   -12.7263 -12.7263 -12.7230 -12.7226 -12.7162 -12.7156 -12.6933 -12.6924
   -12.6809 -12.6807 -12.6587 -12.6586 -12.6571 -12.6570 -12.6513 -12.6504
   -12.6464 -12.6460 -12.6338 -12.6337 -12.5930 -12.5925 -12.5900 -12.5899
   -12.5701 -12.5695 -12.5579 -12.5577 -12.5450 -12.5445 -12.5080 -12.5076
   -12.4986 -12.4984 -12.4926 -12.4923 -12.4907 -12.4907 -12.4172 -12.4172
   -11.3936 -11.3925 -11.3572 -11.3562 -11.2782 -11.2779 -11.2372 -11.2366
   -11.2148 -11.2138 -11.1714 -11.1709 -11.1138 -11.1127 -11.0771 -11.0757
   -11.0377 -11.0354 -11.0284 -11.0264 -10.9808 -10.9799 -10.9588 -10.9581
   -10.9384 -10.9367 -10.9222 -10.9217 -10.8933 -10.8917 -10.8419 -10.8411
   -10.8254 -10.8240 -10.7888 -10.7884 -10.7714 -10.7699 -10.6822 -10.6817
   -10.6458 -10.6455 -10.6271 -10.6266 -10.5987 -10.5983 -10.5475 -10.5472
    -6.0980  -6.0980  -6.0134  -6.0132  -5.9759  -5.9756  -5.9730  -5.9727
    -5.9423  -5.9403  -5.9368  -5.9347  -5.7960  -5.7959  -5.7737  -5.7734
    -4.9817  -4.9805  -4.8895  -4.8874  -4.8268  -4.8258  -4.7897  -4.7890
    -4.6992  -4.6976  -4.6150  -4.6121  -4.5441  -4.5431  -4.5095  -4.5016
    -4.4943  -4.4897  -4.4788  -4.4752  -4.4160  -4.4142  -4.3955  -4.3922
    -4.3843  -4.3833  -4.3764  -4.3754  -4.3638  -4.3630  -4.3585  -4.3573
    -4.3509  -4.3501  -4.3403  -4.3386  -4.3212  -4.3179  -4.3153  -4.3140
    -4.2148  -4.2143  -4.1885  -4.1873  -4.1858  -4.1850  -4.1759  -4.1747
    -0.6793  -0.6138  -0.4608  -0.4334  -0.3886  -0.3738  -0.3599  -0.3381
    -0.3189  -0.2998  -0.2788  -0.2636  -0.2576  -0.2504  -0.2230  -0.2041
    -0.1811  -0.1660  -0.1017  -0.0946  -0.0332  -0.0193  -0.0069   0.0100
     0.0557   0.0682   0.0957   0.1064   0.1383   0.1486   0.2155   0.2266
     0.2565   0.2626   0.2744   0.2903   0.3074   0.3251   0.3357   0.3547
     0.3694   0.3830   0.3885   0.4111   0.4250   0.4452   0.4998   0.5259
     0.6519   0.6685   0.6800   0.6887   0.7082   0.7216   0.7368   0.7518
     0.7622   0.7759   0.7806   0.7898   0.7987   0.8059   0.8205   0.8357
     0.8499   0.8708   0.8788   0.8904   0.8958   0.9090   0.9162   0.9359
     0.9448   0.9589   0.9703   0.9800   0.9895   0.9996   1.0119   1.0292
     1.0376   1.0559   1.0640   1.0790   1.0919   1.1073   1.1129   1.1267
     1.1308   1.1490   1.1583   1.1851   1.1880   1.2089   1.2238   1.2339
     1.2554   1.2614   1.2782   1.2925   1.3020   1.3061   1.3250   1.3383
     1.3600   1.3685   1.3732   1.3863   1.4084   1.4120   1.4248   1.4359
     1.4444   1.4505   1.4685   1.4793   1.4835   1.5021   1.5114   1.5158
     1.5285   1.5450   1.5601   1.5702   1.5819   1.5888   1.6082   1.6233
     1.6268   1.6538   1.6641   1.6858   1.7035   1.7106   1.7318   1.7470
     1.7935   1.8091   1.8369   1.8537   1.9027   1.9393   1.9949   2.0098
     4.8785   4.9232   5.0291   5.1257   5.1613   5.2453   5.2610   5.3915
     5.4299   5.5164   5.5427   5.5854   5.6888   5.7628   5.8760   5.9400
     6.1871   6.2272   6.2905   6.3810   6.4354   6.4596   6.5118   6.5458
     6.5711   6.6086   6.6361   6.6955   6.7552   6.7657   6.8144   6.8316
     6.9068   6.9236   6.9729   7.0183   7.0685   7.1052   7.1582   7.1865
     7.2244   7.2492   7.2832   7.3044   7.3609   7.3874   7.4185   7.5064
     7.7477   7.7735   7.8158   7.8397   7.8580   7.8905   7.9197   7.9399
     7.9472   7.9770   7.9971   8.0342   8.0623   8.0786   8.0880   8.1129
     8.1604   8.1882   8.2450   8.2654   8.2854   8.3117   8.3243   8.3317
     8.3657   8.3805   8.3971   8.4053   8.4526   8.4654   8.4821   8.4949
     8.5262   8.5425   8.5563   8.5823   8.5966   8.6096   8.6395   8.6486
     8.6596   8.6750   8.6916   8.7067   8.7556   8.7868   8.8275   8.8343
     8.9140   8.9330   8.9513   8.9683   9.0246   9.0328   9.0551   9.0650
     9.0858   9.0989   9.1167   9.1363   9.1624   9.1743   9.1912   9.1998
     9.2208   9.2353   9.2591   9.2684   9.2990   9.3055   9.3165   9.3417
     9.3688   9.3781   9.3878   9.4012   9.4230   9.4348   9.4539   9.4617
     9.4905   9.4989   9.5245   9.5372   9.5547   9.5693   9.5916   9.6011
     9.6209   9.6278   9.6718   9.6796   9.7164   9.7234   9.7258   9.7385
     9.8943   9.9093  10.0134  10.0257

     occupation numbers 
     1.0000   1.0000   1.0000   1.0000   1.0000   1.0000   1.0000   1.0000
     1.0000   1.0000   1.0000   1.0000   1.0000   1.0000   1.0000   1.0000
     1.0000   1.0000   1.0000   1.0000   1.0000   1.0000   1.0000   1.0000
     1.0000   1.0000   1.0000   1.0000   1.0000   1.0000   1.0000   1.0000
     1.0000   1.0000   1.0000   1.0000   1.0000   1.0000   1.0000   1.0000
     1.0000   1.0000   1.0000   1.0000   1.0000   1.0000   1.0000   1.0000
     1.0000   1.0000   1.0000   1.0000   1.0000   1.0000   1.0000   1.0000
     1.0000   1.0000   1.0000   1.0000   1.0000   1.0000   1.0000   1.0000
     1.0000   1.0000   1.0000   1.0000   1.0000   1.0000   1.0000   1.0000
     1.0000   1.0000   1.0000   1.0000   1.0000   1.0000   1.0000   1.0000
     1.0000   1.0000   1.0000   1.0000   1.0000   1.0000   1.0000   1.0000
     1.0000   1.0000   1.0000   1.0000   1.0000   1.0000   1.0000   1.0000
     1.0000   1.0000   1.0000   1.0000   1.0000   1.0000   1.0000   1.0000
     1.0000   1.0000   1.0000   1.0000   1.0000   1.0000   1.0000   1.0000
     1.0000   1.0000   1.0000   1.0000   1.0000   1.0000   1.0000   1.0000
     1.0000   1.0000   1.0000   1.0000   1.0000   1.0000   1.0000   1.0000
     1.0000   1.0000   1.0000   1.0000   1.0000   1.0000   1.0000   1.0000
     1.0000   1.0000   1.0000   1.0000   1.0000   1.0000   1.0000   1.0000
     1.0000   1.0000   1.0000   1.0000   1.0000   1.0000   1.0000   1.0000
     1.0000   1.0000   1.0000   1.0000   1.0000   1.0000   1.0000   1.0000
     1.0000   1.0000   1.0000   1.0000   1.0000   1.0000   1.0000   1.0000
     1.0000   1.0000   1.0000   1.0000   1.0000   1.0000   1.0000   1.0000
     1.0000   1.0000   1.0000   1.0000   1.0000   1.0000   1.0000   1.0000
     1.0000   1.0000   1.0000   1.0000   1.0000   1.0000   1.0000   1.0000
     1.0000   1.0000   1.0000   1.0000   1.0000   1.0000   1.0000   1.0000
     1.0000   1.0000   1.0000   1.0000   1.0000   1.0000   1.0000   1.0000
     1.0000   1.0000   1.0000   1.0000   1.0000   1.0000   1.0000   1.0000
     1.0000   1.0000   1.0000   1.0000   1.0000   1.0000   1.0000   1.0000
     1.0000   1.0000   1.0000   1.0000   1.0000   1.0000   1.0000   1.0000
     1.0000   1.0000   1.0000   1.0000   1.0000   1.0000   1.0000   1.0000
     1.0000   1.0000   1.0000   1.0000   1.0000   1.0000   1.0000   1.0000
     1.0000   1.0000   1.0000   1.0000   1.0000   1.0000   1.0000   1.0000
     1.0000   1.0000   1.0000   1.0000   1.0000   1.0000   1.0000   1.0000
     1.0000   1.0000   1.0000   1.0000   1.0000   1.0000   1.0000   1.0000
     1.0000   1.0000   1.0000   1.0000   1.0000   1.0000   1.0000   1.0000
     1.0000   1.0000   1.0000   1.0000   1.0000   1.0000   1.0000   1.0000
     1.0000   1.0000   1.0000   1.0000   1.0000   1.0000   1.0000   1.0000
     1.0000   1.0000   1.0000   1.0000   1.0000   1.0000   1.0000   1.0000
     1.0000   1.0000   1.0000   1.0000   1.0000   1.0000   1.0000   1.0000
     1.0000   1.0000   1.0000   1.0000   1.0000   1.0000   1.0000   1.0000
     1.0000   1.0000   1.0000   1.0000   1.0000   1.0000   1.0000   1.0000
     1.0000   1.0000   1.0000   1.0000   1.0000   1.0000   1.0000   1.0000
     1.0000   1.0000   1.0000   1.0000   1.0000   1.0000   1.0000   1.0000
     1.0000   1.0000   1.0000   1.0000   1.0000   1.0000   1.0000   1.0000
     0.0000   0.0000   0.0000   0.0000   0.0000   0.0000   0.0000   0.0000
     0.0000   0.0000   0.0000   0.0000   0.0000   0.0000   0.0000   0.0000
     0.0000   0.0000   0.0000   0.0000   0.0000   0.0000   0.0000   0.0000
     0.0000   0.0000   0.0000   0.0000   0.0000   0.0000   0.0000   0.0000
     0.0000   0.0000   0.0000   0.0000   0.0000   0.0000   0.0000   0.0000
     0.0000   0.0000   0.0000   0.0000   0.0000   0.0000   0.0000   0.0000
     0.0000   0.0000   0.0000   0.0000   0.0000   0.0000   0.0000   0.0000
     0.0000   0.0000   0.0000   0.0000   0.0000   0.0000   0.0000   0.0000
     0.0000   0.0000   0.0000   0.0000   0.0000   0.0000   0.0000   0.0000
     0.0000   0.0000   0.0000   0.0000   0.0000   0.0000   0.0000   0.0000
     0.0000   0.0000   0.0000   0.0000   0.0000   0.0000   0.0000   0.0000
     0.0000   0.0000   0.0000   0.0000   0.0000   0.0000   0.0000   0.0000
     0.0000   0.0000   0.0000   0.0000   0.0000   0.0000   0.0000   0.0000
     0.0000   0.0000   0.0000   0.0000   0.0000   0.0000   0.0000   0.0000
     0.0000   0.0000   0.0000   0.0000   0.0000   0.0000   0.0000   0.0000
     0.0000   0.0000   0.0000   0.0000   0.0000   0.0000   0.0000   0.0000
     0.0000   0.0000   0.0000   0.0000   0.0000   0.0000   0.0000   0.0000
     0.0000   0.0000   0.0000   0.0000   0.0000   0.0000   0.0000   0.0000
     0.0000   0.0000   0.0000   0.0000

          k = 0.5000 0.3500 0.3500 ( 73946 PWs)   bands (ev):

   -18.1281 -18.1281 -18.0397 -18.0397 -17.9993 -17.9993 -17.9954 -17.9954
   -17.9650 -17.9650 -17.9608 -17.9608 -17.8047 -17.8047 -17.7796 -17.7796
   -15.3216 -15.3215 -15.3008 -15.3008 -15.2526 -15.2518 -15.2501 -15.2494
   -15.2402 -15.2401 -15.2354 -15.2353 -15.2228 -15.2228 -15.2148 -15.2148
   -15.1849 -15.1849 -15.1675 -15.1675 -15.0948 -15.0948 -15.0876 -15.0876
   -15.0732 -15.0732 -15.0690 -15.0690 -15.0092 -15.0092 -15.0005 -15.0005
   -12.7865 -12.7863 -12.7693 -12.7686 -12.7680 -12.7627 -12.7413 -12.7359
   -12.7264 -12.7263 -12.7230 -12.7225 -12.7163 -12.7157 -12.6939 -12.6928
   -12.6812 -12.6810 -12.6586 -12.6585 -12.6571 -12.6570 -12.6508 -12.6499
   -12.6462 -12.6458 -12.6338 -12.6336 -12.5930 -12.5924 -12.5900 -12.5899
   -12.5700 -12.5694 -12.5581 -12.5579 -12.5449 -12.5444 -12.5078 -12.5073
   -12.4986 -12.4984 -12.4924 -12.4921 -12.4907 -12.4906 -12.4172 -12.4172
   -11.3944 -11.3933 -11.3559 -11.3548 -11.2773 -11.2769 -11.2396 -11.2391
   -11.2139 -11.2127 -11.1698 -11.1693 -11.1114 -11.1103 -11.0771 -11.0757
   -11.0380 -11.0358 -11.0292 -11.0273 -10.9823 -10.9812 -10.9610 -10.9601
   -10.9405 -10.9384 -10.9222 -10.9216 -10.8938 -10.8921 -10.8425 -10.8416
   -10.8249 -10.8233 -10.7888 -10.7883 -10.7705 -10.7689 -10.6837 -10.6831
   -10.6450 -10.6446 -10.6256 -10.6250 -10.5988 -10.5984 -10.5469 -10.5465
    -6.0980  -6.0980  -6.0134  -6.0132  -5.9759  -5.9756  -5.9730  -5.9726
    -5.9424  -5.9400  -5.9370  -5.9345  -5.7960  -5.7959  -5.7737  -5.7734
    -5.0055  -5.0042  -4.9145  -4.9125  -4.8212  -4.8200  -4.7873  -4.7865
    -4.6928  -4.6908  -4.6133  -4.6108  -4.5207  -4.5176  -4.5051  -4.4968
    -4.4847  -4.4806  -4.4720  -4.4645  -4.4156  -4.4129  -4.3953  -4.3907
    -4.3840  -4.3828  -4.3759  -4.3745  -4.3640  -4.3628  -4.3579  -4.3570
    -4.3505  -4.3497  -4.3400  -4.3383  -4.3212  -4.3176  -4.3152  -4.3138
    -4.2148  -4.2141  -4.1886  -4.1873  -4.1858  -4.1849  -4.1759  -4.1745
    -0.7220  -0.6537  -0.4910  -0.4648  -0.4186  -0.4013  -0.3861  -0.3653
    -0.3451  -0.3202  -0.2891  -0.2816  -0.2755  -0.2574  -0.2414  -0.2204
    -0.2042  -0.1911  -0.1098  -0.1001  -0.0288  -0.0164  -0.0017   0.0238
     0.0585   0.0722   0.1044   0.1223   0.1458   0.1541   0.2166   0.2323
     0.2605   0.2698   0.2956   0.3098   0.3227   0.3377   0.3520   0.3654
     0.3805   0.3931   0.4050   0.4243   0.4390   0.4599   0.5083   0.5362
     0.6507   0.6647   0.6790   0.6888   0.7066   0.7236   0.7393   0.7514
     0.7632   0.7772   0.7843   0.7937   0.8032   0.8104   0.8247   0.8397
     0.8529   0.8731   0.8851   0.8930   0.9001   0.9118   0.9215   0.9409
     0.9461   0.9657   0.9754   0.9817   0.9934   1.0062   1.0179   1.0312
     1.0433   1.0559   1.0688   1.0834   1.0983   1.1135   1.1158   1.1323
     1.1368   1.1550   1.1607   1.1850   1.1947   1.2111   1.2260   1.2361
     1.2566   1.2607   1.2777   1.2928   1.3040   1.3063   1.3265   1.3375
     1.3617   1.3669   1.3721   1.3843   1.4086   1.4112   1.4236   1.4350
     1.4454   1.4508   1.4710   1.4810   1.4862   1.5045   1.5148   1.5181
     1.5330   1.5454   1.5625   1.5742   1.5860   1.5927   1.6105   1.6248
     1.6320   1.6561   1.6723   1.6886   1.7047   1.7130   1.7306   1.7529
     1.8081   1.8246   1.8501   1.8755   1.9273   1.9627   1.9988   2.0169
     4.8204   4.8571   4.9661   5.0588   5.1310   5.2099   5.2328   5.3596
     5.3973   5.4973   5.5133   5.5591   5.7152   5.7837   5.9002   5.9563
     6.1330   6.1690   6.2303   6.3515   6.3886   6.4371   6.4814   6.5157
     6.5531   6.5853   6.6233   6.6831   6.7401   6.7519   6.8049   6.8343
     6.9242   6.9501   7.0079   7.0450   7.0996   7.1379   7.1842   7.2184
     7.2671   7.2898   7.3376   7.3473   7.4058   7.4421   7.4625   7.5624
     7.7441   7.7675   7.8216   7.8489   7.8774   7.9042   7.9305   7.9542
     7.9649   7.9887   8.0087   8.0440   8.0691   8.0840   8.1013   8.1224
     8.1597   8.1870   8.2458   8.2640   8.2820   8.3010   8.3252   8.3414
     8.3691   8.3869   8.3964   8.4087   8.4601   8.4777   8.4949   8.5058
     8.5291   8.5458   8.5634   8.5807   8.6107   8.6213   8.6470   8.6570
     8.6724   8.6873   8.7010   8.7170   8.7552   8.7883   8.8203   8.8276
     8.9034   8.9252   8.9563   8.9728   9.0130   9.0229   9.0517   9.0587
     9.0692   9.0846   9.1020   9.1271   9.1569   9.1682   9.1845   9.1938
     9.2106   9.2226   9.2578   9.2651   9.2930   9.3002   9.3124   9.3327
     9.3610   9.3751   9.3813   9.3962   9.4197   9.4347   9.4529   9.4554
     9.4831   9.4942   9.5173   9.5312   9.5466   9.5619   9.5874   9.5932
     9.6155   9.6233   9.6659   9.6749   9.7200   9.7251   9.7303   9.7430
     9.8878   9.9016  10.0280  10.0400

     occupation numbers 
     1.0000   1.0000   1.0000   1.0000   1.0000   1.0000   1.0000   1.0000
     1.0000   1.0000   1.0000   1.0000   1.0000   1.0000   1.0000   1.0000
     1.0000   1.0000   1.0000   1.0000   1.0000   1.0000   1.0000   1.0000
     1.0000   1.0000   1.0000   1.0000   1.0000   1.0000   1.0000   1.0000
     1.0000   1.0000   1.0000   1.0000   1.0000   1.0000   1.0000   1.0000
     1.0000   1.0000   1.0000   1.0000   1.0000   1.0000   1.0000   1.0000
     1.0000   1.0000   1.0000   1.0000   1.0000   1.0000   1.0000   1.0000
     1.0000   1.0000   1.0000   1.0000   1.0000   1.0000   1.0000   1.0000
     1.0000   1.0000   1.0000   1.0000   1.0000   1.0000   1.0000   1.0000
     1.0000   1.0000   1.0000   1.0000   1.0000   1.0000   1.0000   1.0000
     1.0000   1.0000   1.0000   1.0000   1.0000   1.0000   1.0000   1.0000
     1.0000   1.0000   1.0000   1.0000   1.0000   1.0000   1.0000   1.0000
     1.0000   1.0000   1.0000   1.0000   1.0000   1.0000   1.0000   1.0000
     1.0000   1.0000   1.0000   1.0000   1.0000   1.0000   1.0000   1.0000
     1.0000   1.0000   1.0000   1.0000   1.0000   1.0000   1.0000   1.0000
     1.0000   1.0000   1.0000   1.0000   1.0000   1.0000   1.0000   1.0000
     1.0000   1.0000   1.0000   1.0000   1.0000   1.0000   1.0000   1.0000
     1.0000   1.0000   1.0000   1.0000   1.0000   1.0000   1.0000   1.0000
     1.0000   1.0000   1.0000   1.0000   1.0000   1.0000   1.0000   1.0000
     1.0000   1.0000   1.0000   1.0000   1.0000   1.0000   1.0000   1.0000
     1.0000   1.0000   1.0000   1.0000   1.0000   1.0000   1.0000   1.0000
     1.0000   1.0000   1.0000   1.0000   1.0000   1.0000   1.0000   1.0000
     1.0000   1.0000   1.0000   1.0000   1.0000   1.0000   1.0000   1.0000
     1.0000   1.0000   1.0000   1.0000   1.0000   1.0000   1.0000   1.0000
     1.0000   1.0000   1.0000   1.0000   1.0000   1.0000   1.0000   1.0000
     1.0000   1.0000   1.0000   1.0000   1.0000   1.0000   1.0000   1.0000
     1.0000   1.0000   1.0000   1.0000   1.0000   1.0000   1.0000   1.0000
     1.0000   1.0000   1.0000   1.0000   1.0000   1.0000   1.0000   1.0000
     1.0000   1.0000   1.0000   1.0000   1.0000   1.0000   1.0000   1.0000
     1.0000   1.0000   1.0000   1.0000   1.0000   1.0000   1.0000   1.0000
     1.0000   1.0000   1.0000   1.0000   1.0000   1.0000   1.0000   1.0000
     1.0000   1.0000   1.0000   1.0000   1.0000   1.0000   1.0000   1.0000
     1.0000   1.0000   1.0000   1.0000   1.0000   1.0000   1.0000   1.0000
     1.0000   1.0000   1.0000   1.0000   1.0000   1.0000   1.0000   1.0000
     1.0000   1.0000   1.0000   1.0000   1.0000   1.0000   1.0000   1.0000
     1.0000   1.0000   1.0000   1.0000   1.0000   1.0000   1.0000   1.0000
     1.0000   1.0000   1.0000   1.0000   1.0000   1.0000   1.0000   1.0000
     1.0000   1.0000   1.0000   1.0000   1.0000   1.0000   1.0000   1.0000
     1.0000   1.0000   1.0000   1.0000   1.0000   1.0000   1.0000   1.0000
     1.0000   1.0000   1.0000   1.0000   1.0000   1.0000   1.0000   1.0000
     1.0000   1.0000   1.0000   1.0000   1.0000   1.0000   1.0000   1.0000
     1.0000   1.0000   1.0000   1.0000   1.0000   1.0000   1.0000   1.0000
     1.0000   1.0000   1.0000   1.0000   1.0000   1.0000   1.0000   1.0000
     1.0000   1.0000   1.0000   1.0000   1.0000   1.0000   1.0000   1.0000
     0.0000   0.0000   0.0000   0.0000   0.0000   0.0000   0.0000   0.0000
     0.0000   0.0000   0.0000   0.0000   0.0000   0.0000   0.0000   0.0000
     0.0000   0.0000   0.0000   0.0000   0.0000   0.0000   0.0000   0.0000
     0.0000   0.0000   0.0000   0.0000   0.0000   0.0000   0.0000   0.0000
     0.0000   0.0000   0.0000   0.0000   0.0000   0.0000   0.0000   0.0000
     0.0000   0.0000   0.0000   0.0000   0.0000   0.0000   0.0000   0.0000
     0.0000   0.0000   0.0000   0.0000   0.0000   0.0000   0.0000   0.0000
     0.0000   0.0000   0.0000   0.0000   0.0000   0.0000   0.0000   0.0000
     0.0000   0.0000   0.0000   0.0000   0.0000   0.0000   0.0000   0.0000
     0.0000   0.0000   0.0000   0.0000   0.0000   0.0000   0.0000   0.0000
     0.0000   0.0000   0.0000   0.0000   0.0000   0.0000   0.0000   0.0000
     0.0000   0.0000   0.0000   0.0000   0.0000   0.0000   0.0000   0.0000
     0.0000   0.0000   0.0000   0.0000   0.0000   0.0000   0.0000   0.0000
     0.0000   0.0000   0.0000   0.0000   0.0000   0.0000   0.0000   0.0000
     0.0000   0.0000   0.0000   0.0000   0.0000   0.0000   0.0000   0.0000
     0.0000   0.0000   0.0000   0.0000   0.0000   0.0000   0.0000   0.0000
     0.0000   0.0000   0.0000   0.0000   0.0000   0.0000   0.0000   0.0000
     0.0000   0.0000   0.0000   0.0000   0.0000   0.0000   0.0000   0.0000
     0.0000   0.0000   0.0000   0.0000

          k = 0.5000 0.3250 0.3250 ( 73896 PWs)   bands (ev):

   -18.1281 -18.1281 -18.0397 -18.0397 -17.9993 -17.9993 -17.9954 -17.9954
   -17.9650 -17.9650 -17.9608 -17.9608 -17.8047 -17.8047 -17.7796 -17.7796
   -15.3215 -15.3215 -15.3008 -15.3008 -15.2528 -15.2519 -15.2499 -15.2492
   -15.2402 -15.2401 -15.2354 -15.2352 -15.2228 -15.2228 -15.2148 -15.2148
   -15.1849 -15.1849 -15.1675 -15.1675 -15.0948 -15.0948 -15.0876 -15.0876
   -15.0732 -15.0732 -15.0690 -15.0690 -15.0092 -15.0092 -15.0005 -15.0005
   -12.7866 -12.7864 -12.7701 -12.7690 -12.7686 -12.7643 -12.7398 -12.7345
   -12.7264 -12.7263 -12.7229 -12.7224 -12.7164 -12.7157 -12.6945 -12.6933
   -12.6815 -12.6813 -12.6585 -12.6584 -12.6571 -12.6569 -12.6503 -12.6494
   -12.6459 -12.6454 -12.6338 -12.6336 -12.5929 -12.5923 -12.5900 -12.5899
   -12.5699 -12.5692 -12.5583 -12.5581 -12.5448 -12.5443 -12.5077 -12.5071
   -12.4986 -12.4984 -12.4923 -12.4919 -12.4907 -12.4906 -12.4172 -12.4172
   -11.3953 -11.3942 -11.3545 -11.3533 -11.2765 -11.2761 -11.2414 -11.2410
   -11.2129 -11.2116 -11.1685 -11.1680 -11.1087 -11.1077 -11.0772 -11.0758
   -11.0383 -11.0363 -11.0299 -11.0279 -10.9838 -10.9827 -10.9637 -10.9626
   -10.9429 -10.9405 -10.9220 -10.9212 -10.8943 -10.8925 -10.8432 -10.8422
   -10.8244 -10.8227 -10.7888 -10.7883 -10.7694 -10.7676 -10.6850 -10.6844
   -10.6442 -10.6439 -10.6241 -10.6236 -10.5988 -10.5983 -10.5462 -10.5458
    -6.0980  -6.0980  -6.0135  -6.0132  -5.9760  -5.9756  -5.9730  -5.9726
    -5.9425  -5.9398  -5.9371  -5.9344  -5.7960  -5.7959  -5.7737  -5.7734
    -5.0290  -5.0277  -4.9392  -4.9374  -4.8151  -4.8137  -4.7835  -4.7825
    -4.6879  -4.6855  -4.6137  -4.6112  -4.5066  -4.5043  -4.4917  -4.4850
    -4.4807  -4.4784  -4.4548  -4.4457  -4.4149  -4.4107  -4.3947  -4.3887
    -4.3833  -4.3820  -4.3752  -4.3730  -4.3641  -4.3623  -4.3571  -4.3563
    -4.3501  -4.3489  -4.3395  -4.3377  -4.3211  -4.3173  -4.3149  -4.3136
    -4.2147  -4.2139  -4.1886  -4.1872  -4.1858  -4.1847  -4.1758  -4.1743
    -0.7632  -0.6929  -0.5212  -0.4976  -0.4508  -0.4317  -0.4147  -0.3958
    -0.3742  -0.3443  -0.3140  -0.3029  -0.2920  -0.2721  -0.2536  -0.2406
    -0.2205  -0.2071  -0.1185  -0.1074  -0.0267  -0.0153   0.0057   0.0347
     0.0540   0.0725   0.1173   0.1403   0.1520   0.1709   0.2170   0.2337
     0.2631   0.2786   0.3138   0.3250   0.3391   0.3508   0.3669   0.3788
     0.3953   0.4047   0.4244   0.4381   0.4511   0.4764   0.5174   0.5473
     0.6502   0.6617   0.6784   0.6899   0.7051   0.7275   0.7423   0.7504
     0.7648   0.7782   0.7890   0.7969   0.8095   0.8145   0.8301   0.8457
     0.8550   0.8755   0.8905   0.8979   0.9054   0.9149   0.9280   0.9438
     0.9502   0.9715   0.9801   0.9856   0.9988   1.0121   1.0240   1.0342
     1.0485   1.0569   1.0742   1.0876   1.1034   1.1161   1.1229   1.1372
     1.1422   1.1613   1.1637   1.1845   1.2022   1.2134   1.2276   1.2384
     1.2554   1.2620   1.2771   1.2909   1.3048   1.3087   1.3294   1.3365
     1.3619   1.3666   1.3715   1.3821   1.4072   1.4111   1.4229   1.4345
     1.4452   1.4523   1.4732   1.4821   1.4881   1.5065   1.5165   1.5225
     1.5379   1.5479   1.5641   1.5782   1.5897   1.5977   1.6129   1.6283
     1.6356   1.6588   1.6813   1.6940   1.7066   1.7155   1.7302   1.7603
     1.8228   1.8430   1.8660   1.9026   1.9563   1.9870   2.0063   2.0262
     4.7569   4.7907   4.8978   4.9868   5.1000   5.1737   5.2013   5.3250
     5.3624   5.4549   5.4917   5.5327   5.7394   5.7989   5.9182   5.9576
     6.0871   6.1116   6.1733   6.3112   6.3516   6.4187   6.4536   6.4897
     6.5351   6.5681   6.6098   6.6727   6.7232   6.7389   6.7941   6.8318
     6.9417   6.9831   7.0395   7.0787   7.1270   7.1658   7.2113   7.2494
     7.3091   7.3372   7.3874   7.3956   7.4485   7.4945   7.5123   7.6127
     7.7462   7.7661   7.8320   7.8595   7.8974   7.9208   7.9430   7.9700
     7.9850   7.9992   8.0226   8.0541   8.0769   8.0897   8.1127   8.1316
     8.1613   8.1868   8.2466   8.2629   8.2757   8.2913   8.3329   8.3529
     8.3731   8.3925   8.3995   8.4147   8.4692   8.4886   8.5062   8.5172
     8.5348   8.5523   8.5666   8.5800   8.6229   8.6383   8.6519   8.6643
     8.6866   8.7013   8.7122   8.7280   8.7559   8.7885   8.8134   8.8238
     8.8931   8.9164   8.9524   8.9703   9.0047   9.0163   9.0385   9.0502
     9.0627   9.0716   9.0869   9.1153   9.1485   9.1614   9.1760   9.1860
     9.1945   9.2119   9.2553   9.2678   9.2836   9.3006   9.3092   9.3233
     9.3528   9.3687   9.3806   9.3904   9.4115   9.4314   9.4499   9.4549
     9.4732   9.4917   9.5130   9.5270   9.5407   9.5549   9.5815   9.5860
     9.6102   9.6185   9.6594   9.6697   9.7218   9.7273   9.7368   9.7481
     9.8828   9.8949  10.0357  10.0489

     occupation numbers 
     1.0000   1.0000   1.0000   1.0000   1.0000   1.0000   1.0000   1.0000
     1.0000   1.0000   1.0000   1.0000   1.0000   1.0000   1.0000   1.0000
     1.0000   1.0000   1.0000   1.0000   1.0000   1.0000   1.0000   1.0000
     1.0000   1.0000   1.0000   1.0000   1.0000   1.0000   1.0000   1.0000
     1.0000   1.0000   1.0000   1.0000   1.0000   1.0000   1.0000   1.0000
     1.0000   1.0000   1.0000   1.0000   1.0000   1.0000   1.0000   1.0000
     1.0000   1.0000   1.0000   1.0000   1.0000   1.0000   1.0000   1.0000
     1.0000   1.0000   1.0000   1.0000   1.0000   1.0000   1.0000   1.0000
     1.0000   1.0000   1.0000   1.0000   1.0000   1.0000   1.0000   1.0000
     1.0000   1.0000   1.0000   1.0000   1.0000   1.0000   1.0000   1.0000
     1.0000   1.0000   1.0000   1.0000   1.0000   1.0000   1.0000   1.0000
     1.0000   1.0000   1.0000   1.0000   1.0000   1.0000   1.0000   1.0000
     1.0000   1.0000   1.0000   1.0000   1.0000   1.0000   1.0000   1.0000
     1.0000   1.0000   1.0000   1.0000   1.0000   1.0000   1.0000   1.0000
     1.0000   1.0000   1.0000   1.0000   1.0000   1.0000   1.0000   1.0000
     1.0000   1.0000   1.0000   1.0000   1.0000   1.0000   1.0000   1.0000
     1.0000   1.0000   1.0000   1.0000   1.0000   1.0000   1.0000   1.0000
     1.0000   1.0000   1.0000   1.0000   1.0000   1.0000   1.0000   1.0000
     1.0000   1.0000   1.0000   1.0000   1.0000   1.0000   1.0000   1.0000
     1.0000   1.0000   1.0000   1.0000   1.0000   1.0000   1.0000   1.0000
     1.0000   1.0000   1.0000   1.0000   1.0000   1.0000   1.0000   1.0000
     1.0000   1.0000   1.0000   1.0000   1.0000   1.0000   1.0000   1.0000
     1.0000   1.0000   1.0000   1.0000   1.0000   1.0000   1.0000   1.0000
     1.0000   1.0000   1.0000   1.0000   1.0000   1.0000   1.0000   1.0000
     1.0000   1.0000   1.0000   1.0000   1.0000   1.0000   1.0000   1.0000
     1.0000   1.0000   1.0000   1.0000   1.0000   1.0000   1.0000   1.0000
     1.0000   1.0000   1.0000   1.0000   1.0000   1.0000   1.0000   1.0000
     1.0000   1.0000   1.0000   1.0000   1.0000   1.0000   1.0000   1.0000
     1.0000   1.0000   1.0000   1.0000   1.0000   1.0000   1.0000   1.0000
     1.0000   1.0000   1.0000   1.0000   1.0000   1.0000   1.0000   1.0000
     1.0000   1.0000   1.0000   1.0000   1.0000   1.0000   1.0000   1.0000
     1.0000   1.0000   1.0000   1.0000   1.0000   1.0000   1.0000   1.0000
     1.0000   1.0000   1.0000   1.0000   1.0000   1.0000   1.0000   1.0000
     1.0000   1.0000   1.0000   1.0000   1.0000   1.0000   1.0000   1.0000
     1.0000   1.0000   1.0000   1.0000   1.0000   1.0000   1.0000   1.0000
     1.0000   1.0000   1.0000   1.0000   1.0000   1.0000   1.0000   1.0000
     1.0000   1.0000   1.0000   1.0000   1.0000   1.0000   1.0000   1.0000
     1.0000   1.0000   1.0000   1.0000   1.0000   1.0000   1.0000   1.0000
     1.0000   1.0000   1.0000   1.0000   1.0000   1.0000   1.0000   1.0000
     1.0000   1.0000   1.0000   1.0000   1.0000   1.0000   1.0000   1.0000
     1.0000   1.0000   1.0000   1.0000   1.0000   1.0000   1.0000   1.0000
     1.0000   1.0000   1.0000   1.0000   1.0000   1.0000   1.0000   1.0000
     1.0000   1.0000   1.0000   1.0000   1.0000   1.0000   1.0000   1.0000
     1.0000   1.0000   1.0000   1.0000   1.0000   1.0000   1.0000   1.0000
     0.0000   0.0000   0.0000   0.0000   0.0000   0.0000   0.0000   0.0000
     0.0000   0.0000   0.0000   0.0000   0.0000   0.0000   0.0000   0.0000
     0.0000   0.0000   0.0000   0.0000   0.0000   0.0000   0.0000   0.0000
     0.0000   0.0000   0.0000   0.0000   0.0000   0.0000   0.0000   0.0000
     0.0000   0.0000   0.0000   0.0000   0.0000   0.0000   0.0000   0.0000
     0.0000   0.0000   0.0000   0.0000   0.0000   0.0000   0.0000   0.0000
     0.0000   0.0000   0.0000   0.0000   0.0000   0.0000   0.0000   0.0000
     0.0000   0.0000   0.0000   0.0000   0.0000   0.0000   0.0000   0.0000
     0.0000   0.0000   0.0000   0.0000   0.0000   0.0000   0.0000   0.0000
     0.0000   0.0000   0.0000   0.0000   0.0000   0.0000   0.0000   0.0000
     0.0000   0.0000   0.0000   0.0000   0.0000   0.0000   0.0000   0.0000
     0.0000   0.0000   0.0000   0.0000   0.0000   0.0000   0.0000   0.0000
     0.0000   0.0000   0.0000   0.0000   0.0000   0.0000   0.0000   0.0000
     0.0000   0.0000   0.0000   0.0000   0.0000   0.0000   0.0000   0.0000
     0.0000   0.0000   0.0000   0.0000   0.0000   0.0000   0.0000   0.0000
     0.0000   0.0000   0.0000   0.0000   0.0000   0.0000   0.0000   0.0000
     0.0000   0.0000   0.0000   0.0000   0.0000   0.0000   0.0000   0.0000
     0.0000   0.0000   0.0000   0.0000   0.0000   0.0000   0.0000   0.0000
     0.0000   0.0000   0.0000   0.0000

          k = 0.5000 0.3000 0.3000 ( 73906 PWs)   bands (ev):

   -18.1281 -18.1281 -18.0397 -18.0397 -17.9993 -17.9993 -17.9954 -17.9954
   -17.9650 -17.9650 -17.9608 -17.9608 -17.8047 -17.8047 -17.7796 -17.7796
   -15.3216 -15.3215 -15.3008 -15.3008 -15.2530 -15.2521 -15.2498 -15.2491
   -15.2402 -15.2401 -15.2354 -15.2352 -15.2228 -15.2228 -15.2148 -15.2148
   -15.1849 -15.1849 -15.1675 -15.1675 -15.0948 -15.0948 -15.0876 -15.0876
   -15.0732 -15.0732 -15.0690 -15.0690 -15.0092 -15.0092 -15.0005 -15.0005
   -12.7867 -12.7864 -12.7715 -12.7693 -12.7688 -12.7660 -12.7382 -12.7333
   -12.7264 -12.7263 -12.7229 -12.7223 -12.7165 -12.7157 -12.6951 -12.6939
   -12.6818 -12.6816 -12.6584 -12.6583 -12.6571 -12.6569 -12.6498 -12.6489
   -12.6455 -12.6450 -12.6338 -12.6336 -12.5928 -12.5921 -12.5900 -12.5899
   -12.5697 -12.5690 -12.5585 -12.5583 -12.5447 -12.5441 -12.5075 -12.5069
   -12.4986 -12.4985 -12.4921 -12.4918 -12.4907 -12.4905 -12.4172 -12.4172
   -11.3963 -11.3952 -11.3530 -11.3518 -11.2762 -11.2757 -11.2424 -11.2420
   -11.2119 -11.2104 -11.1675 -11.1670 -11.1059 -11.1050 -11.0773 -11.0759
   -11.0391 -11.0367 -11.0302 -11.0278 -10.9855 -10.9843 -10.9667 -10.9655
   -10.9455 -10.9429 -10.9217 -10.9208 -10.8947 -10.8929 -10.8438 -10.8428
   -10.8239 -10.8222 -10.7890 -10.7884 -10.7682 -10.7663 -10.6860 -10.6855
   -10.6436 -10.6434 -10.6229 -10.6223 -10.5985 -10.5981 -10.5454 -10.5450
    -6.0980  -6.0980  -6.0135  -6.0132  -5.9760  -5.9756  -5.9730  -5.9726
    -5.9425  -5.9397  -5.9373  -5.9343  -5.7960  -5.7959  -5.7737  -5.7734
    -5.0518  -5.0504  -4.9629  -4.9613  -4.8086  -4.8070  -4.7786  -4.7775
    -4.6843  -4.6817  -4.6150  -4.6125  -4.5036  -4.5033  -4.4822  -4.4810
    -4.4632  -4.4608  -4.4394  -4.4278  -4.4133  -4.4065  -4.3936  -4.3863
    -4.3820  -4.3808  -4.3737  -4.3705  -4.3641  -4.3611  -4.3566  -4.3542
    -4.3494  -4.3474  -4.3383  -4.3366  -4.3207  -4.3170  -4.3144  -4.3133
    -4.2146  -4.2136  -4.1887  -4.1872  -4.1857  -4.1846  -4.1758  -4.1741
    -0.8022  -0.7307  -0.5510  -0.5310  -0.4838  -0.4633  -0.4454  -0.4278
    -0.4053  -0.3700  -0.3409  -0.3257  -0.3130  -0.2951  -0.2762  -0.2629
    -0.2257  -0.2092  -0.1270  -0.1149  -0.0245  -0.0137   0.0130   0.0405
     0.0504   0.0716   0.1262   0.1490   0.1662   0.1884   0.2196   0.2348
     0.2661   0.2899   0.3272   0.3397   0.3508   0.3633   0.3768   0.3932
     0.4126   0.4200   0.4448   0.4521   0.4619   0.4946   0.5269   0.5594
     0.6502   0.6610   0.6782   0.6911   0.7051   0.7320   0.7452   0.7518
     0.7661   0.7806   0.7936   0.8004   0.8154   0.8193   0.8363   0.8526
     0.8573   0.8785   0.8956   0.9031   0.9130   0.9186   0.9344   0.9457
     0.9561   0.9766   0.9846   0.9913   1.0048   1.0170   1.0291   1.0382
     1.0523   1.0608   1.0795   1.0912   1.1072   1.1198   1.1303   1.1415
     1.1468   1.1634   1.1700   1.1854   1.2078   1.2174   1.2291   1.2407
     1.2525   1.2646   1.2766   1.2882   1.3039   1.3123   1.3330   1.3361
     1.3603   1.3676   1.3711   1.3803   1.4051   1.4110   1.4224   1.4340
     1.4444   1.4543   1.4744   1.4834   1.4888   1.5077   1.5185   1.5276
     1.5419   1.5517   1.5663   1.5823   1.5934   1.6022   1.6149   1.6328
     1.6394   1.6629   1.6899   1.7004   1.7102   1.7189   1.7323   1.7691
     1.8379   1.8621   1.8851   1.9337   1.9885   2.0034   2.0259   2.0397
     4.6893   4.7253   4.8271   4.9124   5.0661   5.1371   5.1671   5.2875
     5.3273   5.4074   5.4677   5.5025   5.7591   5.8035   5.9150   5.9433
     6.0450   6.0749   6.1249   6.2654   6.3280   6.3999   6.4329   6.4674
     6.5165   6.5564   6.5966   6.6642   6.7066   6.7273   6.7827   6.8267
     6.9623   7.0127   7.0638   7.1148   7.1438   7.1929   7.2434   7.2814
     7.3485   7.3907   7.4278   7.4505   7.4910   7.5430   7.5649   7.6542
     7.7564   7.7735   7.8453   7.8706   7.9157   7.9407   7.9572   7.9865
     8.0049   8.0092   8.0347   8.0626   8.0877   8.0991   8.1204   8.1405
     8.1656   8.1900   8.2478   8.2611   8.2721   8.2855   8.3428   8.3644
     8.3778   8.3988   8.4054   8.4219   8.4796   8.4959   8.5163   8.5237
     8.5471   8.5620   8.5696   8.5816   8.6323   8.6511   8.6589   8.6703
     8.7004   8.7146   8.7260   8.7387   8.7583   8.7871   8.8090   8.8239
     8.8842   8.9079   8.9406   8.9596   8.9985   9.0101   9.0205   9.0379
     9.0576   9.0619   9.0781   9.1033   9.1364   9.1498   9.1638   9.1753
     9.1863   9.2042   9.2524   9.2676   9.2780   9.3005   9.3044   9.3183
     9.3438   9.3619   9.3834   9.3863   9.4044   9.4252   9.4431   9.4546
     9.4645   9.4889   9.5114   9.5239   9.5379   9.5483   9.5741   9.5804
     9.6050   9.6131   9.6529   9.6644   9.7224   9.7301   9.7437   9.7534
     9.8792   9.8892  10.0285  10.0398

     occupation numbers 
     1.0000   1.0000   1.0000   1.0000   1.0000   1.0000   1.0000   1.0000
     1.0000   1.0000   1.0000   1.0000   1.0000   1.0000   1.0000   1.0000
     1.0000   1.0000   1.0000   1.0000   1.0000   1.0000   1.0000   1.0000
     1.0000   1.0000   1.0000   1.0000   1.0000   1.0000   1.0000   1.0000
     1.0000   1.0000   1.0000   1.0000   1.0000   1.0000   1.0000   1.0000
     1.0000   1.0000   1.0000   1.0000   1.0000   1.0000   1.0000   1.0000
     1.0000   1.0000   1.0000   1.0000   1.0000   1.0000   1.0000   1.0000
     1.0000   1.0000   1.0000   1.0000   1.0000   1.0000   1.0000   1.0000
     1.0000   1.0000   1.0000   1.0000   1.0000   1.0000   1.0000   1.0000
     1.0000   1.0000   1.0000   1.0000   1.0000   1.0000   1.0000   1.0000
     1.0000   1.0000   1.0000   1.0000   1.0000   1.0000   1.0000   1.0000
     1.0000   1.0000   1.0000   1.0000   1.0000   1.0000   1.0000   1.0000
     1.0000   1.0000   1.0000   1.0000   1.0000   1.0000   1.0000   1.0000
     1.0000   1.0000   1.0000   1.0000   1.0000   1.0000   1.0000   1.0000
     1.0000   1.0000   1.0000   1.0000   1.0000   1.0000   1.0000   1.0000
     1.0000   1.0000   1.0000   1.0000   1.0000   1.0000   1.0000   1.0000
     1.0000   1.0000   1.0000   1.0000   1.0000   1.0000   1.0000   1.0000
     1.0000   1.0000   1.0000   1.0000   1.0000   1.0000   1.0000   1.0000
     1.0000   1.0000   1.0000   1.0000   1.0000   1.0000   1.0000   1.0000
     1.0000   1.0000   1.0000   1.0000   1.0000   1.0000   1.0000   1.0000
     1.0000   1.0000   1.0000   1.0000   1.0000   1.0000   1.0000   1.0000
     1.0000   1.0000   1.0000   1.0000   1.0000   1.0000   1.0000   1.0000
     1.0000   1.0000   1.0000   1.0000   1.0000   1.0000   1.0000   1.0000
     1.0000   1.0000   1.0000   1.0000   1.0000   1.0000   1.0000   1.0000
     1.0000   1.0000   1.0000   1.0000   1.0000   1.0000   1.0000   1.0000
     1.0000   1.0000   1.0000   1.0000   1.0000   1.0000   1.0000   1.0000
     1.0000   1.0000   1.0000   1.0000   1.0000   1.0000   1.0000   1.0000
     1.0000   1.0000   1.0000   1.0000   1.0000   1.0000   1.0000   1.0000
     1.0000   1.0000   1.0000   1.0000   1.0000   1.0000   1.0000   1.0000
     1.0000   1.0000   1.0000   1.0000   1.0000   1.0000   1.0000   1.0000
     1.0000   1.0000   1.0000   1.0000   1.0000   1.0000   1.0000   1.0000
     1.0000   1.0000   1.0000   1.0000   1.0000   1.0000   1.0000   1.0000
     1.0000   1.0000   1.0000   1.0000   1.0000   1.0000   1.0000   1.0000
     1.0000   1.0000   1.0000   1.0000   1.0000   1.0000   1.0000   1.0000
     1.0000   1.0000   1.0000   1.0000   1.0000   1.0000   1.0000   1.0000
     1.0000   1.0000   1.0000   1.0000   1.0000   1.0000   1.0000   1.0000
     1.0000   1.0000   1.0000   1.0000   1.0000   1.0000   1.0000   1.0000
     1.0000   1.0000   1.0000   1.0000   1.0000   1.0000   1.0000   1.0000
     1.0000   1.0000   1.0000   1.0000   1.0000   1.0000   1.0000   1.0000
     1.0000   1.0000   1.0000   1.0000   1.0000   1.0000   1.0000   1.0000
     1.0000   1.0000   1.0000   1.0000   1.0000   1.0000   1.0000   1.0000
     1.0000   1.0000   1.0000   1.0000   1.0000   1.0000   1.0000   1.0000
     1.0000   1.0000   1.0000   1.0000   1.0000   1.0000   1.0000   1.0000
     1.0000   1.0000   1.0000   1.0000   1.0000   1.0000   1.0000   1.0000
     0.0000   0.0000   0.0000   0.0000   0.0000   0.0000   0.0000   0.0000
     0.0000   0.0000   0.0000   0.0000   0.0000   0.0000   0.0000   0.0000
     0.0000   0.0000   0.0000   0.0000   0.0000   0.0000   0.0000   0.0000
     0.0000   0.0000   0.0000   0.0000   0.0000   0.0000   0.0000   0.0000
     0.0000   0.0000   0.0000   0.0000   0.0000   0.0000   0.0000   0.0000
     0.0000   0.0000   0.0000   0.0000   0.0000   0.0000   0.0000   0.0000
     0.0000   0.0000   0.0000   0.0000   0.0000   0.0000   0.0000   0.0000
     0.0000   0.0000   0.0000   0.0000   0.0000   0.0000   0.0000   0.0000
     0.0000   0.0000   0.0000   0.0000   0.0000   0.0000   0.0000   0.0000
     0.0000   0.0000   0.0000   0.0000   0.0000   0.0000   0.0000   0.0000
     0.0000   0.0000   0.0000   0.0000   0.0000   0.0000   0.0000   0.0000
     0.0000   0.0000   0.0000   0.0000   0.0000   0.0000   0.0000   0.0000
     0.0000   0.0000   0.0000   0.0000   0.0000   0.0000   0.0000   0.0000
     0.0000   0.0000   0.0000   0.0000   0.0000   0.0000   0.0000   0.0000
     0.0000   0.0000   0.0000   0.0000   0.0000   0.0000   0.0000   0.0000
     0.0000   0.0000   0.0000   0.0000   0.0000   0.0000   0.0000   0.0000
     0.0000   0.0000   0.0000   0.0000   0.0000   0.0000   0.0000   0.0000
     0.0000   0.0000   0.0000   0.0000   0.0000   0.0000   0.0000   0.0000
     0.0000   0.0000   0.0000   0.0000

          k = 0.5000 0.2750 0.2750 ( 73890 PWs)   bands (ev):

   -18.1281 -18.1281 -18.0397 -18.0397 -17.9993 -17.9993 -17.9954 -17.9954
   -17.9650 -17.9650 -17.9608 -17.9608 -17.8047 -17.8047 -17.7796 -17.7796
   -15.3216 -15.3215 -15.3008 -15.3008 -15.2531 -15.2523 -15.2496 -15.2490
   -15.2402 -15.2401 -15.2353 -15.2351 -15.2228 -15.2228 -15.2148 -15.2148
   -15.1849 -15.1849 -15.1675 -15.1675 -15.0948 -15.0948 -15.0876 -15.0876
   -15.0732 -15.0732 -15.0690 -15.0690 -15.0092 -15.0092 -15.0005 -15.0005
   -12.7868 -12.7865 -12.7728 -12.7695 -12.7690 -12.7676 -12.7367 -12.7322
   -12.7264 -12.7263 -12.7228 -12.7221 -12.7166 -12.7158 -12.6957 -12.6945
   -12.6821 -12.6819 -12.6583 -12.6582 -12.6571 -12.6569 -12.6493 -12.6484
   -12.6451 -12.6445 -12.6337 -12.6336 -12.5927 -12.5920 -12.5900 -12.5899
   -12.5696 -12.5689 -12.5587 -12.5585 -12.5445 -12.5439 -12.5072 -12.5066
   -12.4986 -12.4985 -12.4919 -12.4916 -12.4906 -12.4904 -12.4172 -12.4172
   -11.3974 -11.3962 -11.3513 -11.3502 -11.2764 -11.2759 -11.2423 -11.2420
   -11.2109 -11.2094 -11.1667 -11.1662 -11.1033 -11.1025 -11.0774 -11.0759
   -11.0403 -11.0376 -11.0299 -11.0270 -10.9873 -10.9860 -10.9701 -10.9688
   -10.9482 -10.9454 -10.9213 -10.9204 -10.8950 -10.8933 -10.8444 -10.8434
   -10.8236 -10.8218 -10.7892 -10.7885 -10.7667 -10.7648 -10.6868 -10.6863
   -10.6431 -10.6429 -10.6219 -10.6214 -10.5981 -10.5977 -10.5445 -10.5441
    -6.0980  -6.0980  -6.0135  -6.0132  -5.9760  -5.9756  -5.9731  -5.9726
    -5.9425  -5.9396  -5.9373  -5.9342  -5.7960  -5.7958  -5.7738  -5.7734
    -5.0734  -5.0721  -4.9854  -4.9839  -4.8017  -4.7999  -4.7728  -4.7716
    -4.6819  -4.6790  -4.6168  -4.6144  -4.5032  -4.5024  -4.4813  -4.4804
    -4.4430  -4.4404  -4.4281  -4.4164  -4.4092  -4.4002  -4.3914  -4.3845
    -4.3800  -4.3785  -4.3703  -4.3676  -4.3638  -4.3585  -4.3558  -4.3513
    -4.3474  -4.3452  -4.3359  -4.3335  -4.3198  -4.3167  -4.3136  -4.3128
    -4.2144  -4.2133  -4.1887  -4.1871  -4.1856  -4.1843  -4.1757  -4.1738
    -0.8385  -0.7668  -0.5800  -0.5645  -0.5165  -0.4950  -0.4772  -0.4605
    -0.4371  -0.3962  -0.3677  -0.3500  -0.3357  -0.3205  -0.3028  -0.2881
    -0.2226  -0.2073  -0.1346  -0.1223  -0.0222  -0.0117   0.0196   0.0402
     0.0509   0.0727   0.1310   0.1499   0.1818   0.1970   0.2268   0.2389
     0.2694   0.3028   0.3357   0.3514   0.3639   0.3748   0.3856   0.4047
     0.4257   0.4386   0.4619   0.4663   0.4743   0.5145   0.5376   0.5720
     0.6507   0.6632   0.6786   0.6929   0.7067   0.7362   0.7481   0.7564
     0.7676   0.7843   0.7975   0.8052   0.8190   0.8266   0.8422   0.8572
     0.8636   0.8822   0.9008   0.9085   0.9210   0.9240   0.9400   0.9487
     0.9613   0.9811   0.9893   0.9984   1.0101   1.0219   1.0331   1.0422
     1.0559   1.0667   1.0843   1.0943   1.1099   1.1248   1.1370   1.1452
     1.1504   1.1638   1.1757   1.1881   1.2104   1.2237   1.2307   1.2424
     1.2494   1.2670   1.2764   1.2855   1.3028   1.3154   1.3334   1.3392
     1.3583   1.3683   1.3708   1.3794   1.4030   1.4107   1.4222   1.4335
     1.4434   1.4561   1.4745   1.4853   1.4886   1.5080   1.5198   1.5342
     1.5454   1.5540   1.5706   1.5859   1.5961   1.6058   1.6172   1.6343
     1.6465   1.6686   1.6967   1.7034   1.7167   1.7272   1.7381   1.7795
     1.8537   1.8804   1.9067   1.9653   2.0128   2.0262   2.0489   2.0649
     4.6200   4.6609   4.7559   4.8372   5.0300   5.0997   5.1316   5.2475
     5.2928   5.3613   5.4391   5.4688   5.7709   5.7910   5.8740   5.9321
     6.0002   6.0565   6.0996   6.2284   6.3104   6.3808   6.4187   6.4485
     6.4995   6.5469   6.5852   6.6572   6.6913   6.7170   6.7724   6.8211
     6.9826   7.0345   7.0823   7.1345   7.1623   7.2247   7.2777   7.3157
     7.3876   7.4442   7.4655   7.5045   7.5344   7.5889   7.6155   7.6864
     7.7757   7.7906   7.8590   7.8828   7.9316   7.9622   7.9729   8.0019
     8.0145   8.0273   8.0437   8.0682   8.1014   8.1111   8.1272   8.1514
     8.1721   8.1973   8.2499   8.2566   8.2759   8.2850   8.3511   8.3762
     8.3847   8.4059   8.4125   8.4295   8.4903   8.4994   8.5241   8.5285
     8.5601   8.5723   8.5772   8.5870   8.6376   8.6542   8.6682   8.6791
     8.7117   8.7254   8.7416   8.7485   8.7631   8.7861   8.8079   8.8275
     8.8770   8.9010   8.9249   8.9455   8.9907   8.9974   9.0098   9.0215
     9.0450   9.0558   9.0773   9.0923   9.1222   9.1298   9.1550   9.1666
     9.1825   9.2005   9.2464   9.2593   9.2784   9.2937   9.3025   9.3186
     9.3359   9.3556   9.3827   9.3898   9.4015   9.4187   9.4358   9.4483
     9.4609   9.4830   9.5102   9.5218   9.5374   9.5425   9.5680   9.5763
     9.5995   9.6076   9.6468   9.6593   9.7225   9.7328   9.7501   9.7588
     9.8763   9.8836  10.0123  10.0218

     occupation numbers 
     1.0000   1.0000   1.0000   1.0000   1.0000   1.0000   1.0000   1.0000
     1.0000   1.0000   1.0000   1.0000   1.0000   1.0000   1.0000   1.0000
     1.0000   1.0000   1.0000   1.0000   1.0000   1.0000   1.0000   1.0000
     1.0000   1.0000   1.0000   1.0000   1.0000   1.0000   1.0000   1.0000
     1.0000   1.0000   1.0000   1.0000   1.0000   1.0000   1.0000   1.0000
     1.0000   1.0000   1.0000   1.0000   1.0000   1.0000   1.0000   1.0000
     1.0000   1.0000   1.0000   1.0000   1.0000   1.0000   1.0000   1.0000
     1.0000   1.0000   1.0000   1.0000   1.0000   1.0000   1.0000   1.0000
     1.0000   1.0000   1.0000   1.0000   1.0000   1.0000   1.0000   1.0000
     1.0000   1.0000   1.0000   1.0000   1.0000   1.0000   1.0000   1.0000
     1.0000   1.0000   1.0000   1.0000   1.0000   1.0000   1.0000   1.0000
     1.0000   1.0000   1.0000   1.0000   1.0000   1.0000   1.0000   1.0000
     1.0000   1.0000   1.0000   1.0000   1.0000   1.0000   1.0000   1.0000
     1.0000   1.0000   1.0000   1.0000   1.0000   1.0000   1.0000   1.0000
     1.0000   1.0000   1.0000   1.0000   1.0000   1.0000   1.0000   1.0000
     1.0000   1.0000   1.0000   1.0000   1.0000   1.0000   1.0000   1.0000
     1.0000   1.0000   1.0000   1.0000   1.0000   1.0000   1.0000   1.0000
     1.0000   1.0000   1.0000   1.0000   1.0000   1.0000   1.0000   1.0000
     1.0000   1.0000   1.0000   1.0000   1.0000   1.0000   1.0000   1.0000
     1.0000   1.0000   1.0000   1.0000   1.0000   1.0000   1.0000   1.0000
     1.0000   1.0000   1.0000   1.0000   1.0000   1.0000   1.0000   1.0000
     1.0000   1.0000   1.0000   1.0000   1.0000   1.0000   1.0000   1.0000
     1.0000   1.0000   1.0000   1.0000   1.0000   1.0000   1.0000   1.0000
     1.0000   1.0000   1.0000   1.0000   1.0000   1.0000   1.0000   1.0000
     1.0000   1.0000   1.0000   1.0000   1.0000   1.0000   1.0000   1.0000
     1.0000   1.0000   1.0000   1.0000   1.0000   1.0000   1.0000   1.0000
     1.0000   1.0000   1.0000   1.0000   1.0000   1.0000   1.0000   1.0000
     1.0000   1.0000   1.0000   1.0000   1.0000   1.0000   1.0000   1.0000
     1.0000   1.0000   1.0000   1.0000   1.0000   1.0000   1.0000   1.0000
     1.0000   1.0000   1.0000   1.0000   1.0000   1.0000   1.0000   1.0000
     1.0000   1.0000   1.0000   1.0000   1.0000   1.0000   1.0000   1.0000
     1.0000   1.0000   1.0000   1.0000   1.0000   1.0000   1.0000   1.0000
     1.0000   1.0000   1.0000   1.0000   1.0000   1.0000   1.0000   1.0000
     1.0000   1.0000   1.0000   1.0000   1.0000   1.0000   1.0000   1.0000
     1.0000   1.0000   1.0000   1.0000   1.0000   1.0000   1.0000   1.0000
     1.0000   1.0000   1.0000   1.0000   1.0000   1.0000   1.0000   1.0000
     1.0000   1.0000   1.0000   1.0000   1.0000   1.0000   1.0000   1.0000
     1.0000   1.0000   1.0000   1.0000   1.0000   1.0000   1.0000   1.0000
     1.0000   1.0000   1.0000   1.0000   1.0000   1.0000   1.0000   1.0000
     1.0000   1.0000   1.0000   1.0000   1.0000   1.0000   1.0000   1.0000
     1.0000   1.0000   1.0000   1.0000   1.0000   1.0000   1.0000   1.0000
     1.0000   1.0000   1.0000   1.0000   1.0000   1.0000   1.0000   1.0000
     1.0000   1.0000   1.0000   1.0000   1.0000   1.0000   1.0000   1.0000
     1.0000   1.0000   1.0000   1.0000   1.0000   1.0000   1.0000   1.0000
     0.0000   0.0000   0.0000   0.0000   0.0000   0.0000   0.0000   0.0000
     0.0000   0.0000   0.0000   0.0000   0.0000   0.0000   0.0000   0.0000
     0.0000   0.0000   0.0000   0.0000   0.0000   0.0000   0.0000   0.0000
     0.0000   0.0000   0.0000   0.0000   0.0000   0.0000   0.0000   0.0000
     0.0000   0.0000   0.0000   0.0000   0.0000   0.0000   0.0000   0.0000
     0.0000   0.0000   0.0000   0.0000   0.0000   0.0000   0.0000   0.0000
     0.0000   0.0000   0.0000   0.0000   0.0000   0.0000   0.0000   0.0000
     0.0000   0.0000   0.0000   0.0000   0.0000   0.0000   0.0000   0.0000
     0.0000   0.0000   0.0000   0.0000   0.0000   0.0000   0.0000   0.0000
     0.0000   0.0000   0.0000   0.0000   0.0000   0.0000   0.0000   0.0000
     0.0000   0.0000   0.0000   0.0000   0.0000   0.0000   0.0000   0.0000
     0.0000   0.0000   0.0000   0.0000   0.0000   0.0000   0.0000   0.0000
     0.0000   0.0000   0.0000   0.0000   0.0000   0.0000   0.0000   0.0000
     0.0000   0.0000   0.0000   0.0000   0.0000   0.0000   0.0000   0.0000
     0.0000   0.0000   0.0000   0.0000   0.0000   0.0000   0.0000   0.0000
     0.0000   0.0000   0.0000   0.0000   0.0000   0.0000   0.0000   0.0000
     0.0000   0.0000   0.0000   0.0000   0.0000   0.0000   0.0000   0.0000
     0.0000   0.0000   0.0000   0.0000   0.0000   0.0000   0.0000   0.0000
     0.0000   0.0000   0.0000   0.0000

          k = 0.5000 0.2500 0.2500 ( 73882 PWs)   bands (ev):

   -18.1281 -18.1281 -18.0397 -18.0397 -17.9993 -17.9993 -17.9954 -17.9954
   -17.9651 -17.9651 -17.9608 -17.9608 -17.8047 -17.8047 -17.7796 -17.7796
   -15.3216 -15.3215 -15.3008 -15.3008 -15.2532 -15.2525 -15.2495 -15.2489
   -15.2402 -15.2401 -15.2353 -15.2351 -15.2228 -15.2228 -15.2149 -15.2148
   -15.1849 -15.1849 -15.1675 -15.1675 -15.0948 -15.0948 -15.0876 -15.0876
   -15.0732 -15.0732 -15.0690 -15.0690 -15.0092 -15.0092 -15.0005 -15.0005
   -12.7869 -12.7866 -12.7741 -12.7699 -12.7694 -12.7687 -12.7354 -12.7312
   -12.7264 -12.7263 -12.7227 -12.7219 -12.7166 -12.7158 -12.6963 -12.6951
   -12.6824 -12.6822 -12.6583 -12.6582 -12.6571 -12.6569 -12.6488 -12.6480
   -12.6446 -12.6440 -12.6337 -12.6336 -12.5925 -12.5918 -12.5900 -12.5898
   -12.5695 -12.5687 -12.5590 -12.5587 -12.5444 -12.5438 -12.5070 -12.5064
   -12.4986 -12.4985 -12.4917 -12.4915 -12.4906 -12.4903 -12.4172 -12.4172
   -11.3984 -11.3973 -11.3497 -11.3486 -11.2771 -11.2766 -11.2413 -11.2409
   -11.2099 -11.2085 -11.1660 -11.1655 -11.1013 -11.1005 -11.0773 -11.0756
   -11.0417 -11.0390 -11.0287 -11.0256 -10.9892 -10.9878 -10.9736 -10.9722
   -10.9510 -10.9481 -10.9210 -10.9199 -10.8953 -10.8937 -10.8451 -10.8440
   -10.8234 -10.8216 -10.7895 -10.7888 -10.7652 -10.7633 -10.6874 -10.6869
   -10.6427 -10.6426 -10.6213 -10.6208 -10.5974 -10.5971 -10.5435 -10.5431
    -6.0980  -6.0980  -6.0135  -6.0132  -5.9761  -5.9756  -5.9731  -5.9726
    -5.9425  -5.9396  -5.9372  -5.9342  -5.7960  -5.7958  -5.7738  -5.7734
    -5.0938  -5.0925  -5.0064  -5.0050  -4.7946  -4.7925  -4.7664  -4.7650
    -4.6804  -4.6774  -4.6191  -4.6166  -4.5029  -4.5020  -4.4810  -4.4802
    -4.4303  -4.4285  -4.4179  -4.4110  -4.4012  -4.3947  -4.3879  -4.3832
    -4.3781  -4.3759  -4.3662  -4.3654  -4.3620  -4.3551  -4.3525  -4.3491
    -4.3443  -4.3411  -4.3304  -4.3268  -4.3174  -4.3159  -4.3124  -4.3108
    -4.2142  -4.2130  -4.1886  -4.1872  -4.1854  -4.1840  -4.1755  -4.1735
    -0.8719  -0.8007  -0.6077  -0.5972  -0.5484  -0.5263  -0.5086  -0.4934
    -0.4687  -0.4219  -0.3942  -0.3766  -0.3588  -0.3448  -0.3278  -0.3131
    -0.2180  -0.2046  -0.1411  -0.1291  -0.0196  -0.0096   0.0245   0.0378
     0.0528   0.0764   0.1337   0.1489   0.1886   0.1996   0.2371   0.2460
     0.2729   0.3157   0.3391   0.3612   0.3766   0.3857   0.3954   0.4160
     0.4350   0.4540   0.4727   0.4781   0.4916   0.5342   0.5519   0.5844
     0.6517   0.6680   0.6796   0.6963   0.7093   0.7393   0.7519   0.7629
     0.7706   0.7886   0.8019   0.8105   0.8222   0.8344   0.8479   0.8605
     0.8722   0.8871   0.9055   0.9155   0.9270   0.9322   0.9453   0.9526
     0.9655   0.9851   0.9941   1.0059   1.0137   1.0282   1.0363   1.0453
     1.0604   1.0723   1.0888   1.0970   1.1125   1.1305   1.1421   1.1491
     1.1526   1.1641   1.1798   1.1914   1.2123   1.2298   1.2332   1.2425
     1.2475   1.2687   1.2758   1.2839   1.3019   1.3174   1.3324   1.3432
     1.3564   1.3679   1.3708   1.3797   1.4010   1.4110   1.4220   1.4329
     1.4423   1.4575   1.4736   1.4868   1.4886   1.5078   1.5203   1.5411
     1.5485   1.5554   1.5757   1.5890   1.5977   1.6076   1.6208   1.6349
     1.6546   1.6762   1.6974   1.7072   1.7261   1.7393   1.7486   1.7914
     1.8703   1.8977   1.9283   1.9891   2.0350   2.0602   2.0735   2.0997
     4.5511   4.5978   4.6851   4.7620   4.9930   5.0613   5.0957   5.2057
     5.2593   5.3187   5.4068   5.4329   5.7537   5.7743   5.8264   5.8939
     5.9845   6.0280   6.1015   6.2059   6.2966   6.3630   6.4085   6.4328
     6.4854   6.5371   6.5770   6.6512   6.6779   6.7078   6.7641   6.8159
     6.9995   7.0470   7.0946   7.1325   7.1926   7.2589   7.3126   7.3523
     7.4260   7.4879   7.5095   7.5554   7.5786   7.6331   7.6615   7.7135
     7.8002   7.8155   7.8711   7.8966   7.9461   7.9821   7.9903   8.0131
     8.0204   8.0435   8.0545   8.0730   8.1118   8.1262   8.1366   8.1649
     8.1820   8.2071   8.2482   8.2589   8.2837   8.2905   8.3575   8.3881
     8.3933   8.4127   8.4207   8.4367   8.4961   8.5041   8.5262   8.5373
     8.5671   8.5814   8.5894   8.5992   8.6398   8.6544   8.6719   8.6913
     8.7191   8.7328   8.7562   8.7581   8.7706   8.7882   8.8096   8.8325
     8.8712   8.8948   8.9101   8.9315   8.9785   8.9828   9.0036   9.0064
     9.0311   9.0499   9.0756   9.0816   9.1078   9.1113   9.1481   9.1601
     9.1811   9.1984   9.2377   9.2494   9.2715   9.2917   9.2980   9.3180
     9.3337   9.3500   9.3805   9.3953   9.4057   9.4135   9.4303   9.4431
     9.4565   9.4748   9.5056   9.5211   9.5343   9.5393   9.5647   9.5748
     9.5934   9.6035   9.6409   9.6550   9.7223   9.7348   9.7554   9.7640
     9.8725   9.8773   9.9936  10.0030

     occupation numbers 
     1.0000   1.0000   1.0000   1.0000   1.0000   1.0000   1.0000   1.0000
     1.0000   1.0000   1.0000   1.0000   1.0000   1.0000   1.0000   1.0000
     1.0000   1.0000   1.0000   1.0000   1.0000   1.0000   1.0000   1.0000
     1.0000   1.0000   1.0000   1.0000   1.0000   1.0000   1.0000   1.0000
     1.0000   1.0000   1.0000   1.0000   1.0000   1.0000   1.0000   1.0000
     1.0000   1.0000   1.0000   1.0000   1.0000   1.0000   1.0000   1.0000
     1.0000   1.0000   1.0000   1.0000   1.0000   1.0000   1.0000   1.0000
     1.0000   1.0000   1.0000   1.0000   1.0000   1.0000   1.0000   1.0000
     1.0000   1.0000   1.0000   1.0000   1.0000   1.0000   1.0000   1.0000
     1.0000   1.0000   1.0000   1.0000   1.0000   1.0000   1.0000   1.0000
     1.0000   1.0000   1.0000   1.0000   1.0000   1.0000   1.0000   1.0000
     1.0000   1.0000   1.0000   1.0000   1.0000   1.0000   1.0000   1.0000
     1.0000   1.0000   1.0000   1.0000   1.0000   1.0000   1.0000   1.0000
     1.0000   1.0000   1.0000   1.0000   1.0000   1.0000   1.0000   1.0000
     1.0000   1.0000   1.0000   1.0000   1.0000   1.0000   1.0000   1.0000
     1.0000   1.0000   1.0000   1.0000   1.0000   1.0000   1.0000   1.0000
     1.0000   1.0000   1.0000   1.0000   1.0000   1.0000   1.0000   1.0000
     1.0000   1.0000   1.0000   1.0000   1.0000   1.0000   1.0000   1.0000
     1.0000   1.0000   1.0000   1.0000   1.0000   1.0000   1.0000   1.0000
     1.0000   1.0000   1.0000   1.0000   1.0000   1.0000   1.0000   1.0000
     1.0000   1.0000   1.0000   1.0000   1.0000   1.0000   1.0000   1.0000
     1.0000   1.0000   1.0000   1.0000   1.0000   1.0000   1.0000   1.0000
     1.0000   1.0000   1.0000   1.0000   1.0000   1.0000   1.0000   1.0000
     1.0000   1.0000   1.0000   1.0000   1.0000   1.0000   1.0000   1.0000
     1.0000   1.0000   1.0000   1.0000   1.0000   1.0000   1.0000   1.0000
     1.0000   1.0000   1.0000   1.0000   1.0000   1.0000   1.0000   1.0000
     1.0000   1.0000   1.0000   1.0000   1.0000   1.0000   1.0000   1.0000
     1.0000   1.0000   1.0000   1.0000   1.0000   1.0000   1.0000   1.0000
     1.0000   1.0000   1.0000   1.0000   1.0000   1.0000   1.0000   1.0000
     1.0000   1.0000   1.0000   1.0000   1.0000   1.0000   1.0000   1.0000
     1.0000   1.0000   1.0000   1.0000   1.0000   1.0000   1.0000   1.0000
     1.0000   1.0000   1.0000   1.0000   1.0000   1.0000   1.0000   1.0000
     1.0000   1.0000   1.0000   1.0000   1.0000   1.0000   1.0000   1.0000
     1.0000   1.0000   1.0000   1.0000   1.0000   1.0000   1.0000   1.0000
     1.0000   1.0000   1.0000   1.0000   1.0000   1.0000   1.0000   1.0000
     1.0000   1.0000   1.0000   1.0000   1.0000   1.0000   1.0000   1.0000
     1.0000   1.0000   1.0000   1.0000   1.0000   1.0000   1.0000   1.0000
     1.0000   1.0000   1.0000   1.0000   1.0000   1.0000   1.0000   1.0000
     1.0000   1.0000   1.0000   1.0000   1.0000   1.0000   1.0000   1.0000
     1.0000   1.0000   1.0000   1.0000   1.0000   1.0000   1.0000   1.0000
     1.0000   1.0000   1.0000   1.0000   1.0000   1.0000   1.0000   1.0000
     1.0000   1.0000   1.0000   1.0000   1.0000   1.0000   1.0000   1.0000
     1.0000   1.0000   1.0000   1.0000   1.0000   1.0000   1.0000   1.0000
     1.0000   1.0000   1.0000   1.0000   1.0000   1.0000   1.0000   1.0000
     0.0000   0.0000   0.0000   0.0000   0.0000   0.0000   0.0000   0.0000
     0.0000   0.0000   0.0000   0.0000   0.0000   0.0000   0.0000   0.0000
     0.0000   0.0000   0.0000   0.0000   0.0000   0.0000   0.0000   0.0000
     0.0000   0.0000   0.0000   0.0000   0.0000   0.0000   0.0000   0.0000
     0.0000   0.0000   0.0000   0.0000   0.0000   0.0000   0.0000   0.0000
     0.0000   0.0000   0.0000   0.0000   0.0000   0.0000   0.0000   0.0000
     0.0000   0.0000   0.0000   0.0000   0.0000   0.0000   0.0000   0.0000
     0.0000   0.0000   0.0000   0.0000   0.0000   0.0000   0.0000   0.0000
     0.0000   0.0000   0.0000   0.0000   0.0000   0.0000   0.0000   0.0000
     0.0000   0.0000   0.0000   0.0000   0.0000   0.0000   0.0000   0.0000
     0.0000   0.0000   0.0000   0.0000   0.0000   0.0000   0.0000   0.0000
     0.0000   0.0000   0.0000   0.0000   0.0000   0.0000   0.0000   0.0000
     0.0000   0.0000   0.0000   0.0000   0.0000   0.0000   0.0000   0.0000
     0.0000   0.0000   0.0000   0.0000   0.0000   0.0000   0.0000   0.0000
     0.0000   0.0000   0.0000   0.0000   0.0000   0.0000   0.0000   0.0000
     0.0000   0.0000   0.0000   0.0000   0.0000   0.0000   0.0000   0.0000
     0.0000   0.0000   0.0000   0.0000   0.0000   0.0000   0.0000   0.0000
     0.0000   0.0000   0.0000   0.0000   0.0000   0.0000   0.0000   0.0000
     0.0000   0.0000   0.0000   0.0000

          k = 0.5000 0.2250 0.2250 ( 73936 PWs)   bands (ev):

   -18.1281 -18.1281 -18.0397 -18.0397 -17.9993 -17.9993 -17.9954 -17.9954
   -17.9651 -17.9651 -17.9608 -17.9608 -17.8047 -17.8047 -17.7796 -17.7796
   -15.3216 -15.3216 -15.3008 -15.3008 -15.2534 -15.2527 -15.2494 -15.2489
   -15.2402 -15.2401 -15.2352 -15.2350 -15.2229 -15.2228 -15.2149 -15.2148
   -15.1849 -15.1849 -15.1675 -15.1674 -15.0948 -15.0948 -15.0876 -15.0876
   -15.0732 -15.0732 -15.0690 -15.0690 -15.0092 -15.0092 -15.0005 -15.0005
   -12.7870 -12.7867 -12.7752 -12.7711 -12.7697 -12.7691 -12.7341 -12.7305
   -12.7264 -12.7263 -12.7225 -12.7216 -12.7167 -12.7158 -12.6969 -12.6957
   -12.6827 -12.6825 -12.6582 -12.6581 -12.6571 -12.6569 -12.6484 -12.6477
   -12.6441 -12.6435 -12.6337 -12.6336 -12.5924 -12.5917 -12.5900 -12.5898
   -12.5693 -12.5686 -12.5592 -12.5590 -12.5442 -12.5436 -12.5068 -12.5062
   -12.4986 -12.4985 -12.4916 -12.4913 -12.4905 -12.4902 -12.4172 -12.4172
   -11.3995 -11.3984 -11.3480 -11.3470 -11.2782 -11.2776 -11.2393 -11.2389
   -11.2091 -11.2079 -11.1654 -11.1648 -11.1000 -11.0992 -11.0769 -11.0749
   -11.0430 -11.0405 -11.0270 -11.0238 -10.9911 -10.9898 -10.9772 -10.9758
   -10.9538 -10.9509 -10.9207 -10.9196 -10.8955 -10.8940 -10.8456 -10.8446
   -10.8233 -10.8216 -10.7899 -10.7892 -10.7636 -10.7618 -10.6877 -10.6873
   -10.6425 -10.6424 -10.6209 -10.6205 -10.5965 -10.5963 -10.5425 -10.5420
    -6.0980  -6.0980  -6.0135  -6.0132  -5.9761  -5.9757  -5.9731  -5.9727
    -5.9425  -5.9397  -5.9371  -5.9342  -5.7959  -5.7958  -5.7738  -5.7734
    -5.1127  -5.1115  -5.0257  -5.0245  -4.7872  -4.7849  -4.7595  -4.7581
    -4.6798  -4.6767  -4.6217  -4.6192  -4.5027  -4.5018  -4.4808  -4.4801
    -4.4256  -4.4238  -4.4106  -4.4071  -4.3938  -4.3911  -4.3845  -4.3813
    -4.3762  -4.3729  -4.3646  -4.3644  -4.3593  -4.3528  -4.3485  -4.3454
    -4.3386  -4.3355  -4.3243  -4.3199  -4.3156  -4.3130  -4.3063  -4.3025
    -4.2140  -4.2125  -4.1886  -4.1872  -4.1851  -4.1836  -4.1753  -4.1732
    -0.9021  -0.8324  -0.6343  -0.6283  -0.5790  -0.5566  -0.5384  -0.5259
    -0.4990  -0.4465  -0.4204  -0.4045  -0.3806  -0.3663  -0.3510  -0.3368
    -0.2135  -0.2019  -0.1465  -0.1353  -0.0170  -0.0074   0.0272   0.0358
     0.0558   0.0816   0.1349   0.1471   0.1895   0.1995   0.2467   0.2537
     0.2763   0.3269   0.3392   0.3687   0.3867   0.3951   0.4074   0.4274
     0.4421   0.4638   0.4789   0.4889   0.5095   0.5497   0.5717   0.5962
     0.6538   0.6733   0.6819   0.7017   0.7125   0.7422   0.7561   0.7684
     0.7770   0.7931   0.8079   0.8151   0.8263   0.8410   0.8545   0.8650
     0.8797   0.8934   0.9103   0.9237   0.9336   0.9404   0.9514   0.9568
     0.9687   0.9886   0.9983   1.0125   1.0178   1.0342   1.0396   1.0483
     1.0650   1.0770   1.0932   1.1000   1.1152   1.1359   1.1445   1.1524
     1.1550   1.1649   1.1826   1.1944   1.2143   1.2326   1.2378   1.2416
     1.2474   1.2700   1.2738   1.2843   1.3015   1.3186   1.3312   1.3460
     1.3545   1.3672   1.3710   1.3807   1.3991   1.4121   1.4217   1.4323
     1.4411   1.4585   1.4723   1.4861   1.4905   1.5073   1.5209   1.5473
     1.5497   1.5588   1.5786   1.5921   1.5991   1.6085   1.6241   1.6366
     1.6617   1.6852   1.6946   1.7127   1.7383   1.7519   1.7638   1.8045
     1.8872   1.9144   1.9476   2.0014   2.0697   2.0901   2.1085   2.1373
     4.4845   4.5364   4.6159   4.6881   4.9565   5.0224   5.0604   5.1629
     5.2274   5.2804   5.3722   5.3961   5.7063   5.7575   5.7790   5.8409
     5.9852   6.0073   6.1105   6.1956   6.2859   6.3470   6.4009   6.4203
     6.4743   6.5263   6.5723   6.6454   6.6671   6.6996   6.7582   6.8112
     7.0109   7.0509   7.0998   7.1260   7.2233   7.2916   7.3490   7.3896
     7.4622   7.5217   7.5605   7.6007   7.6246   7.6754   7.7024   7.7401
     7.8255   7.8437   7.8817   7.9107   7.9605   7.9975   8.0081   8.0188
     8.0269   8.0507   8.0698   8.0844   8.1176   8.1434   8.1486   8.1783
     8.1966   8.2188   8.2464   8.2663   8.2940   8.3025   8.3638   8.3984
     8.4021   8.4191   8.4295   8.4432   8.4953   8.5108   8.5278   8.5471
     8.5721   8.5862   8.6037   8.6135   8.6406   8.6540   8.6731   8.7021
     8.7234   8.7359   8.7646   8.7706   8.7786   8.7941   8.8136   8.8378
     8.8666   8.8844   8.9028   8.9205   8.9632   8.9696   8.9934   8.9987
     9.0198   9.0439   9.0635   9.0764   9.0928   9.1015   9.1417   9.1546
     9.1809   9.1957   9.2270   9.2402   9.2621   9.2834   9.2968   9.3165
     9.3339   9.3460   9.3797   9.3981   9.4101   9.4176   9.4278   9.4420
     9.4505   9.4661   9.4994   9.5178   9.5294   9.5373   9.5628   9.5766
     9.5892   9.6014   9.6351   9.6515   9.7218   9.7358   9.7595   9.7683
     9.8647   9.8695   9.9764   9.9873

     occupation numbers 
     1.0000   1.0000   1.0000   1.0000   1.0000   1.0000   1.0000   1.0000
     1.0000   1.0000   1.0000   1.0000   1.0000   1.0000   1.0000   1.0000
     1.0000   1.0000   1.0000   1.0000   1.0000   1.0000   1.0000   1.0000
     1.0000   1.0000   1.0000   1.0000   1.0000   1.0000   1.0000   1.0000
     1.0000   1.0000   1.0000   1.0000   1.0000   1.0000   1.0000   1.0000
     1.0000   1.0000   1.0000   1.0000   1.0000   1.0000   1.0000   1.0000
     1.0000   1.0000   1.0000   1.0000   1.0000   1.0000   1.0000   1.0000
     1.0000   1.0000   1.0000   1.0000   1.0000   1.0000   1.0000   1.0000
     1.0000   1.0000   1.0000   1.0000   1.0000   1.0000   1.0000   1.0000
     1.0000   1.0000   1.0000   1.0000   1.0000   1.0000   1.0000   1.0000
     1.0000   1.0000   1.0000   1.0000   1.0000   1.0000   1.0000   1.0000
     1.0000   1.0000   1.0000   1.0000   1.0000   1.0000   1.0000   1.0000
     1.0000   1.0000   1.0000   1.0000   1.0000   1.0000   1.0000   1.0000
     1.0000   1.0000   1.0000   1.0000   1.0000   1.0000   1.0000   1.0000
     1.0000   1.0000   1.0000   1.0000   1.0000   1.0000   1.0000   1.0000
     1.0000   1.0000   1.0000   1.0000   1.0000   1.0000   1.0000   1.0000
     1.0000   1.0000   1.0000   1.0000   1.0000   1.0000   1.0000   1.0000
     1.0000   1.0000   1.0000   1.0000   1.0000   1.0000   1.0000   1.0000
     1.0000   1.0000   1.0000   1.0000   1.0000   1.0000   1.0000   1.0000
     1.0000   1.0000   1.0000   1.0000   1.0000   1.0000   1.0000   1.0000
     1.0000   1.0000   1.0000   1.0000   1.0000   1.0000   1.0000   1.0000
     1.0000   1.0000   1.0000   1.0000   1.0000   1.0000   1.0000   1.0000
     1.0000   1.0000   1.0000   1.0000   1.0000   1.0000   1.0000   1.0000
     1.0000   1.0000   1.0000   1.0000   1.0000   1.0000   1.0000   1.0000
     1.0000   1.0000   1.0000   1.0000   1.0000   1.0000   1.0000   1.0000
     1.0000   1.0000   1.0000   1.0000   1.0000   1.0000   1.0000   1.0000
     1.0000   1.0000   1.0000   1.0000   1.0000   1.0000   1.0000   1.0000
     1.0000   1.0000   1.0000   1.0000   1.0000   1.0000   1.0000   1.0000
     1.0000   1.0000   1.0000   1.0000   1.0000   1.0000   1.0000   1.0000
     1.0000   1.0000   1.0000   1.0000   1.0000   1.0000   1.0000   1.0000
     1.0000   1.0000   1.0000   1.0000   1.0000   1.0000   1.0000   1.0000
     1.0000   1.0000   1.0000   1.0000   1.0000   1.0000   1.0000   1.0000
     1.0000   1.0000   1.0000   1.0000   1.0000   1.0000   1.0000   1.0000
     1.0000   1.0000   1.0000   1.0000   1.0000   1.0000   1.0000   1.0000
     1.0000   1.0000   1.0000   1.0000   1.0000   1.0000   1.0000   1.0000
     1.0000   1.0000   1.0000   1.0000   1.0000   1.0000   1.0000   1.0000
     1.0000   1.0000   1.0000   1.0000   1.0000   1.0000   1.0000   1.0000
     1.0000   1.0000   1.0000   1.0000   1.0000   1.0000   1.0000   1.0000
     1.0000   1.0000   1.0000   1.0000   1.0000   1.0000   1.0000   1.0000
     1.0000   1.0000   1.0000   1.0000   1.0000   1.0000   1.0000   1.0000
     1.0000   1.0000   1.0000   1.0000   1.0000   1.0000   1.0000   1.0000
     1.0000   1.0000   1.0000   1.0000   1.0000   1.0000   1.0000   1.0000
     1.0000   1.0000   1.0000   1.0000   1.0000   1.0000   1.0000   1.0000
     1.0000   1.0000   1.0000   1.0000   1.0000   1.0000   1.0000   1.0000
     0.0000   0.0000   0.0000   0.0000   0.0000   0.0000   0.0000   0.0000
     0.0000   0.0000   0.0000   0.0000   0.0000   0.0000   0.0000   0.0000
     0.0000   0.0000   0.0000   0.0000   0.0000   0.0000   0.0000   0.0000
     0.0000   0.0000   0.0000   0.0000   0.0000   0.0000   0.0000   0.0000
     0.0000   0.0000   0.0000   0.0000   0.0000   0.0000   0.0000   0.0000
     0.0000   0.0000   0.0000   0.0000   0.0000   0.0000   0.0000   0.0000
     0.0000   0.0000   0.0000   0.0000   0.0000   0.0000   0.0000   0.0000
     0.0000   0.0000   0.0000   0.0000   0.0000   0.0000   0.0000   0.0000
     0.0000   0.0000   0.0000   0.0000   0.0000   0.0000   0.0000   0.0000
     0.0000   0.0000   0.0000   0.0000   0.0000   0.0000   0.0000   0.0000
     0.0000   0.0000   0.0000   0.0000   0.0000   0.0000   0.0000   0.0000
     0.0000   0.0000   0.0000   0.0000   0.0000   0.0000   0.0000   0.0000
     0.0000   0.0000   0.0000   0.0000   0.0000   0.0000   0.0000   0.0000
     0.0000   0.0000   0.0000   0.0000   0.0000   0.0000   0.0000   0.0000
     0.0000   0.0000   0.0000   0.0000   0.0000   0.0000   0.0000   0.0000
     0.0000   0.0000   0.0000   0.0000   0.0000   0.0000   0.0000   0.0000
     0.0000   0.0000   0.0000   0.0000   0.0000   0.0000   0.0000   0.0000
     0.0000   0.0000   0.0000   0.0000   0.0000   0.0000   0.0000   0.0000
     0.0000   0.0000   0.0000   0.0000

          k = 0.5000 0.2000 0.2000 ( 73930 PWs)   bands (ev):

   -18.1281 -18.1281 -18.0397 -18.0397 -17.9993 -17.9993 -17.9954 -17.9954
   -17.9651 -17.9651 -17.9608 -17.9608 -17.8047 -17.8047 -17.7796 -17.7796
   -15.3216 -15.3216 -15.3008 -15.3008 -15.2535 -15.2529 -15.2493 -15.2488
   -15.2402 -15.2401 -15.2352 -15.2350 -15.2229 -15.2228 -15.2149 -15.2149
   -15.1849 -15.1849 -15.1675 -15.1674 -15.0948 -15.0948 -15.0876 -15.0876
   -15.0732 -15.0732 -15.0690 -15.0690 -15.0092 -15.0092 -15.0005 -15.0005
   -12.7870 -12.7868 -12.7762 -12.7724 -12.7699 -12.7693 -12.7330 -12.7299
   -12.7264 -12.7263 -12.7224 -12.7214 -12.7167 -12.7158 -12.6974 -12.6963
   -12.6830 -12.6827 -12.6582 -12.6581 -12.6571 -12.6569 -12.6481 -12.6474
   -12.6436 -12.6430 -12.6337 -12.6336 -12.5923 -12.5916 -12.5900 -12.5898
   -12.5692 -12.5685 -12.5594 -12.5592 -12.5441 -12.5435 -12.5066 -12.5060
   -12.4986 -12.4985 -12.4914 -12.4913 -12.4903 -12.4900 -12.4172 -12.4172
   -11.4005 -11.3995 -11.3465 -11.3456 -11.2794 -11.2788 -11.2368 -11.2363
   -11.2084 -11.2073 -11.1649 -11.1642 -11.0996 -11.0986 -11.0762 -11.0740
   -11.0439 -11.0419 -11.0248 -11.0218 -10.9930 -10.9917 -10.9807 -10.9793
   -10.9567 -10.9538 -10.9206 -10.9194 -10.8955 -10.8942 -10.8462 -10.8452
   -10.8232 -10.8216 -10.7903 -10.7896 -10.7620 -10.7603 -10.6878 -10.6874
   -10.6424 -10.6423 -10.6208 -10.6205 -10.5956 -10.5954 -10.5414 -10.5410
    -6.0981  -6.0980  -6.0135  -6.0133  -5.9761  -5.9757  -5.9731  -5.9727
    -5.9425  -5.9398  -5.9369  -5.9342  -5.7959  -5.7958  -5.7738  -5.7734
    -5.1300  -5.1288  -5.0432  -5.0422  -4.7796  -4.7772  -4.7523  -4.7508
    -4.6799  -4.6767  -4.6247  -4.6222  -4.5026  -4.5017  -4.4807  -4.4801
    -4.4236  -4.4219  -4.4073  -4.4046  -4.3903  -4.3888  -4.3826  -4.3794
    -4.3743  -4.3704  -4.3639  -4.3632  -4.3580  -4.3518  -4.3461  -4.3436
    -4.3297  -4.3260  -4.3208  -4.3163  -4.3129  -4.3096  -4.2918  -4.2870
    -4.2136  -4.2119  -4.1885  -4.1872  -4.1846  -4.1831  -4.1750  -4.1728
    -0.9287  -0.8617  -0.6613  -0.6551  -0.6082  -0.5856  -0.5661  -0.5571
    -0.5271  -0.4702  -0.4464  -0.4311  -0.4004  -0.3856  -0.3724  -0.3587
    -0.2093  -0.1996  -0.1510  -0.1409  -0.0144  -0.0053   0.0279   0.0343
     0.0600   0.0871   0.1350   0.1451   0.1887   0.1978   0.2538   0.2609
     0.2796   0.3340   0.3394   0.3734   0.3934   0.4041   0.4194   0.4381
     0.4481   0.4696   0.4829   0.4967   0.5274   0.5623   0.5920   0.6082
     0.6572   0.6763   0.6871   0.7084   0.7168   0.7456   0.7608   0.7718
     0.7854   0.7983   0.8145   0.8189   0.8318   0.8467   0.8619   0.8711
     0.8851   0.9001   0.9163   0.9321   0.9413   0.9481   0.9571   0.9629
     0.9716   0.9914   1.0013   1.0175   1.0239   1.0369   1.0444   1.0521
     1.0686   1.0813   1.0971   1.1040   1.1181   1.1398   1.1448   1.1531
     1.1605   1.1664   1.1841   1.1968   1.2159   1.2335   1.2400   1.2428
     1.2492   1.2707   1.2718   1.2853   1.3015   1.3194   1.3304   1.3465
     1.3531   1.3669   1.3711   1.3820   1.3975   1.4139   1.4217   1.4315
     1.4400   1.4589   1.4708   1.4849   1.4921   1.5067   1.5220   1.5491
     1.5526   1.5637   1.5783   1.5952   1.6007   1.6096   1.6260   1.6392
     1.6671   1.6911   1.6954   1.7193   1.7518   1.7661   1.7809   1.8185
     1.9040   1.9303   1.9633   2.0085   2.1095   2.1210   2.1478   2.1756
     4.4216   4.4777   4.5492   4.6163   4.9216   4.9839   5.0265   5.1199
     5.1981   5.2466   5.3367   5.3595   5.6549   5.7208   5.7358   5.7855
     5.9876   6.0021   6.1204   6.1921   6.2777   6.3329   6.3949   6.4107
     6.4662   6.5153   6.5705   6.6391   6.6595   6.6925   6.7547   6.8069
     7.0161   7.0481   7.0991   7.1196   7.2529   7.3208   7.3863   7.4254
     7.4955   7.5536   7.6101   7.6404   7.6710   7.7142   7.7391   7.7663
     7.8501   7.8682   7.8943   7.9237   7.9742   8.0055   8.0179   8.0279
     8.0370   8.0545   8.0864   8.1007   8.1246   8.1559   8.1653   8.1889
     8.2142   8.2325   8.2486   8.2756   8.3070   8.3194   8.3709   8.4050
     8.4107   8.4257   8.4381   8.4491   8.4928   8.5117   8.5326   8.5571
     8.5767   8.5897   8.6125   8.6240   8.6428   8.6559   8.6737   8.7105
     8.7263   8.7348   8.7711   8.7797   8.7860   8.8014   8.8192   8.8427
     8.8633   8.8729   8.8991   8.9153   8.9482   8.9566   8.9834   8.9936
     9.0113   9.0378   9.0487   9.0698   9.0859   9.0958   9.1353   9.1496
     9.1806   9.1909   9.2153   9.2331   9.2535   9.2725   9.2956   9.3139
     9.3329   9.3434   9.3821   9.3979   9.4121   9.4260   9.4304   9.4403
     9.4502   9.4602   9.4941   9.5113   9.5241   9.5350   9.5628   9.5787
     9.5899   9.6019   9.6297   9.6486   9.7209   9.7350   9.7623   9.7713
     9.8517   9.8592   9.9634   9.9765

     occupation numbers 
     1.0000   1.0000   1.0000   1.0000   1.0000   1.0000   1.0000   1.0000
     1.0000   1.0000   1.0000   1.0000   1.0000   1.0000   1.0000   1.0000
     1.0000   1.0000   1.0000   1.0000   1.0000   1.0000   1.0000   1.0000
     1.0000   1.0000   1.0000   1.0000   1.0000   1.0000   1.0000   1.0000
     1.0000   1.0000   1.0000   1.0000   1.0000   1.0000   1.0000   1.0000
     1.0000   1.0000   1.0000   1.0000   1.0000   1.0000   1.0000   1.0000
     1.0000   1.0000   1.0000   1.0000   1.0000   1.0000   1.0000   1.0000
     1.0000   1.0000   1.0000   1.0000   1.0000   1.0000   1.0000   1.0000
     1.0000   1.0000   1.0000   1.0000   1.0000   1.0000   1.0000   1.0000
     1.0000   1.0000   1.0000   1.0000   1.0000   1.0000   1.0000   1.0000
     1.0000   1.0000   1.0000   1.0000   1.0000   1.0000   1.0000   1.0000
     1.0000   1.0000   1.0000   1.0000   1.0000   1.0000   1.0000   1.0000
     1.0000   1.0000   1.0000   1.0000   1.0000   1.0000   1.0000   1.0000
     1.0000   1.0000   1.0000   1.0000   1.0000   1.0000   1.0000   1.0000
     1.0000   1.0000   1.0000   1.0000   1.0000   1.0000   1.0000   1.0000
     1.0000   1.0000   1.0000   1.0000   1.0000   1.0000   1.0000   1.0000
     1.0000   1.0000   1.0000   1.0000   1.0000   1.0000   1.0000   1.0000
     1.0000   1.0000   1.0000   1.0000   1.0000   1.0000   1.0000   1.0000
     1.0000   1.0000   1.0000   1.0000   1.0000   1.0000   1.0000   1.0000
     1.0000   1.0000   1.0000   1.0000   1.0000   1.0000   1.0000   1.0000
     1.0000   1.0000   1.0000   1.0000   1.0000   1.0000   1.0000   1.0000
     1.0000   1.0000   1.0000   1.0000   1.0000   1.0000   1.0000   1.0000
     1.0000   1.0000   1.0000   1.0000   1.0000   1.0000   1.0000   1.0000
     1.0000   1.0000   1.0000   1.0000   1.0000   1.0000   1.0000   1.0000
     1.0000   1.0000   1.0000   1.0000   1.0000   1.0000   1.0000   1.0000
     1.0000   1.0000   1.0000   1.0000   1.0000   1.0000   1.0000   1.0000
     1.0000   1.0000   1.0000   1.0000   1.0000   1.0000   1.0000   1.0000
     1.0000   1.0000   1.0000   1.0000   1.0000   1.0000   1.0000   1.0000
     1.0000   1.0000   1.0000   1.0000   1.0000   1.0000   1.0000   1.0000
     1.0000   1.0000   1.0000   1.0000   1.0000   1.0000   1.0000   1.0000
     1.0000   1.0000   1.0000   1.0000   1.0000   1.0000   1.0000   1.0000
     1.0000   1.0000   1.0000   1.0000   1.0000   1.0000   1.0000   1.0000
     1.0000   1.0000   1.0000   1.0000   1.0000   1.0000   1.0000   1.0000
     1.0000   1.0000   1.0000   1.0000   1.0000   1.0000   1.0000   1.0000
     1.0000   1.0000   1.0000   1.0000   1.0000   1.0000   1.0000   1.0000
     1.0000   1.0000   1.0000   1.0000   1.0000   1.0000   1.0000   1.0000
     1.0000   1.0000   1.0000   1.0000   1.0000   1.0000   1.0000   1.0000
     1.0000   1.0000   1.0000   1.0000   1.0000   1.0000   1.0000   1.0000
     1.0000   1.0000   1.0000   1.0000   1.0000   1.0000   1.0000   1.0000
     1.0000   1.0000   1.0000   1.0000   1.0000   1.0000   1.0000   1.0000
     1.0000   1.0000   1.0000   1.0000   1.0000   1.0000   1.0000   1.0000
     1.0000   1.0000   1.0000   1.0000   1.0000   1.0000   1.0000   1.0000
     1.0000   1.0000   1.0000   1.0000   1.0000   1.0000   1.0000   1.0000
     1.0000   1.0000   1.0000   1.0000   1.0000   1.0000   1.0000   1.0000
     0.0000   0.0000   0.0000   0.0000   0.0000   0.0000   0.0000   0.0000
     0.0000   0.0000   0.0000   0.0000   0.0000   0.0000   0.0000   0.0000
     0.0000   0.0000   0.0000   0.0000   0.0000   0.0000   0.0000   0.0000
     0.0000   0.0000   0.0000   0.0000   0.0000   0.0000   0.0000   0.0000
     0.0000   0.0000   0.0000   0.0000   0.0000   0.0000   0.0000   0.0000
     0.0000   0.0000   0.0000   0.0000   0.0000   0.0000   0.0000   0.0000
     0.0000   0.0000   0.0000   0.0000   0.0000   0.0000   0.0000   0.0000
     0.0000   0.0000   0.0000   0.0000   0.0000   0.0000   0.0000   0.0000
     0.0000   0.0000   0.0000   0.0000   0.0000   0.0000   0.0000   0.0000
     0.0000   0.0000   0.0000   0.0000   0.0000   0.0000   0.0000   0.0000
     0.0000   0.0000   0.0000   0.0000   0.0000   0.0000   0.0000   0.0000
     0.0000   0.0000   0.0000   0.0000   0.0000   0.0000   0.0000   0.0000
     0.0000   0.0000   0.0000   0.0000   0.0000   0.0000   0.0000   0.0000
     0.0000   0.0000   0.0000   0.0000   0.0000   0.0000   0.0000   0.0000
     0.0000   0.0000   0.0000   0.0000   0.0000   0.0000   0.0000   0.0000
     0.0000   0.0000   0.0000   0.0000   0.0000   0.0000   0.0000   0.0000
     0.0000   0.0000   0.0000   0.0000   0.0000   0.0000   0.0000   0.0000
     0.0000   0.0000   0.0000   0.0000   0.0000   0.0000   0.0000   0.0000
     0.0000   0.0000   0.0000   0.0000

          k = 0.5000 0.1750 0.1750 ( 73944 PWs)   bands (ev):

   -18.1281 -18.1281 -18.0397 -18.0397 -17.9993 -17.9993 -17.9954 -17.9954
   -17.9651 -17.9651 -17.9608 -17.9608 -17.8047 -17.8047 -17.7796 -17.7796
   -15.3216 -15.3216 -15.3008 -15.3008 -15.2536 -15.2530 -15.2492 -15.2488
   -15.2402 -15.2401 -15.2351 -15.2350 -15.2229 -15.2229 -15.2149 -15.2149
   -15.1849 -15.1849 -15.1675 -15.1674 -15.0948 -15.0948 -15.0876 -15.0876
   -15.0732 -15.0732 -15.0690 -15.0690 -15.0092 -15.0092 -15.0005 -15.0005
   -12.7871 -12.7869 -12.7771 -12.7737 -12.7701 -12.7695 -12.7320 -12.7295
   -12.7264 -12.7263 -12.7221 -12.7212 -12.7166 -12.7158 -12.6979 -12.6969
   -12.6832 -12.6830 -12.6581 -12.6580 -12.6571 -12.6569 -12.6477 -12.6472
   -12.6431 -12.6425 -12.6337 -12.6335 -12.5921 -12.5915 -12.5900 -12.5898
   -12.5690 -12.5684 -12.5596 -12.5594 -12.5439 -12.5434 -12.5063 -12.5058
   -12.4986 -12.4985 -12.4913 -12.4912 -12.4902 -12.4899 -12.4172 -12.4172
   -11.4014 -11.4005 -11.3451 -11.3443 -11.2806 -11.2800 -11.2339 -11.2334
   -11.2077 -11.2069 -11.1645 -11.1637 -11.0997 -11.0986 -11.0757 -11.0734
   -11.0442 -11.0428 -11.0226 -11.0196 -10.9949 -10.9937 -10.9839 -10.9825
   -10.9597 -10.9567 -10.9204 -10.9192 -10.8955 -10.8944 -10.8467 -10.8457
   -10.8233 -10.8218 -10.7908 -10.7901 -10.7604 -10.7588 -10.6877 -10.6873
   -10.6424 -10.6423 -10.6209 -10.6206 -10.5946 -10.5945 -10.5403 -10.5400
    -6.0981  -6.0980  -6.0135  -6.0133  -5.9761  -5.9758  -5.9731  -5.9727
    -5.9424  -5.9399  -5.9367  -5.9342  -5.7959  -5.7958  -5.7738  -5.7734
    -5.1454  -5.1444  -5.0589  -5.0580  -4.7721  -4.7694  -4.7449  -4.7434
    -4.6807  -4.6775  -4.6279  -4.6255  -4.5025  -4.5016  -4.4806  -4.4800
    -4.4225  -4.4209  -4.4055  -4.4033  -4.3890  -4.3875  -4.3814  -4.3784
    -4.3728  -4.3692  -4.3633  -4.3622  -4.3570  -4.3515  -4.3451  -4.3428
    -4.3252  -4.3214  -4.3172  -4.3145  -4.3034  -4.2989  -4.2751  -4.2702
    -4.2131  -4.2111  -4.1883  -4.1872  -4.1841  -4.1825  -4.1745  -4.1722
    -0.9517  -0.8886  -0.6881  -0.6773  -0.6357  -0.6130  -0.5912  -0.5859
    -0.5523  -0.4938  -0.4708  -0.4545  -0.4179  -0.4029  -0.3918  -0.3787
    -0.2058  -0.1977  -0.1547  -0.1459  -0.0118  -0.0033   0.0277   0.0331
     0.0651   0.0923   0.1342   0.1434   0.1874   0.1953   0.2592   0.2669
     0.2826   0.3325   0.3453   0.3760   0.3983   0.4119   0.4294   0.4473
     0.4537   0.4728   0.4853   0.5012   0.5444   0.5730   0.6081   0.6218
     0.6618   0.6776   0.6933   0.7138   0.7235   0.7500   0.7659   0.7747
     0.7927   0.8047   0.8186   0.8242   0.8383   0.8529   0.8690   0.8785
     0.8888   0.9062   0.9228   0.9406   0.9484   0.9556   0.9618   0.9718
     0.9750   0.9933   1.0037   1.0222   1.0301   1.0381   1.0480   1.0575
     1.0710   1.0862   1.1002   1.1085   1.1215   1.1413   1.1441   1.1543
     1.1660   1.1685   1.1844   1.1990   1.2164   1.2338   1.2393   1.2452
     1.2531   1.2682   1.2733   1.2860   1.3017   1.3200   1.3303   1.3446
     1.3530   1.3662   1.3716   1.3830   1.3961   1.4149   1.4225   1.4310
     1.4394   1.4584   1.4697   1.4840   1.4927   1.5061   1.5241   1.5482
     1.5570   1.5686   1.5762   1.5970   1.6025   1.6113   1.6277   1.6406
     1.6708   1.6891   1.7049   1.7273   1.7659   1.7822   1.7980   1.8326
     1.9202   1.9450   1.9757   2.0137   2.1500   2.1546   2.1872   2.2133
     4.3638   4.4227   4.4856   4.5478   4.8891   4.9467   4.9948   5.0781
     5.1721   5.2171   5.3015   5.3241   5.6059   5.6743   5.6942   5.7306
     5.9902   6.0075   6.1296   6.1910   6.2716   6.3204   6.3902   6.4037
     6.4606   6.5049   6.5705   6.6321   6.6553   6.6863   6.7532   6.8029
     7.0154   7.0405   7.0953   7.1134   7.2809   7.3462   7.4227   7.4584
     7.5263   7.5838   7.6555   7.6773   7.7146   7.7478   7.7718   7.7910
     7.8726   7.8848   7.9115   7.9375   7.9842   8.0088   8.0210   8.0377
     8.0522   8.0631   8.1010   8.1165   8.1356   8.1671   8.1830   8.1982
     8.2313   8.2459   8.2574   8.2864   8.3218   8.3387   8.3788   8.4089
     8.4173   8.4326   8.4447   8.4554   8.4901   8.5079   8.5389   8.5668
     8.5805   8.5925   8.6146   8.6253   8.6509   8.6589   8.6764   8.7154
     8.7285   8.7326   8.7751   8.7839   8.7928   8.8089   8.8258   8.8450
     8.8605   8.8677   8.8951   8.9142   8.9350   8.9450   8.9750   8.9883
     9.0038   9.0289   9.0378   9.0591   9.0874   9.0940   9.1292   9.1455
     9.1782   9.1840   9.2049   9.2269   9.2454   9.2640   9.2928   9.3097
     9.3325   9.3410   9.3866   9.3998   9.4098   9.4274   9.4308   9.4471
     9.4536   9.4642   9.4909   9.5053   9.5185   9.5332   9.5654   9.5796
     9.5943   9.6050   9.6252   9.6457   9.7188   9.7318   9.7633   9.7725
     9.8350   9.8454   9.9557   9.9697

     occupation numbers 
     1.0000   1.0000   1.0000   1.0000   1.0000   1.0000   1.0000   1.0000
     1.0000   1.0000   1.0000   1.0000   1.0000   1.0000   1.0000   1.0000
     1.0000   1.0000   1.0000   1.0000   1.0000   1.0000   1.0000   1.0000
     1.0000   1.0000   1.0000   1.0000   1.0000   1.0000   1.0000   1.0000
     1.0000   1.0000   1.0000   1.0000   1.0000   1.0000   1.0000   1.0000
     1.0000   1.0000   1.0000   1.0000   1.0000   1.0000   1.0000   1.0000
     1.0000   1.0000   1.0000   1.0000   1.0000   1.0000   1.0000   1.0000
     1.0000   1.0000   1.0000   1.0000   1.0000   1.0000   1.0000   1.0000
     1.0000   1.0000   1.0000   1.0000   1.0000   1.0000   1.0000   1.0000
     1.0000   1.0000   1.0000   1.0000   1.0000   1.0000   1.0000   1.0000
     1.0000   1.0000   1.0000   1.0000   1.0000   1.0000   1.0000   1.0000
     1.0000   1.0000   1.0000   1.0000   1.0000   1.0000   1.0000   1.0000
     1.0000   1.0000   1.0000   1.0000   1.0000   1.0000   1.0000   1.0000
     1.0000   1.0000   1.0000   1.0000   1.0000   1.0000   1.0000   1.0000
     1.0000   1.0000   1.0000   1.0000   1.0000   1.0000   1.0000   1.0000
     1.0000   1.0000   1.0000   1.0000   1.0000   1.0000   1.0000   1.0000
     1.0000   1.0000   1.0000   1.0000   1.0000   1.0000   1.0000   1.0000
     1.0000   1.0000   1.0000   1.0000   1.0000   1.0000   1.0000   1.0000
     1.0000   1.0000   1.0000   1.0000   1.0000   1.0000   1.0000   1.0000
     1.0000   1.0000   1.0000   1.0000   1.0000   1.0000   1.0000   1.0000
     1.0000   1.0000   1.0000   1.0000   1.0000   1.0000   1.0000   1.0000
     1.0000   1.0000   1.0000   1.0000   1.0000   1.0000   1.0000   1.0000
     1.0000   1.0000   1.0000   1.0000   1.0000   1.0000   1.0000   1.0000
     1.0000   1.0000   1.0000   1.0000   1.0000   1.0000   1.0000   1.0000
     1.0000   1.0000   1.0000   1.0000   1.0000   1.0000   1.0000   1.0000
     1.0000   1.0000   1.0000   1.0000   1.0000   1.0000   1.0000   1.0000
     1.0000   1.0000   1.0000   1.0000   1.0000   1.0000   1.0000   1.0000
     1.0000   1.0000   1.0000   1.0000   1.0000   1.0000   1.0000   1.0000
     1.0000   1.0000   1.0000   1.0000   1.0000   1.0000   1.0000   1.0000
     1.0000   1.0000   1.0000   1.0000   1.0000   1.0000   1.0000   1.0000
     1.0000   1.0000   1.0000   1.0000   1.0000   1.0000   1.0000   1.0000
     1.0000   1.0000   1.0000   1.0000   1.0000   1.0000   1.0000   1.0000
     1.0000   1.0000   1.0000   1.0000   1.0000   1.0000   1.0000   1.0000
     1.0000   1.0000   1.0000   1.0000   1.0000   1.0000   1.0000   1.0000
     1.0000   1.0000   1.0000   1.0000   1.0000   1.0000   1.0000   1.0000
     1.0000   1.0000   1.0000   1.0000   1.0000   1.0000   1.0000   1.0000
     1.0000   1.0000   1.0000   1.0000   1.0000   1.0000   1.0000   1.0000
     1.0000   1.0000   1.0000   1.0000   1.0000   1.0000   1.0000   1.0000
     1.0000   1.0000   1.0000   1.0000   1.0000   1.0000   1.0000   1.0000
     1.0000   1.0000   1.0000   1.0000   1.0000   1.0000   1.0000   1.0000
     1.0000   1.0000   1.0000   1.0000   1.0000   1.0000   1.0000   1.0000
     1.0000   1.0000   1.0000   1.0000   1.0000   1.0000   1.0000   1.0000
     1.0000   1.0000   1.0000   1.0000   1.0000   1.0000   1.0000   1.0000
     1.0000   1.0000   1.0000   1.0000   1.0000   1.0000   1.0000   1.0000
     0.0000   0.0000   0.0000   0.0000   0.0000   0.0000   0.0000   0.0000
     0.0000   0.0000   0.0000   0.0000   0.0000   0.0000   0.0000   0.0000
     0.0000   0.0000   0.0000   0.0000   0.0000   0.0000   0.0000   0.0000
     0.0000   0.0000   0.0000   0.0000   0.0000   0.0000   0.0000   0.0000
     0.0000   0.0000   0.0000   0.0000   0.0000   0.0000   0.0000   0.0000
     0.0000   0.0000   0.0000   0.0000   0.0000   0.0000   0.0000   0.0000
     0.0000   0.0000   0.0000   0.0000   0.0000   0.0000   0.0000   0.0000
     0.0000   0.0000   0.0000   0.0000   0.0000   0.0000   0.0000   0.0000
     0.0000   0.0000   0.0000   0.0000   0.0000   0.0000   0.0000   0.0000
     0.0000   0.0000   0.0000   0.0000   0.0000   0.0000   0.0000   0.0000
     0.0000   0.0000   0.0000   0.0000   0.0000   0.0000   0.0000   0.0000
     0.0000   0.0000   0.0000   0.0000   0.0000   0.0000   0.0000   0.0000
     0.0000   0.0000   0.0000   0.0000   0.0000   0.0000   0.0000   0.0000
     0.0000   0.0000   0.0000   0.0000   0.0000   0.0000   0.0000   0.0000
     0.0000   0.0000   0.0000   0.0000   0.0000   0.0000   0.0000   0.0000
     0.0000   0.0000   0.0000   0.0000   0.0000   0.0000   0.0000   0.0000
     0.0000   0.0000   0.0000   0.0000   0.0000   0.0000   0.0000   0.0000
     0.0000   0.0000   0.0000   0.0000   0.0000   0.0000   0.0000   0.0000
     0.0000   0.0000   0.0000   0.0000

          k = 0.5000 0.1500 0.1500 ( 73928 PWs)   bands (ev):

   -18.1281 -18.1281 -18.0397 -18.0397 -17.9993 -17.9993 -17.9954 -17.9954
   -17.9651 -17.9651 -17.9608 -17.9608 -17.8047 -17.8047 -17.7796 -17.7796
   -15.3216 -15.3216 -15.3008 -15.3008 -15.2537 -15.2532 -15.2491 -15.2487
   -15.2402 -15.2401 -15.2351 -15.2349 -15.2229 -15.2229 -15.2149 -15.2149
   -15.1849 -15.1849 -15.1674 -15.1674 -15.0948 -15.0948 -15.0876 -15.0876
   -15.0732 -15.0732 -15.0690 -15.0690 -15.0092 -15.0092 -15.0005 -15.0005
   -12.7872 -12.7870 -12.7778 -12.7749 -12.7702 -12.7697 -12.7312 -12.7292
   -12.7264 -12.7263 -12.7219 -12.7210 -12.7166 -12.7158 -12.6984 -12.6975
   -12.6834 -12.6832 -12.6581 -12.6580 -12.6571 -12.6569 -12.6475 -12.6470
   -12.6426 -12.6420 -12.6337 -12.6335 -12.5920 -12.5914 -12.5900 -12.5898
   -12.5689 -12.5683 -12.5597 -12.5596 -12.5437 -12.5433 -12.5061 -12.5056
   -12.4986 -12.4985 -12.4913 -12.4912 -12.4900 -12.4897 -12.4172 -12.4172
   -11.4022 -11.4015 -11.3438 -11.3431 -11.2817 -11.2811 -11.2311 -11.2305
   -11.2069 -11.2063 -11.1643 -11.1634 -11.1000 -11.0989 -11.0756 -11.0732
   -11.0439 -11.0429 -11.0204 -11.0176 -10.9967 -10.9956 -10.9865 -10.9853
   -10.9627 -10.9598 -10.9204 -10.9192 -10.8954 -10.8945 -10.8471 -10.8462
   -10.8233 -10.8220 -10.7913 -10.7907 -10.7589 -10.7575 -10.6874 -10.6871
   -10.6425 -10.6424 -10.6211 -10.6209 -10.5937 -10.5935 -10.5393 -10.5390
    -6.0981  -6.0980  -6.0135  -6.0133  -5.9762  -5.9758  -5.9731  -5.9728
    -5.9423  -5.9401  -5.9365  -5.9342  -5.7959  -5.7958  -5.7738  -5.7734
    -5.1590  -5.1581  -5.0727  -5.0719  -4.7646  -4.7618  -4.7376  -4.7361
    -4.6821  -4.6789  -4.6314  -4.6291  -4.5024  -4.5016  -4.4805  -4.4800
    -4.4218  -4.4205  -4.4044  -4.4026  -4.3884  -4.3869  -4.3806  -4.3779
    -4.3720  -4.3688  -4.3628  -4.3616  -4.3561  -4.3514  -4.3446  -4.3426
    -4.3236  -4.3203  -4.3159  -4.3140  -4.2883  -4.2844  -4.2593  -4.2547
    -4.2124  -4.2101  -4.1882  -4.1872  -4.1833  -4.1817  -4.1739  -4.1714
    -0.9709  -0.9130  -0.7121  -0.6962  -0.6614  -0.6387  -0.6136  -0.6112
    -0.5738  -0.5176  -0.4914  -0.4749  -0.4331  -0.4184  -0.4090  -0.3966
    -0.2027  -0.1961  -0.1577  -0.1502  -0.0093  -0.0015   0.0271   0.0320
     0.0703   0.0968   0.1330   0.1419   0.1860   0.1925   0.2634   0.2715
     0.2853   0.3287   0.3513   0.3772   0.4025   0.4177   0.4370   0.4543
     0.4596   0.4746   0.4864   0.5034   0.5591   0.5816   0.6202   0.6358
     0.6673   0.6786   0.6990   0.7171   0.7308   0.7552   0.7710   0.7779
     0.7981   0.8115   0.8208   0.8303   0.8443   0.8607   0.8764   0.8855
     0.8914   0.9119   0.9284   0.9485   0.9542   0.9604   0.9679   0.9782
     0.9841   0.9953   1.0062   1.0260   1.0348   1.0407   1.0508   1.0629
     1.0733   1.0913   1.1030   1.1122   1.1254   1.1412   1.1432   1.1551
     1.1698   1.1725   1.1837   1.2012   1.2155   1.2339   1.2380   1.2472
     1.2574   1.2658   1.2750   1.2867   1.3020   1.3197   1.3315   1.3414
     1.3533   1.3650   1.3729   1.3831   1.3949   1.4146   1.4231   1.4319
     1.4393   1.4568   1.4688   1.4833   1.4927   1.5055   1.5274   1.5474
     1.5604   1.5719   1.5748   1.5976   1.6039   1.6135   1.6297   1.6400
     1.6732   1.6879   1.7148   1.7365   1.7799   1.7992   1.8141   1.8462
     1.9353   1.9580   1.9858   2.0178   2.1880   2.1902   2.2252   2.2491
     4.3124   4.3724   4.4264   4.4836   4.8600   4.9116   4.9661   5.0386
     5.1497   5.1918   5.2679   5.2908   5.5620   5.6296   5.6516   5.6776
     5.9959   6.0148   6.1376   6.1899   6.2672   6.3096   6.3866   6.3987
     6.4573   6.4955   6.5718   6.6249   6.6534   6.6811   6.7534   6.7990
     7.0106   7.0304   7.0906   7.1067   7.3068   7.3674   7.4565   7.4879
     7.5553   7.6105   7.6948   7.7127   7.7526   7.7749   7.7983   7.8150
     7.8900   7.8994   7.9272   7.9542   7.9888   8.0116   8.0260   8.0447
     8.0678   8.0764   8.1134   8.1299   8.1497   8.1803   8.1996   8.2086
     8.2454   8.2580   8.2727   8.2986   8.3374   8.3576   8.3872   8.4115
     8.4213   8.4394   8.4478   8.4623   8.4879   8.5024   8.5441   8.5752
     8.5820   8.5952   8.6117   8.6233   8.6556   8.6637   8.6816   8.7161
     8.7263   8.7356   8.7770   8.7850   8.7976   8.8168   8.8326   8.8432
     8.8569   8.8716   8.8918   8.9128   8.9254   8.9358   8.9667   8.9832
     8.9966   9.0180   9.0296   9.0477   9.0888   9.0958   9.1256   9.1432
     9.1721   9.1791   9.1982   9.2183   9.2386   9.2580   9.2894   9.3056
     9.3321   9.3402   9.3911   9.4010   9.4062   9.4252   9.4318   9.4555
     9.4607   9.4732   9.4907   9.5059   9.5161   9.5338   9.5694   9.5800
     9.5994   9.6099   9.6224   9.6432   9.7148   9.7260   9.7619   9.7718
     9.8164   9.8293   9.9517   9.9655

     occupation numbers 
     1.0000   1.0000   1.0000   1.0000   1.0000   1.0000   1.0000   1.0000
     1.0000   1.0000   1.0000   1.0000   1.0000   1.0000   1.0000   1.0000
     1.0000   1.0000   1.0000   1.0000   1.0000   1.0000   1.0000   1.0000
     1.0000   1.0000   1.0000   1.0000   1.0000   1.0000   1.0000   1.0000
     1.0000   1.0000   1.0000   1.0000   1.0000   1.0000   1.0000   1.0000
     1.0000   1.0000   1.0000   1.0000   1.0000   1.0000   1.0000   1.0000
     1.0000   1.0000   1.0000   1.0000   1.0000   1.0000   1.0000   1.0000
     1.0000   1.0000   1.0000   1.0000   1.0000   1.0000   1.0000   1.0000
     1.0000   1.0000   1.0000   1.0000   1.0000   1.0000   1.0000   1.0000
     1.0000   1.0000   1.0000   1.0000   1.0000   1.0000   1.0000   1.0000
     1.0000   1.0000   1.0000   1.0000   1.0000   1.0000   1.0000   1.0000
     1.0000   1.0000   1.0000   1.0000   1.0000   1.0000   1.0000   1.0000
     1.0000   1.0000   1.0000   1.0000   1.0000   1.0000   1.0000   1.0000
     1.0000   1.0000   1.0000   1.0000   1.0000   1.0000   1.0000   1.0000
     1.0000   1.0000   1.0000   1.0000   1.0000   1.0000   1.0000   1.0000
     1.0000   1.0000   1.0000   1.0000   1.0000   1.0000   1.0000   1.0000
     1.0000   1.0000   1.0000   1.0000   1.0000   1.0000   1.0000   1.0000
     1.0000   1.0000   1.0000   1.0000   1.0000   1.0000   1.0000   1.0000
     1.0000   1.0000   1.0000   1.0000   1.0000   1.0000   1.0000   1.0000
     1.0000   1.0000   1.0000   1.0000   1.0000   1.0000   1.0000   1.0000
     1.0000   1.0000   1.0000   1.0000   1.0000   1.0000   1.0000   1.0000
     1.0000   1.0000   1.0000   1.0000   1.0000   1.0000   1.0000   1.0000
     1.0000   1.0000   1.0000   1.0000   1.0000   1.0000   1.0000   1.0000
     1.0000   1.0000   1.0000   1.0000   1.0000   1.0000   1.0000   1.0000
     1.0000   1.0000   1.0000   1.0000   1.0000   1.0000   1.0000   1.0000
     1.0000   1.0000   1.0000   1.0000   1.0000   1.0000   1.0000   1.0000
     1.0000   1.0000   1.0000   1.0000   1.0000   1.0000   1.0000   1.0000
     1.0000   1.0000   1.0000   1.0000   1.0000   1.0000   1.0000   1.0000
     1.0000   1.0000   1.0000   1.0000   1.0000   1.0000   1.0000   1.0000
     1.0000   1.0000   1.0000   1.0000   1.0000   1.0000   1.0000   1.0000
     1.0000   1.0000   1.0000   1.0000   1.0000   1.0000   1.0000   1.0000
     1.0000   1.0000   1.0000   1.0000   1.0000   1.0000   1.0000   1.0000
     1.0000   1.0000   1.0000   1.0000   1.0000   1.0000   1.0000   1.0000
     1.0000   1.0000   1.0000   1.0000   1.0000   1.0000   1.0000   1.0000
     1.0000   1.0000   1.0000   1.0000   1.0000   1.0000   1.0000   1.0000
     1.0000   1.0000   1.0000   1.0000   1.0000   1.0000   1.0000   1.0000
     1.0000   1.0000   1.0000   1.0000   1.0000   1.0000   1.0000   1.0000
     1.0000   1.0000   1.0000   1.0000   1.0000   1.0000   1.0000   1.0000
     1.0000   1.0000   1.0000   1.0000   1.0000   1.0000   1.0000   1.0000
     1.0000   1.0000   1.0000   1.0000   1.0000   1.0000   1.0000   1.0000
     1.0000   1.0000   1.0000   1.0000   1.0000   1.0000   1.0000   1.0000
     1.0000   1.0000   1.0000   1.0000   1.0000   1.0000   1.0000   1.0000
     1.0000   1.0000   1.0000   1.0000   1.0000   1.0000   1.0000   1.0000
     1.0000   1.0000   1.0000   1.0000   1.0000   1.0000   1.0000   1.0000
     0.0000   0.0000   0.0000   0.0000   0.0000   0.0000   0.0000   0.0000
     0.0000   0.0000   0.0000   0.0000   0.0000   0.0000   0.0000   0.0000
     0.0000   0.0000   0.0000   0.0000   0.0000   0.0000   0.0000   0.0000
     0.0000   0.0000   0.0000   0.0000   0.0000   0.0000   0.0000   0.0000
     0.0000   0.0000   0.0000   0.0000   0.0000   0.0000   0.0000   0.0000
     0.0000   0.0000   0.0000   0.0000   0.0000   0.0000   0.0000   0.0000
     0.0000   0.0000   0.0000   0.0000   0.0000   0.0000   0.0000   0.0000
     0.0000   0.0000   0.0000   0.0000   0.0000   0.0000   0.0000   0.0000
     0.0000   0.0000   0.0000   0.0000   0.0000   0.0000   0.0000   0.0000
     0.0000   0.0000   0.0000   0.0000   0.0000   0.0000   0.0000   0.0000
     0.0000   0.0000   0.0000   0.0000   0.0000   0.0000   0.0000   0.0000
     0.0000   0.0000   0.0000   0.0000   0.0000   0.0000   0.0000   0.0000
     0.0000   0.0000   0.0000   0.0000   0.0000   0.0000   0.0000   0.0000
     0.0000   0.0000   0.0000   0.0000   0.0000   0.0000   0.0000   0.0000
     0.0000   0.0000   0.0000   0.0000   0.0000   0.0000   0.0000   0.0000
     0.0000   0.0000   0.0000   0.0000   0.0000   0.0000   0.0000   0.0000
     0.0000   0.0000   0.0000   0.0000   0.0000   0.0000   0.0000   0.0000
     0.0000   0.0000   0.0000   0.0000   0.0000   0.0000   0.0000   0.0000
     0.0000   0.0000   0.0000   0.0000

          k = 0.5000 0.1250 0.1250 ( 73950 PWs)   bands (ev):

   -18.1281 -18.1281 -18.0397 -18.0397 -17.9993 -17.9993 -17.9954 -17.9954
   -17.9651 -17.9651 -17.9608 -17.9608 -17.8047 -17.8047 -17.7796 -17.7796
   -15.3216 -15.3216 -15.3008 -15.3008 -15.2537 -15.2533 -15.2490 -15.2487
   -15.2402 -15.2401 -15.2350 -15.2349 -15.2229 -15.2229 -15.2149 -15.2149
   -15.1849 -15.1849 -15.1674 -15.1674 -15.0948 -15.0948 -15.0876 -15.0876
   -15.0732 -15.0732 -15.0690 -15.0690 -15.0092 -15.0092 -15.0005 -15.0005
   -12.7873 -12.7871 -12.7784 -12.7759 -12.7703 -12.7699 -12.7306 -12.7289
   -12.7264 -12.7263 -12.7217 -12.7208 -12.7165 -12.7157 -12.6987 -12.6980
   -12.6836 -12.6834 -12.6581 -12.6580 -12.6570 -12.6569 -12.6472 -12.6468
   -12.6421 -12.6416 -12.6337 -12.6335 -12.5918 -12.5913 -12.5900 -12.5898
   -12.5687 -12.5683 -12.5599 -12.5597 -12.5436 -12.5432 -12.5059 -12.5055
   -12.4986 -12.4985 -12.4912 -12.4912 -12.4899 -12.4896 -12.4172 -12.4172
   -11.4030 -11.4023 -11.3428 -11.3422 -11.2825 -11.2820 -11.2286 -11.2279
   -11.2057 -11.2053 -11.1644 -11.1634 -11.1003 -11.0991 -11.0763 -11.0738
   -11.0431 -11.0422 -11.0185 -11.0159 -10.9982 -10.9972 -10.9885 -10.9875
   -10.9658 -10.9630 -10.9203 -10.9193 -10.8953 -10.8945 -10.8474 -10.8466
   -10.8234 -10.8223 -10.7917 -10.7912 -10.7576 -10.7564 -10.6871 -10.6868
   -10.6428 -10.6426 -10.6214 -10.6211 -10.5928 -10.5927 -10.5384 -10.5381
    -6.0981  -6.0980  -6.0135  -6.0133  -5.9762  -5.9759  -5.9731  -5.9728
    -5.9422  -5.9403  -5.9362  -5.9343  -5.7959  -5.7958  -5.7737  -5.7734
    -5.1706  -5.1698  -5.0844  -5.0837  -4.7573  -4.7545  -4.7304  -4.7290
    -4.6838  -4.6808  -4.6351  -4.6329  -4.5023  -4.5016  -4.4804  -4.4800
    -4.4213  -4.4202  -4.4037  -4.4023  -4.3880  -4.3866  -4.3800  -4.3777
    -4.3714  -4.3688  -4.3624  -4.3612  -4.3553  -4.3514  -4.3442  -4.3425
    -4.3228  -4.3200  -4.3153  -4.3137  -4.2738  -4.2704  -4.2457  -4.2417
    -4.2113  -4.2088  -4.1880  -4.1872  -4.1824  -4.1809  -4.1730  -4.1703
    -0.9861  -0.9349  -0.7324  -0.7123  -0.6849  -0.6623  -0.6336  -0.6322
    -0.5914  -0.5409  -0.5078  -0.4925  -0.4459  -0.4323  -0.4234  -0.4122
    -0.2001  -0.1950  -0.1600  -0.1539  -0.0070   0.0001   0.0266   0.0311
     0.0754   0.1001   0.1320   0.1408   0.1846   0.1896   0.2671   0.2749
     0.2877   0.3242   0.3562   0.3773   0.4063   0.4216   0.4425   0.4593
     0.4655   0.4758   0.4867   0.5039   0.5710   0.5882   0.6305   0.6475
     0.6733   0.6799   0.7041   0.7194   0.7370   0.7600   0.7760   0.7817
     0.8020   0.8169   0.8235   0.8363   0.8488   0.8690   0.8851   0.8902
     0.8943   0.9169   0.9327   0.9550   0.9583   0.9643   0.9731   0.9823
     0.9960   1.0001   1.0090   1.0279   1.0383   1.0448   1.0543   1.0667
     1.0767   1.0960   1.1051   1.1150   1.1282   1.1411   1.1435   1.1555
     1.1711   1.1781   1.1831   1.2033   1.2137   1.2327   1.2381   1.2479
     1.2599   1.2659   1.2760   1.2885   1.3020   1.3183   1.3330   1.3387
     1.3536   1.3640   1.3748   1.3823   1.3937   1.4132   1.4226   1.4343
     1.4399   1.4547   1.4680   1.4826   1.4926   1.5047   1.5315   1.5469
     1.5621   1.5723   1.5771   1.5976   1.6041   1.6156   1.6318   1.6381
     1.6750   1.6871   1.7247   1.7462   1.7933   1.8160   1.8283   1.8582
     1.9489   1.9689   1.9943   2.0208   2.2218   2.2256   2.2604   2.2817
     4.2686   4.3279   4.3726   4.4250   4.8348   4.8796   4.9413   5.0025
     5.1315   5.1707   5.2369   5.2603   5.5247   5.5894   5.6111   5.6281
     6.0033   6.0214   6.1443   6.1881   6.2645   6.3002   6.3840   6.3951
     6.4557   6.4875   6.5740   6.6182   6.6530   6.6766   6.7550   6.7950
     7.0037   7.0193   7.0860   7.0996   7.3304   7.3842   7.4866   7.5136
     7.5823   7.6322   7.7277   7.7443   7.7824   7.7962   7.8178   7.8391
     7.9013   7.9160   7.9398   7.9686   7.9935   8.0156   8.0346   8.0510
     8.0812   8.0902   8.1251   8.1401   8.1649   8.1957   8.2147   8.2213
     8.2565   8.2704   8.2901   8.3121   8.3527   8.3726   8.3957   8.4141
     8.4238   8.4449   8.4483   8.4684   8.4865   8.4976   8.5477   8.5784
     8.5824   8.5965   8.6077   8.6233   8.6539   8.6697   8.6865   8.7139
     8.7231   8.7398   8.7783   8.7854   8.8004   8.8242   8.8345   8.8445
     8.8553   8.8768   8.8896   8.9090   8.9197   8.9298   8.9581   8.9794
     8.9900   9.0083   9.0209   9.0366   9.0864   9.0942   9.1259   9.1406
     9.1650   9.1781   9.1974   9.2086   9.2326   9.2527   9.2873   9.3023
     9.3315   9.3432   9.3902   9.3978   9.4096   9.4246   9.4369   9.4558
     9.4722   9.4801   9.4979   9.5132   9.5199   9.5380   9.5714   9.5808
     9.6038   9.6143   9.6235   9.6423   9.7083   9.7182   9.7570   9.7689
     9.7977   9.8120   9.9495   9.9618

     occupation numbers 
     1.0000   1.0000   1.0000   1.0000   1.0000   1.0000   1.0000   1.0000
     1.0000   1.0000   1.0000   1.0000   1.0000   1.0000   1.0000   1.0000
     1.0000   1.0000   1.0000   1.0000   1.0000   1.0000   1.0000   1.0000
     1.0000   1.0000   1.0000   1.0000   1.0000   1.0000   1.0000   1.0000
     1.0000   1.0000   1.0000   1.0000   1.0000   1.0000   1.0000   1.0000
     1.0000   1.0000   1.0000   1.0000   1.0000   1.0000   1.0000   1.0000
     1.0000   1.0000   1.0000   1.0000   1.0000   1.0000   1.0000   1.0000
     1.0000   1.0000   1.0000   1.0000   1.0000   1.0000   1.0000   1.0000
     1.0000   1.0000   1.0000   1.0000   1.0000   1.0000   1.0000   1.0000
     1.0000   1.0000   1.0000   1.0000   1.0000   1.0000   1.0000   1.0000
     1.0000   1.0000   1.0000   1.0000   1.0000   1.0000   1.0000   1.0000
     1.0000   1.0000   1.0000   1.0000   1.0000   1.0000   1.0000   1.0000
     1.0000   1.0000   1.0000   1.0000   1.0000   1.0000   1.0000   1.0000
     1.0000   1.0000   1.0000   1.0000   1.0000   1.0000   1.0000   1.0000
     1.0000   1.0000   1.0000   1.0000   1.0000   1.0000   1.0000   1.0000
     1.0000   1.0000   1.0000   1.0000   1.0000   1.0000   1.0000   1.0000
     1.0000   1.0000   1.0000   1.0000   1.0000   1.0000   1.0000   1.0000
     1.0000   1.0000   1.0000   1.0000   1.0000   1.0000   1.0000   1.0000
     1.0000   1.0000   1.0000   1.0000   1.0000   1.0000   1.0000   1.0000
     1.0000   1.0000   1.0000   1.0000   1.0000   1.0000   1.0000   1.0000
     1.0000   1.0000   1.0000   1.0000   1.0000   1.0000   1.0000   1.0000
     1.0000   1.0000   1.0000   1.0000   1.0000   1.0000   1.0000   1.0000
     1.0000   1.0000   1.0000   1.0000   1.0000   1.0000   1.0000   1.0000
     1.0000   1.0000   1.0000   1.0000   1.0000   1.0000   1.0000   1.0000
     1.0000   1.0000   1.0000   1.0000   1.0000   1.0000   1.0000   1.0000
     1.0000   1.0000   1.0000   1.0000   1.0000   1.0000   1.0000   1.0000
     1.0000   1.0000   1.0000   1.0000   1.0000   1.0000   1.0000   1.0000
     1.0000   1.0000   1.0000   1.0000   1.0000   1.0000   1.0000   1.0000
     1.0000   1.0000   1.0000   1.0000   1.0000   1.0000   1.0000   1.0000
     1.0000   1.0000   1.0000   1.0000   1.0000   1.0000   1.0000   1.0000
     1.0000   1.0000   1.0000   1.0000   1.0000   1.0000   1.0000   1.0000
     1.0000   1.0000   1.0000   1.0000   1.0000   1.0000   1.0000   1.0000
     1.0000   1.0000   1.0000   1.0000   1.0000   1.0000   1.0000   1.0000
     1.0000   1.0000   1.0000   1.0000   1.0000   1.0000   1.0000   1.0000
     1.0000   1.0000   1.0000   1.0000   1.0000   1.0000   1.0000   1.0000
     1.0000   1.0000   1.0000   1.0000   1.0000   1.0000   1.0000   1.0000
     1.0000   1.0000   1.0000   1.0000   1.0000   1.0000   1.0000   1.0000
     1.0000   1.0000   1.0000   1.0000   1.0000   1.0000   1.0000   1.0000
     1.0000   1.0000   1.0000   1.0000   1.0000   1.0000   1.0000   1.0000
     1.0000   1.0000   1.0000   1.0000   1.0000   1.0000   1.0000   1.0000
     1.0000   1.0000   1.0000   1.0000   1.0000   1.0000   1.0000   1.0000
     1.0000   1.0000   1.0000   1.0000   1.0000   1.0000   1.0000   1.0000
     1.0000   1.0000   1.0000   1.0000   1.0000   1.0000   1.0000   1.0000
     1.0000   1.0000   1.0000   1.0000   1.0000   1.0000   1.0000   1.0000
     0.0000   0.0000   0.0000   0.0000   0.0000   0.0000   0.0000   0.0000
     0.0000   0.0000   0.0000   0.0000   0.0000   0.0000   0.0000   0.0000
     0.0000   0.0000   0.0000   0.0000   0.0000   0.0000   0.0000   0.0000
     0.0000   0.0000   0.0000   0.0000   0.0000   0.0000   0.0000   0.0000
     0.0000   0.0000   0.0000   0.0000   0.0000   0.0000   0.0000   0.0000
     0.0000   0.0000   0.0000   0.0000   0.0000   0.0000   0.0000   0.0000
     0.0000   0.0000   0.0000   0.0000   0.0000   0.0000   0.0000   0.0000
     0.0000   0.0000   0.0000   0.0000   0.0000   0.0000   0.0000   0.0000
     0.0000   0.0000   0.0000   0.0000   0.0000   0.0000   0.0000   0.0000
     0.0000   0.0000   0.0000   0.0000   0.0000   0.0000   0.0000   0.0000
     0.0000   0.0000   0.0000   0.0000   0.0000   0.0000   0.0000   0.0000
     0.0000   0.0000   0.0000   0.0000   0.0000   0.0000   0.0000   0.0000
     0.0000   0.0000   0.0000   0.0000   0.0000   0.0000   0.0000   0.0000
     0.0000   0.0000   0.0000   0.0000   0.0000   0.0000   0.0000   0.0000
     0.0000   0.0000   0.0000   0.0000   0.0000   0.0000   0.0000   0.0000
     0.0000   0.0000   0.0000   0.0000   0.0000   0.0000   0.0000   0.0000
     0.0000   0.0000   0.0000   0.0000   0.0000   0.0000   0.0000   0.0000
     0.0000   0.0000   0.0000   0.0000   0.0000   0.0000   0.0000   0.0000
     0.0000   0.0000   0.0000   0.0000

          k = 0.5000 0.1000 0.1000 ( 73910 PWs)   bands (ev):

   -18.1281 -18.1281 -18.0397 -18.0397 -17.9993 -17.9993 -17.9954 -17.9954
   -17.9651 -17.9651 -17.9608 -17.9608 -17.8047 -17.8047 -17.7796 -17.7796
   -15.3216 -15.3216 -15.3008 -15.3008 -15.2538 -15.2534 -15.2489 -15.2487
   -15.2402 -15.2401 -15.2350 -15.2349 -15.2229 -15.2229 -15.2149 -15.2149
   -15.1849 -15.1849 -15.1674 -15.1674 -15.0948 -15.0948 -15.0876 -15.0876
   -15.0732 -15.0732 -15.0690 -15.0690 -15.0092 -15.0092 -15.0005 -15.0005
   -12.7873 -12.7872 -12.7788 -12.7768 -12.7704 -12.7700 -12.7300 -12.7288
   -12.7264 -12.7263 -12.7215 -12.7207 -12.7163 -12.7157 -12.6990 -12.6984
   -12.6837 -12.6835 -12.6580 -12.6579 -12.6570 -12.6569 -12.6470 -12.6467
   -12.6417 -12.6413 -12.6336 -12.6335 -12.5917 -12.5913 -12.5900 -12.5898
   -12.5686 -12.5682 -12.5600 -12.5599 -12.5435 -12.5431 -12.5058 -12.5054
   -12.4986 -12.4985 -12.4912 -12.4911 -12.4897 -12.4894 -12.4172 -12.4172
   -11.4036 -11.4031 -11.3419 -11.3415 -11.2832 -11.2828 -11.2267 -11.2260
   -11.2042 -11.2037 -11.1649 -11.1639 -11.1003 -11.0990 -11.0776 -11.0750
   -11.0420 -11.0409 -11.0170 -11.0147 -10.9993 -10.9983 -10.9898 -10.9890
   -10.9688 -10.9663 -10.9203 -10.9194 -10.8951 -10.8945 -10.8477 -10.8470
   -10.8234 -10.8225 -10.7921 -10.7917 -10.7564 -10.7554 -10.6867 -10.6864
   -10.6431 -10.6429 -10.6216 -10.6214 -10.5920 -10.5919 -10.5375 -10.5373
    -6.0981  -6.0980  -6.0135  -6.0134  -5.9762  -5.9759  -5.9731  -5.9728
    -5.9420  -5.9405  -5.9360  -5.9344  -5.7958  -5.7958  -5.7737  -5.7735
    -5.1802  -5.1796  -5.0941  -5.0935  -4.7504  -4.7477  -4.7238  -4.7226
    -4.6859  -4.6831  -4.6387  -4.6367  -4.5022  -4.5017  -4.4803  -4.4800
    -4.4209  -4.4200  -4.4032  -4.4021  -4.3877  -4.3865  -4.3794  -4.3775
    -4.3711  -4.3689  -4.3621  -4.3611  -4.3546  -4.3515  -4.3440  -4.3425
    -4.3222  -4.3199  -4.3148  -4.3136  -4.2613  -4.2584  -4.2350  -4.2318
    -4.2096  -4.2070  -4.1878  -4.1870  -4.1814  -4.1800  -4.1715  -4.1688
    -0.9974  -0.9543  -0.7484  -0.7257  -0.7055  -0.6834  -0.6506  -0.6489
    -0.6046  -0.5623  -0.5205  -0.5075  -0.4562  -0.4444  -0.4350  -0.4254
    -0.1980  -0.1941  -0.1617  -0.1569  -0.0048   0.0012   0.0262   0.0302
     0.0803   0.1019   0.1318   0.1398   0.1832   0.1870   0.2702   0.2775
     0.2899   0.3195   0.3603   0.3768   0.4098   0.4237   0.4469   0.4627
     0.4700   0.4772   0.4867   0.5034   0.5803   0.5929   0.6394   0.6558
     0.6789   0.6818   0.7088   0.7212   0.7420   0.7629   0.7800   0.7862
     0.8052   0.8201   0.8270   0.8419   0.8525   0.8756   0.8913   0.8942
     0.8990   0.9206   0.9358   0.9583   0.9617   0.9679   0.9779   0.9861
     1.0028   1.0072   1.0150   1.0290   1.0418   1.0485   1.0589   1.0693
     1.0811   1.1002   1.1062   1.1175   1.1284   1.1396   1.1472   1.1558
     1.1710   1.1815   1.1849   1.2045   1.2122   1.2309   1.2391   1.2468
     1.2587   1.2699   1.2770   1.2911   1.3015   1.3160   1.3324   1.3384
     1.3540   1.3637   1.3767   1.3812   1.3924   1.4109   1.4221   1.4356
     1.4421   1.4528   1.4672   1.4816   1.4931   1.5038   1.5356   1.5467
     1.5624   1.5739   1.5793   1.5974   1.6032   1.6166   1.6330   1.6369
     1.6765   1.6865   1.7345   1.7551   1.8060   1.8311   1.8406   1.8679
     1.9607   1.9776   2.0019   2.0229   2.2524   2.2570   2.2917   2.3099
     4.2334   4.2897   4.3259   4.3730   4.8143   4.8513   4.9210   4.9705
     5.1178   5.1534   5.2099   5.2331   5.4952   5.5549   5.5752   5.5840
     6.0108   6.0266   6.1500   6.1852   6.2632   6.2920   6.3823   6.3922
     6.4556   6.4808   6.5769   6.6120   6.6537   6.6728   6.7576   6.7910
     6.9965   7.0086   7.0818   7.0927   7.3513   7.3965   7.5125   7.5349
     7.6064   7.6486   7.7542   7.7687   7.8016   7.8147   7.8338   7.8601
     7.9099   7.9311   7.9501   7.9756   8.0021   8.0239   8.0441   8.0576
     8.0918   8.1017   8.1353   8.1497   8.1800   8.2118   8.2292   8.2348
     8.2654   8.2813   8.3075   8.3268   8.3670   8.3813   8.4037   8.4163
     8.4260   8.4463   8.4502   8.4731   8.4849   8.4963   8.5494   8.5736
     8.5820   8.5942   8.6088   8.6254   8.6511   8.6717   8.6899   8.7102
     8.7192   8.7441   8.7794   8.7873   8.8020   8.8280   8.8334   8.8489
     8.8567   8.8803   8.8877   8.9043   8.9153   8.9274   8.9503   8.9773
     8.9850   9.0007   9.0123   9.0266   9.0806   9.0879   9.1249   9.1356
     9.1570   9.1770   9.2004   9.2079   9.2272   9.2482   9.2874   9.2990
     9.3332   9.3481   9.3830   9.4006   9.4106   9.4270   9.4443   9.4582
     9.4820   9.4867   9.5117   9.5206   9.5294   9.5458   9.5694   9.5823
     9.6052   9.6165   9.6320   9.6449   9.6989   9.7098   9.7474   9.7623
     9.7810   9.7943   9.9468   9.9565

     occupation numbers 
     1.0000   1.0000   1.0000   1.0000   1.0000   1.0000   1.0000   1.0000
     1.0000   1.0000   1.0000   1.0000   1.0000   1.0000   1.0000   1.0000
     1.0000   1.0000   1.0000   1.0000   1.0000   1.0000   1.0000   1.0000
     1.0000   1.0000   1.0000   1.0000   1.0000   1.0000   1.0000   1.0000
     1.0000   1.0000   1.0000   1.0000   1.0000   1.0000   1.0000   1.0000
     1.0000   1.0000   1.0000   1.0000   1.0000   1.0000   1.0000   1.0000
     1.0000   1.0000   1.0000   1.0000   1.0000   1.0000   1.0000   1.0000
     1.0000   1.0000   1.0000   1.0000   1.0000   1.0000   1.0000   1.0000
     1.0000   1.0000   1.0000   1.0000   1.0000   1.0000   1.0000   1.0000
     1.0000   1.0000   1.0000   1.0000   1.0000   1.0000   1.0000   1.0000
     1.0000   1.0000   1.0000   1.0000   1.0000   1.0000   1.0000   1.0000
     1.0000   1.0000   1.0000   1.0000   1.0000   1.0000   1.0000   1.0000
     1.0000   1.0000   1.0000   1.0000   1.0000   1.0000   1.0000   1.0000
     1.0000   1.0000   1.0000   1.0000   1.0000   1.0000   1.0000   1.0000
     1.0000   1.0000   1.0000   1.0000   1.0000   1.0000   1.0000   1.0000
     1.0000   1.0000   1.0000   1.0000   1.0000   1.0000   1.0000   1.0000
     1.0000   1.0000   1.0000   1.0000   1.0000   1.0000   1.0000   1.0000
     1.0000   1.0000   1.0000   1.0000   1.0000   1.0000   1.0000   1.0000
     1.0000   1.0000   1.0000   1.0000   1.0000   1.0000   1.0000   1.0000
     1.0000   1.0000   1.0000   1.0000   1.0000   1.0000   1.0000   1.0000
     1.0000   1.0000   1.0000   1.0000   1.0000   1.0000   1.0000   1.0000
     1.0000   1.0000   1.0000   1.0000   1.0000   1.0000   1.0000   1.0000
     1.0000   1.0000   1.0000   1.0000   1.0000   1.0000   1.0000   1.0000
     1.0000   1.0000   1.0000   1.0000   1.0000   1.0000   1.0000   1.0000
     1.0000   1.0000   1.0000   1.0000   1.0000   1.0000   1.0000   1.0000
     1.0000   1.0000   1.0000   1.0000   1.0000   1.0000   1.0000   1.0000
     1.0000   1.0000   1.0000   1.0000   1.0000   1.0000   1.0000   1.0000
     1.0000   1.0000   1.0000   1.0000   1.0000   1.0000   1.0000   1.0000
     1.0000   1.0000   1.0000   1.0000   1.0000   1.0000   1.0000   1.0000
     1.0000   1.0000   1.0000   1.0000   1.0000   1.0000   1.0000   1.0000
     1.0000   1.0000   1.0000   1.0000   1.0000   1.0000   1.0000   1.0000
     1.0000   1.0000   1.0000   1.0000   1.0000   1.0000   1.0000   1.0000
     1.0000   1.0000   1.0000   1.0000   1.0000   1.0000   1.0000   1.0000
     1.0000   1.0000   1.0000   1.0000   1.0000   1.0000   1.0000   1.0000
     1.0000   1.0000   1.0000   1.0000   1.0000   1.0000   1.0000   1.0000
     1.0000   1.0000   1.0000   1.0000   1.0000   1.0000   1.0000   1.0000
     1.0000   1.0000   1.0000   1.0000   1.0000   1.0000   1.0000   1.0000
     1.0000   1.0000   1.0000   1.0000   1.0000   1.0000   1.0000   1.0000
     1.0000   1.0000   1.0000   1.0000   1.0000   1.0000   1.0000   1.0000
     1.0000   1.0000   1.0000   1.0000   1.0000   1.0000   1.0000   1.0000
     1.0000   1.0000   1.0000   1.0000   1.0000   1.0000   1.0000   1.0000
     1.0000   1.0000   1.0000   1.0000   1.0000   1.0000   1.0000   1.0000
     1.0000   1.0000   1.0000   1.0000   1.0000   1.0000   1.0000   1.0000
     1.0000   1.0000   1.0000   1.0000   1.0000   1.0000   1.0000   1.0000
     0.0000   0.0000   0.0000   0.0000   0.0000   0.0000   0.0000   0.0000
     0.0000   0.0000   0.0000   0.0000   0.0000   0.0000   0.0000   0.0000
     0.0000   0.0000   0.0000   0.0000   0.0000   0.0000   0.0000   0.0000
     0.0000   0.0000   0.0000   0.0000   0.0000   0.0000   0.0000   0.0000
     0.0000   0.0000   0.0000   0.0000   0.0000   0.0000   0.0000   0.0000
     0.0000   0.0000   0.0000   0.0000   0.0000   0.0000   0.0000   0.0000
     0.0000   0.0000   0.0000   0.0000   0.0000   0.0000   0.0000   0.0000
     0.0000   0.0000   0.0000   0.0000   0.0000   0.0000   0.0000   0.0000
     0.0000   0.0000   0.0000   0.0000   0.0000   0.0000   0.0000   0.0000
     0.0000   0.0000   0.0000   0.0000   0.0000   0.0000   0.0000   0.0000
     0.0000   0.0000   0.0000   0.0000   0.0000   0.0000   0.0000   0.0000
     0.0000   0.0000   0.0000   0.0000   0.0000   0.0000   0.0000   0.0000
     0.0000   0.0000   0.0000   0.0000   0.0000   0.0000   0.0000   0.0000
     0.0000   0.0000   0.0000   0.0000   0.0000   0.0000   0.0000   0.0000
     0.0000   0.0000   0.0000   0.0000   0.0000   0.0000   0.0000   0.0000
     0.0000   0.0000   0.0000   0.0000   0.0000   0.0000   0.0000   0.0000
     0.0000   0.0000   0.0000   0.0000   0.0000   0.0000   0.0000   0.0000
     0.0000   0.0000   0.0000   0.0000   0.0000   0.0000   0.0000   0.0000
     0.0000   0.0000   0.0000   0.0000

          k = 0.5000 0.0750 0.0750 ( 73892 PWs)   bands (ev):

   -18.1281 -18.1281 -18.0397 -18.0397 -17.9993 -17.9993 -17.9954 -17.9954
   -17.9651 -17.9651 -17.9608 -17.9608 -17.8047 -17.8047 -17.7796 -17.7796
   -15.3216 -15.3216 -15.3008 -15.3008 -15.2538 -15.2535 -15.2489 -15.2487
   -15.2402 -15.2401 -15.2350 -15.2349 -15.2229 -15.2229 -15.2149 -15.2149
   -15.1849 -15.1849 -15.1674 -15.1674 -15.0948 -15.0948 -15.0876 -15.0876
   -15.0732 -15.0732 -15.0690 -15.0690 -15.0092 -15.0092 -15.0005 -15.0005
   -12.7873 -12.7872 -12.7791 -12.7776 -12.7704 -12.7701 -12.7296 -12.7287
   -12.7264 -12.7263 -12.7213 -12.7207 -12.7162 -12.7157 -12.6992 -12.6988
   -12.6838 -12.6837 -12.6580 -12.6579 -12.6570 -12.6569 -12.6469 -12.6466
   -12.6414 -12.6411 -12.6336 -12.6335 -12.5916 -12.5913 -12.5900 -12.5898
   -12.5685 -12.5682 -12.5600 -12.5600 -12.5433 -12.5431 -12.5056 -12.5053
   -12.4986 -12.4985 -12.4912 -12.4911 -12.4895 -12.4894 -12.4172 -12.4172
   -11.4041 -11.4037 -11.3412 -11.3409 -11.2836 -11.2833 -11.2254 -11.2247
   -11.2023 -11.2018 -11.1656 -11.1647 -11.0999 -11.0985 -11.0792 -11.0768
   -11.0406 -11.0395 -11.0160 -11.0143 -11.0001 -10.9991 -10.9902 -10.9897
   -10.9717 -10.9694 -10.9202 -10.9195 -10.8950 -10.8945 -10.8479 -10.8474
   -10.8235 -10.8228 -10.7925 -10.7921 -10.7554 -10.7546 -10.6863 -10.6861
   -10.6434 -10.6432 -10.6217 -10.6216 -10.5914 -10.5913 -10.5368 -10.5366
    -6.0981  -6.0981  -6.0135  -6.0134  -5.9762  -5.9760  -5.9731  -5.9729
    -5.9419  -5.9407  -5.9357  -5.9346  -5.7958  -5.7957  -5.7737  -5.7735
    -5.1877  -5.1872  -5.1016  -5.1012  -4.7442  -4.7417  -4.7180  -4.7170
    -4.6879  -4.6856  -4.6421  -4.6404  -4.5021  -4.5017  -4.4803  -4.4800
    -4.4206  -4.4200  -4.4028  -4.4020  -4.3875  -4.3866  -4.3790  -4.3775
    -4.3708  -4.3692  -4.3619  -4.3611  -4.3539  -4.3516  -4.3437  -4.3426
    -4.3218  -4.3200  -4.3145  -4.3136  -4.2516  -4.2491  -4.2273  -4.2252
    -4.2074  -4.2050  -4.1876  -4.1868  -4.1805  -4.1793  -4.1696  -4.1671
    -1.0047  -0.9710  -0.7597  -0.7371  -0.7216  -0.7013  -0.6639  -0.6620
    -0.6135  -0.5807  -0.5297  -0.5196  -0.4638  -0.4546  -0.4436  -0.4361
    -0.1964  -0.1936  -0.1629  -0.1594  -0.0029   0.0019   0.0261   0.0294
     0.0848   0.1022   0.1323   0.1389   0.1819   0.1848   0.2729   0.2792
     0.2923   0.3148   0.3636   0.3758   0.4130   0.4244   0.4508   0.4644
     0.4725   0.4787   0.4875   0.5022   0.5873   0.5961   0.6469   0.6606
     0.6830   0.6846   0.7131   0.7225   0.7467   0.7640   0.7824   0.7900
     0.8088   0.8219   0.8306   0.8451   0.8576   0.8800   0.8920   0.8986
     0.9063   0.9234   0.9376   0.9574   0.9657   0.9702   0.9839   0.9905
     1.0058   1.0105   1.0219   1.0325   1.0453   1.0527   1.0627   1.0723
     1.0851   1.1026   1.1081   1.1193   1.1274   1.1369   1.1519   1.1569
     1.1702   1.1819   1.1896   1.2038   1.2125   1.2296   1.2394   1.2442
     1.2582   1.2737   1.2790   1.2935   1.3005   1.3130   1.3308   1.3386
     1.3552   1.3641   1.3776   1.3808   1.3914   1.4078   1.4224   1.4347
     1.4454   1.4515   1.4667   1.4798   1.4942   1.5027   1.5390   1.5465
     1.5634   1.5765   1.5804   1.5966   1.6021   1.6154   1.6331   1.6375
     1.6779   1.6858   1.7440   1.7621   1.8177   1.8424   1.8515   1.8748
     1.9706   1.9839   2.0086   2.0241   2.2783   2.2827   2.3180   2.3324
     4.2078   4.2573   4.2888   4.3290   4.7990   4.8275   4.9060   4.9434
     5.1087   5.1395   5.1883   5.2098   5.4741   5.5260   5.5445   5.5484
     6.0177   6.0302   6.1550   6.1816   6.2632   6.2850   6.3816   6.3896
     6.4565   6.4752   6.5802   6.6064   6.6550   6.6695   6.7610   6.7868
     6.9902   6.9992   7.0784   7.0864   7.3692   7.4043   7.5339   7.5514
     7.6270   7.6597   7.7732   7.7848   7.8136   7.8293   7.8493   7.8748
     7.9182   7.9415   7.9585   7.9792   8.0128   8.0341   8.0537   8.0636
     8.0997   8.1108   8.1425   8.1600   8.1944   8.2272   8.2427   8.2462
     8.2722   8.2899   8.3237   8.3418   8.3794   8.3850   8.4100   8.4153
     8.4284   8.4446   8.4548   8.4765   8.4845   8.4979   8.5497   8.5667
     8.5755   8.5909   8.6140   8.6282   8.6480   8.6717   8.6896   8.7050
     8.7173   8.7477   8.7810   8.7904   8.8030   8.8242   8.8390   8.8505
     8.8596   8.8787   8.8866   8.9020   8.9126   8.9270   8.9449   8.9755
     8.9825   8.9952   9.0051   9.0177   9.0739   9.0799   9.1210   9.1297
     9.1472   9.1688   9.2008   9.2173   9.2276   9.2475   9.2893   9.2959
     9.3371   9.3527   9.3774   9.4033   9.4101   9.4293   9.4549   9.4672
     9.4901   9.4957   9.5203   9.5329   9.5388   9.5491   9.5699   9.5835
     9.6038   9.6214   9.6447   9.6510   9.6880   9.7017   9.7323   9.7504
     9.7683   9.7773   9.9407   9.9481

     occupation numbers 
     1.0000   1.0000   1.0000   1.0000   1.0000   1.0000   1.0000   1.0000
     1.0000   1.0000   1.0000   1.0000   1.0000   1.0000   1.0000   1.0000
     1.0000   1.0000   1.0000   1.0000   1.0000   1.0000   1.0000   1.0000
     1.0000   1.0000   1.0000   1.0000   1.0000   1.0000   1.0000   1.0000
     1.0000   1.0000   1.0000   1.0000   1.0000   1.0000   1.0000   1.0000
     1.0000   1.0000   1.0000   1.0000   1.0000   1.0000   1.0000   1.0000
     1.0000   1.0000   1.0000   1.0000   1.0000   1.0000   1.0000   1.0000
     1.0000   1.0000   1.0000   1.0000   1.0000   1.0000   1.0000   1.0000
     1.0000   1.0000   1.0000   1.0000   1.0000   1.0000   1.0000   1.0000
     1.0000   1.0000   1.0000   1.0000   1.0000   1.0000   1.0000   1.0000
     1.0000   1.0000   1.0000   1.0000   1.0000   1.0000   1.0000   1.0000
     1.0000   1.0000   1.0000   1.0000   1.0000   1.0000   1.0000   1.0000
     1.0000   1.0000   1.0000   1.0000   1.0000   1.0000   1.0000   1.0000
     1.0000   1.0000   1.0000   1.0000   1.0000   1.0000   1.0000   1.0000
     1.0000   1.0000   1.0000   1.0000   1.0000   1.0000   1.0000   1.0000
     1.0000   1.0000   1.0000   1.0000   1.0000   1.0000   1.0000   1.0000
     1.0000   1.0000   1.0000   1.0000   1.0000   1.0000   1.0000   1.0000
     1.0000   1.0000   1.0000   1.0000   1.0000   1.0000   1.0000   1.0000
     1.0000   1.0000   1.0000   1.0000   1.0000   1.0000   1.0000   1.0000
     1.0000   1.0000   1.0000   1.0000   1.0000   1.0000   1.0000   1.0000
     1.0000   1.0000   1.0000   1.0000   1.0000   1.0000   1.0000   1.0000
     1.0000   1.0000   1.0000   1.0000   1.0000   1.0000   1.0000   1.0000
     1.0000   1.0000   1.0000   1.0000   1.0000   1.0000   1.0000   1.0000
     1.0000   1.0000   1.0000   1.0000   1.0000   1.0000   1.0000   1.0000
     1.0000   1.0000   1.0000   1.0000   1.0000   1.0000   1.0000   1.0000
     1.0000   1.0000   1.0000   1.0000   1.0000   1.0000   1.0000   1.0000
     1.0000   1.0000   1.0000   1.0000   1.0000   1.0000   1.0000   1.0000
     1.0000   1.0000   1.0000   1.0000   1.0000   1.0000   1.0000   1.0000
     1.0000   1.0000   1.0000   1.0000   1.0000   1.0000   1.0000   1.0000
     1.0000   1.0000   1.0000   1.0000   1.0000   1.0000   1.0000   1.0000
     1.0000   1.0000   1.0000   1.0000   1.0000   1.0000   1.0000   1.0000
     1.0000   1.0000   1.0000   1.0000   1.0000   1.0000   1.0000   1.0000
     1.0000   1.0000   1.0000   1.0000   1.0000   1.0000   1.0000   1.0000
     1.0000   1.0000   1.0000   1.0000   1.0000   1.0000   1.0000   1.0000
     1.0000   1.0000   1.0000   1.0000   1.0000   1.0000   1.0000   1.0000
     1.0000   1.0000   1.0000   1.0000   1.0000   1.0000   1.0000   1.0000
     1.0000   1.0000   1.0000   1.0000   1.0000   1.0000   1.0000   1.0000
     1.0000   1.0000   1.0000   1.0000   1.0000   1.0000   1.0000   1.0000
     1.0000   1.0000   1.0000   1.0000   1.0000   1.0000   1.0000   1.0000
     1.0000   1.0000   1.0000   1.0000   1.0000   1.0000   1.0000   1.0000
     1.0000   1.0000   1.0000   1.0000   1.0000   1.0000   1.0000   1.0000
     1.0000   1.0000   1.0000   1.0000   1.0000   1.0000   1.0000   1.0000
     1.0000   1.0000   1.0000   1.0000   1.0000   1.0000   1.0000   1.0000
     1.0000   1.0000   1.0000   1.0000   1.0000   1.0000   1.0000   1.0000
     0.0000   0.0000   0.0000   0.0000   0.0000   0.0000   0.0000   0.0000
     0.0000   0.0000   0.0000   0.0000   0.0000   0.0000   0.0000   0.0000
     0.0000   0.0000   0.0000   0.0000   0.0000   0.0000   0.0000   0.0000
     0.0000   0.0000   0.0000   0.0000   0.0000   0.0000   0.0000   0.0000
     0.0000   0.0000   0.0000   0.0000   0.0000   0.0000   0.0000   0.0000
     0.0000   0.0000   0.0000   0.0000   0.0000   0.0000   0.0000   0.0000
     0.0000   0.0000   0.0000   0.0000   0.0000   0.0000   0.0000   0.0000
     0.0000   0.0000   0.0000   0.0000   0.0000   0.0000   0.0000   0.0000
     0.0000   0.0000   0.0000   0.0000   0.0000   0.0000   0.0000   0.0000
     0.0000   0.0000   0.0000   0.0000   0.0000   0.0000   0.0000   0.0000
     0.0000   0.0000   0.0000   0.0000   0.0000   0.0000   0.0000   0.0000
     0.0000   0.0000   0.0000   0.0000   0.0000   0.0000   0.0000   0.0000
     0.0000   0.0000   0.0000   0.0000   0.0000   0.0000   0.0000   0.0000
     0.0000   0.0000   0.0000   0.0000   0.0000   0.0000   0.0000   0.0000
     0.0000   0.0000   0.0000   0.0000   0.0000   0.0000   0.0000   0.0000
     0.0000   0.0000   0.0000   0.0000   0.0000   0.0000   0.0000   0.0000
     0.0000   0.0000   0.0000   0.0000   0.0000   0.0000   0.0000   0.0000
     0.0000   0.0000   0.0000   0.0000   0.0000   0.0000   0.0000   0.0000
     0.0000   0.0000   0.0000   0.0000

          k = 0.5000 0.0500 0.0500 ( 73876 PWs)   bands (ev):

   -18.1281 -18.1281 -18.0397 -18.0397 -17.9993 -17.9993 -17.9954 -17.9954
   -17.9651 -17.9651 -17.9608 -17.9608 -17.8047 -17.8047 -17.7796 -17.7796
   -15.3216 -15.3216 -15.3008 -15.3008 -15.2538 -15.2536 -15.2488 -15.2487
   -15.2402 -15.2401 -15.2349 -15.2349 -15.2229 -15.2229 -15.2149 -15.2149
   -15.1849 -15.1849 -15.1674 -15.1674 -15.0948 -15.0948 -15.0876 -15.0876
   -15.0732 -15.0732 -15.0690 -15.0690 -15.0092 -15.0092 -15.0005 -15.0005
   -12.7874 -12.7873 -12.7792 -12.7782 -12.7704 -12.7702 -12.7293 -12.7287
   -12.7264 -12.7264 -12.7211 -12.7207 -12.7160 -12.7157 -12.6994 -12.6990
   -12.6839 -12.6838 -12.6580 -12.6579 -12.6570 -12.6569 -12.6467 -12.6466
   -12.6411 -12.6409 -12.6336 -12.6335 -12.5915 -12.5913 -12.5899 -12.5898
   -12.5684 -12.5682 -12.5601 -12.5600 -12.5432 -12.5430 -12.5055 -12.5053
   -12.4986 -12.4985 -12.4911 -12.4911 -12.4894 -12.4893 -12.4172 -12.4172
   -11.4044 -11.4042 -11.3408 -11.3406 -11.2838 -11.2836 -11.2246 -11.2241
   -11.2003 -11.1999 -11.1665 -11.1658 -11.0991 -11.0979 -11.0807 -11.0788
   -11.0392 -11.0384 -11.0155 -11.0143 -11.0005 -10.9998 -10.9898 -10.9893
   -10.9742 -10.9724 -10.9201 -10.9196 -10.8948 -10.8946 -10.8480 -10.8476
   -10.8235 -10.8230 -10.7927 -10.7925 -10.7546 -10.7541 -10.6860 -10.6858
   -10.6436 -10.6435 -10.6219 -10.6218 -10.5910 -10.5909 -10.5363 -10.5362
    -6.0981  -6.0981  -6.0135  -6.0134  -5.9761  -5.9760  -5.9731  -5.9729
    -5.9417  -5.9409  -5.9355  -5.9347  -5.7958  -5.7958  -5.7737  -5.7735
    -5.1930  -5.1927  -5.1070  -5.1067  -4.7389  -4.7369  -4.7135  -4.7128
    -4.6895  -4.6879  -4.6450  -4.6437  -4.5020  -4.5018  -4.4802  -4.4800
    -4.4204  -4.4200  -4.4025  -4.4019  -4.3873  -4.3867  -4.3786  -4.3776
    -4.3705  -4.3694  -4.3616  -4.3611  -4.3534  -4.3519  -4.3435  -4.3428
    -4.3214  -4.3202  -4.3142  -4.3136  -4.2446  -4.2429  -4.2224  -4.2214
    -4.2050  -4.2032  -4.1874  -4.1866  -4.1798  -4.1788  -4.1673  -4.1655
    -1.0080  -0.9849  -0.7662  -0.7482  -0.7313  -0.7157  -0.6732  -0.6717
    -0.6182  -0.5959  -0.5358  -0.5289  -0.4689  -0.4625  -0.4493  -0.4442
    -0.1951  -0.1933  -0.1635  -0.1613  -0.0012   0.0021   0.0263   0.0286
     0.0890   0.1011   0.1335   0.1381   0.1809   0.1829   0.2752   0.2799
     0.2950   0.3102   0.3665   0.3744   0.4159   0.4239   0.4544   0.4643
     0.4742   0.4792   0.4897   0.5003   0.5924   0.5979   0.6529   0.6627
     0.6856   0.6875   0.7168   0.7231   0.7511   0.7638   0.7840   0.7912
     0.8131   0.8226   0.8341   0.8454   0.8640   0.8813   0.8935   0.9000
     0.9134   0.9251   0.9391   0.9544   0.9687   0.9713   0.9909   0.9947
     1.0061   1.0112   1.0262   1.0366   1.0495   1.0585   1.0639   1.0762
     1.0880   1.1015   1.1126   1.1206   1.1264   1.1335   1.1547   1.1586
     1.1704   1.1819   1.1935   1.2017   1.2147   1.2282   1.2380   1.2415
     1.2600   1.2745   1.2826   1.2949   1.2996   1.3098   1.3303   1.3374
     1.3573   1.3645   1.3771   1.3809   1.3917   1.4042   1.4235   1.4326
     1.4481   1.4510   1.4672   1.4774   1.4957   1.5015   1.5413   1.5460
     1.5664   1.5794   1.5802   1.5941   1.6022   1.6125   1.6341   1.6380
     1.6793   1.6849   1.7526   1.7663   1.8284   1.8478   1.8618   1.8784
     1.9784   1.9877   2.0142   2.0243   2.2983   2.3017   2.3384   2.3484
     4.1923   4.2295   4.2644   4.2942   4.7892   4.8085   4.8968   4.9219
     5.1044   5.1277   5.1737   5.1909   5.4620   5.5009   5.5203   5.5246
     6.0234   6.0321   6.1597   6.1775   6.2644   6.2790   6.3816   6.3873
     6.4583   6.4706   6.5838   6.6012   6.6567   6.6665   6.7649   6.7825
     6.9857   6.9917   7.0759   7.0813   7.3840   7.4079   7.5503   7.5624
     7.6436   7.6658   7.7849   7.7935   7.8239   7.8383   7.8627   7.8820
     7.9268   7.9453   7.9671   7.9816   8.0237   8.0412   8.0623   8.0684
     8.1058   8.1161   8.1499   8.1670   8.2087   8.2403   8.2493   8.2561
     8.2785   8.2955   8.3379   8.3546   8.3837   8.3933   8.4087   8.4168
     8.4298   8.4416   8.4610   8.4771   8.4882   8.5001   8.5493   8.5599
     8.5680   8.5847   8.6204   8.6304   8.6457   8.6702   8.6859   8.6988
     8.7202   8.7479   8.7840   8.7946   8.8041   8.8205   8.8409   8.8524
     8.8597   8.8725   8.8897   8.9012   8.9130   8.9259   8.9439   8.9721
     8.9829   8.9921   8.9998   9.0100   9.0681   9.0722   9.1169   9.1240
     9.1390   9.1574   9.2014   9.2133   9.2413   9.2512   9.2909   9.2947
     9.3417   9.3545   9.3763   9.3995   9.4162   9.4317   9.4683   9.4779
     9.4967   9.5049   9.5234   9.5362   9.5424   9.5537   9.5801   9.5847
     9.6045   9.6269   9.6559   9.6598   9.6798   9.6925   9.7161   9.7347
     9.7567   9.7632   9.9314   9.9386

     occupation numbers 
     1.0000   1.0000   1.0000   1.0000   1.0000   1.0000   1.0000   1.0000
     1.0000   1.0000   1.0000   1.0000   1.0000   1.0000   1.0000   1.0000
     1.0000   1.0000   1.0000   1.0000   1.0000   1.0000   1.0000   1.0000
     1.0000   1.0000   1.0000   1.0000   1.0000   1.0000   1.0000   1.0000
     1.0000   1.0000   1.0000   1.0000   1.0000   1.0000   1.0000   1.0000
     1.0000   1.0000   1.0000   1.0000   1.0000   1.0000   1.0000   1.0000
     1.0000   1.0000   1.0000   1.0000   1.0000   1.0000   1.0000   1.0000
     1.0000   1.0000   1.0000   1.0000   1.0000   1.0000   1.0000   1.0000
     1.0000   1.0000   1.0000   1.0000   1.0000   1.0000   1.0000   1.0000
     1.0000   1.0000   1.0000   1.0000   1.0000   1.0000   1.0000   1.0000
     1.0000   1.0000   1.0000   1.0000   1.0000   1.0000   1.0000   1.0000
     1.0000   1.0000   1.0000   1.0000   1.0000   1.0000   1.0000   1.0000
     1.0000   1.0000   1.0000   1.0000   1.0000   1.0000   1.0000   1.0000
     1.0000   1.0000   1.0000   1.0000   1.0000   1.0000   1.0000   1.0000
     1.0000   1.0000   1.0000   1.0000   1.0000   1.0000   1.0000   1.0000
     1.0000   1.0000   1.0000   1.0000   1.0000   1.0000   1.0000   1.0000
     1.0000   1.0000   1.0000   1.0000   1.0000   1.0000   1.0000   1.0000
     1.0000   1.0000   1.0000   1.0000   1.0000   1.0000   1.0000   1.0000
     1.0000   1.0000   1.0000   1.0000   1.0000   1.0000   1.0000   1.0000
     1.0000   1.0000   1.0000   1.0000   1.0000   1.0000   1.0000   1.0000
     1.0000   1.0000   1.0000   1.0000   1.0000   1.0000   1.0000   1.0000
     1.0000   1.0000   1.0000   1.0000   1.0000   1.0000   1.0000   1.0000
     1.0000   1.0000   1.0000   1.0000   1.0000   1.0000   1.0000   1.0000
     1.0000   1.0000   1.0000   1.0000   1.0000   1.0000   1.0000   1.0000
     1.0000   1.0000   1.0000   1.0000   1.0000   1.0000   1.0000   1.0000
     1.0000   1.0000   1.0000   1.0000   1.0000   1.0000   1.0000   1.0000
     1.0000   1.0000   1.0000   1.0000   1.0000   1.0000   1.0000   1.0000
     1.0000   1.0000   1.0000   1.0000   1.0000   1.0000   1.0000   1.0000
     1.0000   1.0000   1.0000   1.0000   1.0000   1.0000   1.0000   1.0000
     1.0000   1.0000   1.0000   1.0000   1.0000   1.0000   1.0000   1.0000
     1.0000   1.0000   1.0000   1.0000   1.0000   1.0000   1.0000   1.0000
     1.0000   1.0000   1.0000   1.0000   1.0000   1.0000   1.0000   1.0000
     1.0000   1.0000   1.0000   1.0000   1.0000   1.0000   1.0000   1.0000
     1.0000   1.0000   1.0000   1.0000   1.0000   1.0000   1.0000   1.0000
     1.0000   1.0000   1.0000   1.0000   1.0000   1.0000   1.0000   1.0000
     1.0000   1.0000   1.0000   1.0000   1.0000   1.0000   1.0000   1.0000
     1.0000   1.0000   1.0000   1.0000   1.0000   1.0000   1.0000   1.0000
     1.0000   1.0000   1.0000   1.0000   1.0000   1.0000   1.0000   1.0000
     1.0000   1.0000   1.0000   1.0000   1.0000   1.0000   1.0000   1.0000
     1.0000   1.0000   1.0000   1.0000   1.0000   1.0000   1.0000   1.0000
     1.0000   1.0000   1.0000   1.0000   1.0000   1.0000   1.0000   1.0000
     1.0000   1.0000   1.0000   1.0000   1.0000   1.0000   1.0000   1.0000
     1.0000   1.0000   1.0000   1.0000   1.0000   1.0000   1.0000   1.0000
     1.0000   1.0000   1.0000   1.0000   1.0000   1.0000   1.0000   1.0000
     0.0000   0.0000   0.0000   0.0000   0.0000   0.0000   0.0000   0.0000
     0.0000   0.0000   0.0000   0.0000   0.0000   0.0000   0.0000   0.0000
     0.0000   0.0000   0.0000   0.0000   0.0000   0.0000   0.0000   0.0000
     0.0000   0.0000   0.0000   0.0000   0.0000   0.0000   0.0000   0.0000
     0.0000   0.0000   0.0000   0.0000   0.0000   0.0000   0.0000   0.0000
     0.0000   0.0000   0.0000   0.0000   0.0000   0.0000   0.0000   0.0000
     0.0000   0.0000   0.0000   0.0000   0.0000   0.0000   0.0000   0.0000
     0.0000   0.0000   0.0000   0.0000   0.0000   0.0000   0.0000   0.0000
     0.0000   0.0000   0.0000   0.0000   0.0000   0.0000   0.0000   0.0000
     0.0000   0.0000   0.0000   0.0000   0.0000   0.0000   0.0000   0.0000
     0.0000   0.0000   0.0000   0.0000   0.0000   0.0000   0.0000   0.0000
     0.0000   0.0000   0.0000   0.0000   0.0000   0.0000   0.0000   0.0000
     0.0000   0.0000   0.0000   0.0000   0.0000   0.0000   0.0000   0.0000
     0.0000   0.0000   0.0000   0.0000   0.0000   0.0000   0.0000   0.0000
     0.0000   0.0000   0.0000   0.0000   0.0000   0.0000   0.0000   0.0000
     0.0000   0.0000   0.0000   0.0000   0.0000   0.0000   0.0000   0.0000
     0.0000   0.0000   0.0000   0.0000   0.0000   0.0000   0.0000   0.0000
     0.0000   0.0000   0.0000   0.0000   0.0000   0.0000   0.0000   0.0000
     0.0000   0.0000   0.0000   0.0000

          k = 0.5000 0.0250 0.0250 ( 73926 PWs)   bands (ev):

   -18.1281 -18.1281 -18.0397 -18.0397 -17.9993 -17.9993 -17.9954 -17.9954
   -17.9651 -17.9651 -17.9608 -17.9608 -17.8047 -17.8047 -17.7796 -17.7796
   -15.3216 -15.3216 -15.3008 -15.3008 -15.2538 -15.2537 -15.2488 -15.2487
   -15.2402 -15.2401 -15.2349 -15.2349 -15.2229 -15.2229 -15.2149 -15.2149
   -15.1849 -15.1849 -15.1674 -15.1674 -15.0948 -15.0948 -15.0876 -15.0876
   -15.0732 -15.0732 -15.0690 -15.0690 -15.0092 -15.0092 -15.0005 -15.0005
   -12.7874 -12.7873 -12.7792 -12.7787 -12.7704 -12.7703 -12.7291 -12.7288
   -12.7264 -12.7264 -12.7209 -12.7207 -12.7159 -12.7157 -12.6994 -12.6993
   -12.6839 -12.6838 -12.6580 -12.6579 -12.6569 -12.6569 -12.6467 -12.6466
   -12.6409 -12.6408 -12.6336 -12.6335 -12.5914 -12.5913 -12.5899 -12.5899
   -12.5683 -12.5682 -12.5601 -12.5601 -12.5431 -12.5431 -12.5054 -12.5053
   -12.4986 -12.4985 -12.4911 -12.4911 -12.4893 -12.4893 -12.4172 -12.4172
   -11.4046 -11.4045 -11.3405 -11.3404 -11.2839 -11.2838 -11.2241 -11.2239
   -11.1988 -11.1985 -11.1671 -11.1667 -11.0982 -11.0975 -11.0817 -11.0805
   -11.0382 -11.0377 -11.0152 -11.0146 -11.0006 -11.0002 -10.9891 -10.9887
   -10.9760 -10.9748 -10.9200 -10.9198 -10.8947 -10.8946 -10.8480 -10.8478
   -10.8234 -10.8232 -10.7928 -10.7927 -10.7541 -10.7539 -10.6857 -10.6857
   -10.6438 -10.6437 -10.6219 -10.6219 -10.5907 -10.5906 -10.5360 -10.5359
    -6.0981  -6.0981  -6.0135  -6.0134  -5.9761  -5.9760  -5.9730  -5.9730
    -5.9415  -5.9412  -5.9353  -5.9349  -5.7958  -5.7958  -5.7736  -5.7736
    -5.1962  -5.1961  -5.1102  -5.1101  -4.7351  -4.7339  -4.7107  -4.7103
    -4.6904  -4.6896  -4.6468  -4.6461  -4.5020  -4.5018  -4.4801  -4.4800
    -4.4202  -4.4200  -4.4023  -4.4020  -4.3871  -4.3868  -4.3782  -4.3777
    -4.3703  -4.3697  -4.3615  -4.3612  -4.3529  -4.3521  -4.3433  -4.3429
    -4.3210  -4.3204  -4.3140  -4.3137  -4.2404  -4.2395  -4.2198  -4.2194
    -4.2030  -4.2021  -4.1871  -4.1866  -4.1793  -4.1787  -4.1654  -4.1645
    -1.0076  -0.9958  -0.7679  -0.7581  -0.7344  -0.7261  -0.6786  -0.6778
    -0.6186  -0.6073  -0.5387  -0.5352  -0.4712  -0.4680  -0.4522  -0.4497
    -0.1942  -0.1933  -0.1637  -0.1626   0.0002   0.0019   0.0267   0.0279
     0.0928   0.0990   0.1348   0.1372   0.1805   0.1815   0.2772   0.2797
     0.2981   0.3058   0.3689   0.3728   0.4186   0.4227   0.4576   0.4629
     0.4758   0.4785   0.4926   0.4981   0.5959   0.5985   0.6575   0.6626
     0.6877   0.6890   0.7197   0.7229   0.7554   0.7621   0.7860   0.7903
     0.8173   0.8221   0.8377   0.8438   0.8702   0.8794   0.8961   0.8998
     0.9187   0.9249   0.9417   0.9502   0.9706   0.9719   0.9970   0.9983
     1.0055   1.0089   1.0307   1.0370   1.0545   1.0618   1.0664   1.0772
     1.0910   1.0988   1.1170   1.1215   1.1258   1.1300   1.1561   1.1588
     1.1731   1.1804   1.1962   1.1998   1.2182   1.2259   1.2368   1.2391
     1.2638   1.2724   1.2867   1.2937   1.3007   1.3065   1.3311   1.3353
     1.3600   1.3641   1.3772   1.3799   1.3938   1.4005   1.4252   1.4300
     1.4497   1.4508   1.4690   1.4746   1.4973   1.5002   1.5427   1.5451
     1.5709   1.5786   1.5827   1.5903   1.6037   1.6091   1.6355   1.6378
     1.6808   1.6837   1.7598   1.7672   1.8375   1.8481   1.8704   1.8789
     1.9842   1.9891   2.0185   2.0235   2.3111   2.3130   2.3521   2.3572
     4.1873   4.2072   4.2538   4.2694   4.7852   4.7950   4.8936   4.9062
     5.1048   5.1175   5.1673   5.1770   5.4590   5.4797   5.5071   5.5100
     6.0279   6.0323   6.1642   6.1731   6.2666   6.2739   6.3823   6.3852
     6.4606   6.4668   6.5878   6.5965   6.6589   6.6638   6.7691   6.7781
     6.9834   6.9864   7.0749   7.0776   7.3955   7.4076   7.5615   7.5677
     7.6560   7.6671   7.7915   7.7962   7.8332   7.8416   7.8729   7.8831
     7.9346   7.9444   7.9750   7.9823   8.0330   8.0429   8.0688   8.0716
     8.1110   8.1170   8.1582   8.1686   8.2227   8.2435   8.2540   8.2618
     8.2861   8.2969   8.3493   8.3607   8.3856   8.4002   8.4059   8.4192
     8.4309   8.4378   8.4672   8.4755   8.4938   8.5011   8.5492   8.5546
     8.5642   8.5758   8.6252   8.6311   8.6478   8.6644   8.6850   8.6928
     8.7269   8.7430   8.7892   8.7980   8.8061   8.8166   8.8401   8.8477
     8.8624   8.8697   8.8936   8.8993   8.9157   8.9229   8.9488   8.9658
     8.9850   8.9908   8.9970   9.0037   9.0645   9.0665   9.1144   9.1185
     9.1362   9.1469   9.2021   9.2081   9.2517   9.2554   9.2918   9.2951
     9.3459   9.3528   9.3805   9.3934   9.4247   9.4334   9.4812   9.4864
     9.5009   9.5102   9.5201   9.5278   9.5475   9.5641   9.5834   9.5929
     9.6108   9.6305   9.6555   9.6714   9.6750   9.6827   9.7103   9.7200
     9.7460   9.7518   9.9251   9.9300

     occupation numbers 
     1.0000   1.0000   1.0000   1.0000   1.0000   1.0000   1.0000   1.0000
     1.0000   1.0000   1.0000   1.0000   1.0000   1.0000   1.0000   1.0000
     1.0000   1.0000   1.0000   1.0000   1.0000   1.0000   1.0000   1.0000
     1.0000   1.0000   1.0000   1.0000   1.0000   1.0000   1.0000   1.0000
     1.0000   1.0000   1.0000   1.0000   1.0000   1.0000   1.0000   1.0000
     1.0000   1.0000   1.0000   1.0000   1.0000   1.0000   1.0000   1.0000
     1.0000   1.0000   1.0000   1.0000   1.0000   1.0000   1.0000   1.0000
     1.0000   1.0000   1.0000   1.0000   1.0000   1.0000   1.0000   1.0000
     1.0000   1.0000   1.0000   1.0000   1.0000   1.0000   1.0000   1.0000
     1.0000   1.0000   1.0000   1.0000   1.0000   1.0000   1.0000   1.0000
     1.0000   1.0000   1.0000   1.0000   1.0000   1.0000   1.0000   1.0000
     1.0000   1.0000   1.0000   1.0000   1.0000   1.0000   1.0000   1.0000
     1.0000   1.0000   1.0000   1.0000   1.0000   1.0000   1.0000   1.0000
     1.0000   1.0000   1.0000   1.0000   1.0000   1.0000   1.0000   1.0000
     1.0000   1.0000   1.0000   1.0000   1.0000   1.0000   1.0000   1.0000
     1.0000   1.0000   1.0000   1.0000   1.0000   1.0000   1.0000   1.0000
     1.0000   1.0000   1.0000   1.0000   1.0000   1.0000   1.0000   1.0000
     1.0000   1.0000   1.0000   1.0000   1.0000   1.0000   1.0000   1.0000
     1.0000   1.0000   1.0000   1.0000   1.0000   1.0000   1.0000   1.0000
     1.0000   1.0000   1.0000   1.0000   1.0000   1.0000   1.0000   1.0000
     1.0000   1.0000   1.0000   1.0000   1.0000   1.0000   1.0000   1.0000
     1.0000   1.0000   1.0000   1.0000   1.0000   1.0000   1.0000   1.0000
     1.0000   1.0000   1.0000   1.0000   1.0000   1.0000   1.0000   1.0000
     1.0000   1.0000   1.0000   1.0000   1.0000   1.0000   1.0000   1.0000
     1.0000   1.0000   1.0000   1.0000   1.0000   1.0000   1.0000   1.0000
     1.0000   1.0000   1.0000   1.0000   1.0000   1.0000   1.0000   1.0000
     1.0000   1.0000   1.0000   1.0000   1.0000   1.0000   1.0000   1.0000
     1.0000   1.0000   1.0000   1.0000   1.0000   1.0000   1.0000   1.0000
     1.0000   1.0000   1.0000   1.0000   1.0000   1.0000   1.0000   1.0000
     1.0000   1.0000   1.0000   1.0000   1.0000   1.0000   1.0000   1.0000
     1.0000   1.0000   1.0000   1.0000   1.0000   1.0000   1.0000   1.0000
     1.0000   1.0000   1.0000   1.0000   1.0000   1.0000   1.0000   1.0000
     1.0000   1.0000   1.0000   1.0000   1.0000   1.0000   1.0000   1.0000
     1.0000   1.0000   1.0000   1.0000   1.0000   1.0000   1.0000   1.0000
     1.0000   1.0000   1.0000   1.0000   1.0000   1.0000   1.0000   1.0000
     1.0000   1.0000   1.0000   1.0000   1.0000   1.0000   1.0000   1.0000
     1.0000   1.0000   1.0000   1.0000   1.0000   1.0000   1.0000   1.0000
     1.0000   1.0000   1.0000   1.0000   1.0000   1.0000   1.0000   1.0000
     1.0000   1.0000   1.0000   1.0000   1.0000   1.0000   1.0000   1.0000
     1.0000   1.0000   1.0000   1.0000   1.0000   1.0000   1.0000   1.0000
     1.0000   1.0000   1.0000   1.0000   1.0000   1.0000   1.0000   1.0000
     1.0000   1.0000   1.0000   1.0000   1.0000   1.0000   1.0000   1.0000
     1.0000   1.0000   1.0000   1.0000   1.0000   1.0000   1.0000   1.0000
     1.0000   1.0000   1.0000   1.0000   1.0000   1.0000   1.0000   1.0000
     0.0000   0.0000   0.0000   0.0000   0.0000   0.0000   0.0000   0.0000
     0.0000   0.0000   0.0000   0.0000   0.0000   0.0000   0.0000   0.0000
     0.0000   0.0000   0.0000   0.0000   0.0000   0.0000   0.0000   0.0000
     0.0000   0.0000   0.0000   0.0000   0.0000   0.0000   0.0000   0.0000
     0.0000   0.0000   0.0000   0.0000   0.0000   0.0000   0.0000   0.0000
     0.0000   0.0000   0.0000   0.0000   0.0000   0.0000   0.0000   0.0000
     0.0000   0.0000   0.0000   0.0000   0.0000   0.0000   0.0000   0.0000
     0.0000   0.0000   0.0000   0.0000   0.0000   0.0000   0.0000   0.0000
     0.0000   0.0000   0.0000   0.0000   0.0000   0.0000   0.0000   0.0000
     0.0000   0.0000   0.0000   0.0000   0.0000   0.0000   0.0000   0.0000
     0.0000   0.0000   0.0000   0.0000   0.0000   0.0000   0.0000   0.0000
     0.0000   0.0000   0.0000   0.0000   0.0000   0.0000   0.0000   0.0000
     0.0000   0.0000   0.0000   0.0000   0.0000   0.0000   0.0000   0.0000
     0.0000   0.0000   0.0000   0.0000   0.0000   0.0000   0.0000   0.0000
     0.0000   0.0000   0.0000   0.0000   0.0000   0.0000   0.0000   0.0000
     0.0000   0.0000   0.0000   0.0000   0.0000   0.0000   0.0000   0.0000
     0.0000   0.0000   0.0000   0.0000   0.0000   0.0000   0.0000   0.0000
     0.0000   0.0000   0.0000   0.0000   0.0000   0.0000   0.0000   0.0000
     0.0000   0.0000   0.0000   0.0000

          k = 0.5000 0.0000 0.0000 ( 73956 PWs)   bands (ev):

   -18.1281 -18.1281 -18.0397 -18.0397 -17.9993 -17.9993 -17.9954 -17.9954
   -17.9651 -17.9651 -17.9608 -17.9608 -17.8047 -17.8047 -17.7796 -17.7796
   -15.3216 -15.3216 -15.3008 -15.3008 -15.2537 -15.2537 -15.2487 -15.2487
   -15.2402 -15.2402 -15.2349 -15.2349 -15.2229 -15.2229 -15.2149 -15.2149
   -15.1849 -15.1849 -15.1674 -15.1674 -15.0948 -15.0948 -15.0876 -15.0876
   -15.0732 -15.0732 -15.0690 -15.0690 -15.0092 -15.0092 -15.0005 -15.0005
   -12.7874 -12.7874 -12.7790 -12.7790 -12.7704 -12.7704 -12.7289 -12.7289
   -12.7264 -12.7264 -12.7208 -12.7208 -12.7158 -12.7158 -12.6994 -12.6994
   -12.6839 -12.6839 -12.6579 -12.6579 -12.6569 -12.6569 -12.6466 -12.6466
   -12.6408 -12.6408 -12.6335 -12.6335 -12.5913 -12.5913 -12.5899 -12.5899
   -12.5683 -12.5683 -12.5601 -12.5601 -12.5431 -12.5431 -12.5053 -12.5053
   -12.4986 -12.4986 -12.4911 -12.4911 -12.4893 -12.4893 -12.4172 -12.4172
   -11.4046 -11.4046 -11.3403 -11.3403 -11.2839 -11.2839 -11.2239 -11.2239
   -11.1981 -11.1981 -11.1673 -11.1673 -11.0976 -11.0976 -11.0816 -11.0816
   -11.0376 -11.0376 -11.0149 -11.0149 -11.0006 -11.0006 -10.9885 -10.9885
   -10.9762 -10.9762 -10.9199 -10.9199 -10.8946 -10.8946 -10.8480 -10.8480
   -10.8234 -10.8234 -10.7928 -10.7928 -10.7539 -10.7539 -10.6856 -10.6856
   -10.6438 -10.6438 -10.6219 -10.6219 -10.5906 -10.5906 -10.5358 -10.5358
    -6.0981  -6.0981  -6.0135  -6.0135  -5.9761  -5.9761  -5.9730  -5.9730
    -5.9413  -5.9413  -5.9351  -5.9351  -5.7958  -5.7958  -5.7736  -5.7736
    -5.1972  -5.1972  -5.1112  -5.1112  -4.7333  -4.7333  -4.7096  -4.7096
    -4.6904  -4.6904  -4.6472  -4.6472  -4.5019  -4.5019  -4.4801  -4.4801
    -4.4201  -4.4201  -4.4021  -4.4021  -4.3869  -4.3869  -4.3779  -4.3779
    -4.3700  -4.3700  -4.3613  -4.3613  -4.3525  -4.3525  -4.3431  -4.3431
    -4.3207  -4.3207  -4.3138  -4.3138  -4.2387  -4.2387  -4.2188  -4.2188
    -4.2020  -4.2020  -4.1868  -4.1868  -4.1789  -4.1789  -4.1644  -4.1644
    -1.0034  -1.0034  -0.7650  -0.7650  -0.7324  -0.7324  -0.6801  -0.6801
    -0.6150  -0.6150  -0.5385  -0.5385  -0.4710  -0.4710  -0.4523  -0.4523
    -0.1936  -0.1936  -0.1634  -0.1634   0.0012   0.0012   0.0272   0.0272
     0.0962   0.0962   0.1361   0.1361   0.1807   0.1807   0.2787   0.2787
     0.3018   0.3018   0.3710   0.3710   0.4209   0.4209   0.4605   0.4605
     0.4773   0.4773   0.4955   0.4955   0.5979   0.5979   0.6608   0.6608
     0.6889   0.6889   0.7218   0.7218   0.7592   0.7592   0.7882   0.7882
     0.8204   0.8204   0.8410   0.8410   0.8755   0.8755   0.8984   0.8984
     0.9226   0.9226   0.9457   0.9457   0.9717   0.9717   1.0000   1.0000
     1.0059   1.0059   1.0346   1.0346   1.0588   1.0588   1.0730   1.0730
     1.0951   1.0951   1.1203   1.1203   1.1270   1.1270   1.1576   1.1576
     1.1771   1.1771   1.1982   1.1982   1.2222   1.2222   1.2373   1.2373
     1.2684   1.2684   1.2906   1.2906   1.3034   1.3034   1.3330   1.3330
     1.3625   1.3625   1.3784   1.3784   1.3969   1.3969   1.4275   1.4275
     1.4505   1.4505   1.4716   1.4716   1.4988   1.4988   1.5439   1.5439
     1.5754   1.5754   1.5862   1.5862   1.6061   1.6061   1.6369   1.6369
     1.6824   1.6824   1.7649   1.7649   1.8444   1.8444   1.8762   1.8762
     1.9878   1.9878   2.0216   2.0216   2.3162   2.3162   2.3584   2.3584
     4.1925   4.1925   4.2557   4.2557   4.7872   4.7872   4.8967   4.8967
     5.1094   5.1094   5.1688   5.1688   5.4651   5.4651   5.5040   5.5040
     6.0309   6.0309   6.1687   6.1687   6.2698   6.2698   6.3836   6.3836
     6.4634   6.4634   6.5920   6.5920   6.6612   6.6612   6.7736   6.7736
     6.9836   6.9836   7.0754   7.0754   7.4033   7.4033   7.5674   7.5674
     7.6638   7.6638   7.7952   7.7952   7.8395   7.8395   7.8798   7.8798
     7.9407   7.9407   7.9803   7.9803   8.0398   8.0398   8.0720   8.0720
     8.1149   8.1149   8.1652   8.1652   8.2351   8.2351   8.2604   8.2604
     8.2934   8.2934   8.3576   8.3576   8.3923   8.3923   8.4151   8.4151
     8.4338   8.4338   8.4721   8.4721   8.4988   8.4988   8.5509   8.5509
     8.5674   8.5674   8.6287   8.6287   8.6555   8.6555   8.6879   8.6879
     8.7351   8.7351   8.7950   8.7950   8.8115   8.8115   8.8418   8.8418
     8.8668   8.8668   8.8968   8.8968   8.9192   8.9192   8.9572   8.9572
     8.9880   8.9880   8.9989   8.9989   9.0639   9.0639   9.1148   9.1148
     9.1394   9.1394   9.2042   9.2042   9.2561   9.2561   9.2938   9.2938
     9.3496   9.3496   9.3869   9.3869   9.4314   9.4314   9.4887   9.4887
     9.5061   9.5061   9.5197   9.5197   9.5601   9.5601   9.5891   9.5891
     9.6256   9.6256   9.6586   9.6586   9.6814   9.6814   9.7122   9.7122
     9.7439   9.7439   9.9248   9.9248

     occupation numbers 
     1.0000   1.0000   1.0000   1.0000   1.0000   1.0000   1.0000   1.0000
     1.0000   1.0000   1.0000   1.0000   1.0000   1.0000   1.0000   1.0000
     1.0000   1.0000   1.0000   1.0000   1.0000   1.0000   1.0000   1.0000
     1.0000   1.0000   1.0000   1.0000   1.0000   1.0000   1.0000   1.0000
     1.0000   1.0000   1.0000   1.0000   1.0000   1.0000   1.0000   1.0000
     1.0000   1.0000   1.0000   1.0000   1.0000   1.0000   1.0000   1.0000
     1.0000   1.0000   1.0000   1.0000   1.0000   1.0000   1.0000   1.0000
     1.0000   1.0000   1.0000   1.0000   1.0000   1.0000   1.0000   1.0000
     1.0000   1.0000   1.0000   1.0000   1.0000   1.0000   1.0000   1.0000
     1.0000   1.0000   1.0000   1.0000   1.0000   1.0000   1.0000   1.0000
     1.0000   1.0000   1.0000   1.0000   1.0000   1.0000   1.0000   1.0000
     1.0000   1.0000   1.0000   1.0000   1.0000   1.0000   1.0000   1.0000
     1.0000   1.0000   1.0000   1.0000   1.0000   1.0000   1.0000   1.0000
     1.0000   1.0000   1.0000   1.0000   1.0000   1.0000   1.0000   1.0000
     1.0000   1.0000   1.0000   1.0000   1.0000   1.0000   1.0000   1.0000
     1.0000   1.0000   1.0000   1.0000   1.0000   1.0000   1.0000   1.0000
     1.0000   1.0000   1.0000   1.0000   1.0000   1.0000   1.0000   1.0000
     1.0000   1.0000   1.0000   1.0000   1.0000   1.0000   1.0000   1.0000
     1.0000   1.0000   1.0000   1.0000   1.0000   1.0000   1.0000   1.0000
     1.0000   1.0000   1.0000   1.0000   1.0000   1.0000   1.0000   1.0000
     1.0000   1.0000   1.0000   1.0000   1.0000   1.0000   1.0000   1.0000
     1.0000   1.0000   1.0000   1.0000   1.0000   1.0000   1.0000   1.0000
     1.0000   1.0000   1.0000   1.0000   1.0000   1.0000   1.0000   1.0000
     1.0000   1.0000   1.0000   1.0000   1.0000   1.0000   1.0000   1.0000
     1.0000   1.0000   1.0000   1.0000   1.0000   1.0000   1.0000   1.0000
     1.0000   1.0000   1.0000   1.0000   1.0000   1.0000   1.0000   1.0000
     1.0000   1.0000   1.0000   1.0000   1.0000   1.0000   1.0000   1.0000
     1.0000   1.0000   1.0000   1.0000   1.0000   1.0000   1.0000   1.0000
     1.0000   1.0000   1.0000   1.0000   1.0000   1.0000   1.0000   1.0000
     1.0000   1.0000   1.0000   1.0000   1.0000   1.0000   1.0000   1.0000
     1.0000   1.0000   1.0000   1.0000   1.0000   1.0000   1.0000   1.0000
     1.0000   1.0000   1.0000   1.0000   1.0000   1.0000   1.0000   1.0000
     1.0000   1.0000   1.0000   1.0000   1.0000   1.0000   1.0000   1.0000
     1.0000   1.0000   1.0000   1.0000   1.0000   1.0000   1.0000   1.0000
     1.0000   1.0000   1.0000   1.0000   1.0000   1.0000   1.0000   1.0000
     1.0000   1.0000   1.0000   1.0000   1.0000   1.0000   1.0000   1.0000
     1.0000   1.0000   1.0000   1.0000   1.0000   1.0000   1.0000   1.0000
     1.0000   1.0000   1.0000   1.0000   1.0000   1.0000   1.0000   1.0000
     1.0000   1.0000   1.0000   1.0000   1.0000   1.0000   1.0000   1.0000
     1.0000   1.0000   1.0000   1.0000   1.0000   1.0000   1.0000   1.0000
     1.0000   1.0000   1.0000   1.0000   1.0000   1.0000   1.0000   1.0000
     1.0000   1.0000   1.0000   1.0000   1.0000   1.0000   1.0000   1.0000
     1.0000   1.0000   1.0000   1.0000   1.0000   1.0000   1.0000   1.0000
     1.0000   1.0000   1.0000   1.0000   1.0000   1.0000   1.0000   1.0000
     0.0000   0.0000   0.0000   0.0000   0.0000   0.0000   0.0000   0.0000
     0.0000   0.0000   0.0000   0.0000   0.0000   0.0000   0.0000   0.0000
     0.0000   0.0000   0.0000   0.0000   0.0000   0.0000   0.0000   0.0000
     0.0000   0.0000   0.0000   0.0000   0.0000   0.0000   0.0000   0.0000
     0.0000   0.0000   0.0000   0.0000   0.0000   0.0000   0.0000   0.0000
     0.0000   0.0000   0.0000   0.0000   0.0000   0.0000   0.0000   0.0000
     0.0000   0.0000   0.0000   0.0000   0.0000   0.0000   0.0000   0.0000
     0.0000   0.0000   0.0000   0.0000   0.0000   0.0000   0.0000   0.0000
     0.0000   0.0000   0.0000   0.0000   0.0000   0.0000   0.0000   0.0000
     0.0000   0.0000   0.0000   0.0000   0.0000   0.0000   0.0000   0.0000
     0.0000   0.0000   0.0000   0.0000   0.0000   0.0000   0.0000   0.0000
     0.0000   0.0000   0.0000   0.0000   0.0000   0.0000   0.0000   0.0000
     0.0000   0.0000   0.0000   0.0000   0.0000   0.0000   0.0000   0.0000
     0.0000   0.0000   0.0000   0.0000   0.0000   0.0000   0.0000   0.0000
     0.0000   0.0000   0.0000   0.0000   0.0000   0.0000   0.0000   0.0000
     0.0000   0.0000   0.0000   0.0000   0.0000   0.0000   0.0000   0.0000
     0.0000   0.0000   0.0000   0.0000   0.0000   0.0000   0.0000   0.0000
     0.0000   0.0000   0.0000   0.0000   0.0000   0.0000   0.0000   0.0000
     0.0000   0.0000   0.0000   0.0000

          k = 0.4750 0.0000 0.0000 ( 73940 PWs)   bands (ev):

   -18.1281 -18.1281 -18.0397 -18.0397 -17.9993 -17.9993 -17.9954 -17.9954
   -17.9651 -17.9651 -17.9608 -17.9608 -17.8047 -17.8047 -17.7796 -17.7796
   -15.3216 -15.3216 -15.3009 -15.3008 -15.2537 -15.2537 -15.2487 -15.2487
   -15.2402 -15.2402 -15.2349 -15.2349 -15.2229 -15.2229 -15.2149 -15.2149
   -15.1849 -15.1849 -15.1674 -15.1674 -15.0948 -15.0948 -15.0876 -15.0876
   -15.0732 -15.0732 -15.0690 -15.0690 -15.0092 -15.0092 -15.0005 -15.0005
   -12.7876 -12.7873 -12.7790 -12.7790 -12.7704 -12.7704 -12.7290 -12.7288
   -12.7264 -12.7264 -12.7209 -12.7207 -12.7158 -12.7157 -12.6994 -12.6994
   -12.6839 -12.6839 -12.6580 -12.6579 -12.6569 -12.6569 -12.6467 -12.6465
   -12.6409 -12.6408 -12.6336 -12.6335 -12.5914 -12.5913 -12.5899 -12.5899
   -12.5683 -12.5683 -12.5603 -12.5601 -12.5432 -12.5429 -12.5054 -12.5053
   -12.4986 -12.4985 -12.4911 -12.4911 -12.4893 -12.4893 -12.4172 -12.4172
   -11.4047 -11.4047 -11.3403 -11.3402 -11.2839 -11.2838 -11.2241 -11.2239
   -11.1982 -11.1979 -11.1672 -11.1671 -11.0976 -11.0974 -11.0817 -11.0816
   -11.0379 -11.0376 -11.0152 -11.0148 -11.0010 -11.0005 -10.9885 -10.9884
   -10.9765 -10.9759 -10.9200 -10.9198 -10.8947 -10.8946 -10.8483 -10.8478
   -10.8234 -10.8233 -10.7929 -10.7926 -10.7540 -10.7538 -10.6857 -10.6856
   -10.6438 -10.6437 -10.6221 -10.6220 -10.5905 -10.5903 -10.5358 -10.5358
    -6.0981  -6.0981  -6.0135  -6.0134  -5.9761  -5.9761  -5.9730  -5.9729
    -5.9414  -5.9413  -5.9351  -5.9351  -5.7958  -5.7958  -5.7736  -5.7736
    -5.2002  -5.1998  -5.1086  -5.1081  -4.7378  -4.7369  -4.7174  -4.7163
    -4.6826  -4.6811  -4.6443  -4.6439  -4.5020  -4.5018  -4.4802  -4.4800
    -4.4202  -4.4200  -4.4022  -4.4020  -4.3870  -4.3869  -4.3780  -4.3779
    -4.3702  -4.3699  -4.3614  -4.3612  -4.3526  -4.3524  -4.3431  -4.3431
    -4.3208  -4.3207  -4.3140  -4.3137  -4.2458  -4.2423  -4.2197  -4.2149
    -4.2044  -4.1961  -4.1872  -4.1857  -4.1796  -4.1780  -4.1641  -4.1604
    -1.0055  -1.0015  -0.7673  -0.7633  -0.7340  -0.7307  -0.6807  -0.6799
    -0.6154  -0.6146  -0.5396  -0.5375  -0.4748  -0.4674  -0.4559  -0.4488
    -0.2085  -0.2009  -0.1726  -0.1669  -0.0038   0.0035   0.0194   0.0251
     0.0904   0.1028   0.1354   0.1439   0.1868   0.1944   0.2776   0.2872
     0.3015   0.3057   0.3668   0.3772   0.4191   0.4227   0.4590   0.4627
     0.4756   0.4800   0.4935   0.4994   0.5969   0.6004   0.6598   0.6620
     0.6867   0.6919   0.7197   0.7241   0.7591   0.7600   0.7860   0.7907
     0.8194   0.8214   0.8401   0.8427   0.8741   0.8770   0.8976   0.8997
     0.9219   0.9233   0.9436   0.9481   0.9710   0.9723   0.9983   1.0013
     1.0048   1.0075   1.0328   1.0362   1.0564   1.0614   1.0714   1.0749
     1.0943   1.0958   1.1189   1.1212   1.1263   1.1284   1.1563   1.1588
     1.1745   1.1797   1.1977   1.1988   1.2203   1.2241   1.2338   1.2407
     1.2659   1.2707   1.2896   1.2913   1.3020   1.3051   1.3312   1.3341
     1.3600   1.3647   1.3758   1.3812   1.3960   1.3978   1.4262   1.4291
     1.4492   1.4519   1.4697   1.4740   1.4973   1.5006   1.5423   1.5455
     1.5743   1.5761   1.5859   1.5872   1.6027   1.6098   1.6348   1.6391
     1.6815   1.6835   1.7632   1.7665   1.8407   1.8480   1.8740   1.8787
     1.9858   1.9925   2.0211   2.0242   2.3096   2.3188   2.3579   2.3650
     4.1693   4.2144   4.2354   4.2754   4.7836   4.7863   4.8890   4.9001
     5.1068   5.1146   5.1665   5.1727   5.4547   5.4681   5.5025   5.5130
     6.0065   6.0247   6.1396   6.1945   6.2409   6.2689   6.3631   6.4151
     6.4432   6.4795   6.5571   6.6049   6.6653   6.7032   6.7793   6.7901
     6.9689   6.9772   7.0803   7.0974   7.3921   7.4160   7.5644   7.5718
     7.6575   7.6697   7.7885   7.8006   7.8327   7.8471   7.8711   7.8889
     7.9342   7.9441   7.9769   7.9812   8.0315   8.0499   8.0687   8.0754
     8.1116   8.1189   8.1575   8.1737   8.2311   8.2369   8.2568   8.2676
     8.2930   8.2957   8.3539   8.3619   8.3878   8.3936   8.4119   8.4162
     8.4327   8.4403   8.4724   8.4758   8.4985   8.5002   8.5495   8.5523
     8.5644   8.5711   8.6276   8.6296   8.6530   8.6569   8.6836   8.6925
     8.7323   8.7380   8.7924   8.7971   8.8089   8.8148   8.8389   8.8444
     8.8660   8.8678   8.8957   8.8981   8.9148   8.9205   8.9545   8.9629
     8.9864   8.9905   8.9978   9.0041   9.0619   9.0649   9.1142   9.1172
     9.1361   9.1428   9.2033   9.2059   9.2538   9.2585   9.2924   9.2974
     9.3475   9.3526   9.3840   9.3907   9.4293   9.4338   9.4873   9.4900
     9.5043   9.5076   9.5191   9.5218   9.5592   9.5609   9.5882   9.5909
     9.6230   9.6286   9.6565   9.6603   9.6811   9.6835   9.7101   9.7156
     9.7428   9.7455   9.9213   9.9261

     occupation numbers 
     1.0000   1.0000   1.0000   1.0000   1.0000   1.0000   1.0000   1.0000
     1.0000   1.0000   1.0000   1.0000   1.0000   1.0000   1.0000   1.0000
     1.0000   1.0000   1.0000   1.0000   1.0000   1.0000   1.0000   1.0000
     1.0000   1.0000   1.0000   1.0000   1.0000   1.0000   1.0000   1.0000
     1.0000   1.0000   1.0000   1.0000   1.0000   1.0000   1.0000   1.0000
     1.0000   1.0000   1.0000   1.0000   1.0000   1.0000   1.0000   1.0000
     1.0000   1.0000   1.0000   1.0000   1.0000   1.0000   1.0000   1.0000
     1.0000   1.0000   1.0000   1.0000   1.0000   1.0000   1.0000   1.0000
     1.0000   1.0000   1.0000   1.0000   1.0000   1.0000   1.0000   1.0000
     1.0000   1.0000   1.0000   1.0000   1.0000   1.0000   1.0000   1.0000
     1.0000   1.0000   1.0000   1.0000   1.0000   1.0000   1.0000   1.0000
     1.0000   1.0000   1.0000   1.0000   1.0000   1.0000   1.0000   1.0000
     1.0000   1.0000   1.0000   1.0000   1.0000   1.0000   1.0000   1.0000
     1.0000   1.0000   1.0000   1.0000   1.0000   1.0000   1.0000   1.0000
     1.0000   1.0000   1.0000   1.0000   1.0000   1.0000   1.0000   1.0000
     1.0000   1.0000   1.0000   1.0000   1.0000   1.0000   1.0000   1.0000
     1.0000   1.0000   1.0000   1.0000   1.0000   1.0000   1.0000   1.0000
     1.0000   1.0000   1.0000   1.0000   1.0000   1.0000   1.0000   1.0000
     1.0000   1.0000   1.0000   1.0000   1.0000   1.0000   1.0000   1.0000
     1.0000   1.0000   1.0000   1.0000   1.0000   1.0000   1.0000   1.0000
     1.0000   1.0000   1.0000   1.0000   1.0000   1.0000   1.0000   1.0000
     1.0000   1.0000   1.0000   1.0000   1.0000   1.0000   1.0000   1.0000
     1.0000   1.0000   1.0000   1.0000   1.0000   1.0000   1.0000   1.0000
     1.0000   1.0000   1.0000   1.0000   1.0000   1.0000   1.0000   1.0000
     1.0000   1.0000   1.0000   1.0000   1.0000   1.0000   1.0000   1.0000
     1.0000   1.0000   1.0000   1.0000   1.0000   1.0000   1.0000   1.0000
     1.0000   1.0000   1.0000   1.0000   1.0000   1.0000   1.0000   1.0000
     1.0000   1.0000   1.0000   1.0000   1.0000   1.0000   1.0000   1.0000
     1.0000   1.0000   1.0000   1.0000   1.0000   1.0000   1.0000   1.0000
     1.0000   1.0000   1.0000   1.0000   1.0000   1.0000   1.0000   1.0000
     1.0000   1.0000   1.0000   1.0000   1.0000   1.0000   1.0000   1.0000
     1.0000   1.0000   1.0000   1.0000   1.0000   1.0000   1.0000   1.0000
     1.0000   1.0000   1.0000   1.0000   1.0000   1.0000   1.0000   1.0000
     1.0000   1.0000   1.0000   1.0000   1.0000   1.0000   1.0000   1.0000
     1.0000   1.0000   1.0000   1.0000   1.0000   1.0000   1.0000   1.0000
     1.0000   1.0000   1.0000   1.0000   1.0000   1.0000   1.0000   1.0000
     1.0000   1.0000   1.0000   1.0000   1.0000   1.0000   1.0000   1.0000
     1.0000   1.0000   1.0000   1.0000   1.0000   1.0000   1.0000   1.0000
     1.0000   1.0000   1.0000   1.0000   1.0000   1.0000   1.0000   1.0000
     1.0000   1.0000   1.0000   1.0000   1.0000   1.0000   1.0000   1.0000
     1.0000   1.0000   1.0000   1.0000   1.0000   1.0000   1.0000   1.0000
     1.0000   1.0000   1.0000   1.0000   1.0000   1.0000   1.0000   1.0000
     1.0000   1.0000   1.0000   1.0000   1.0000   1.0000   1.0000   1.0000
     1.0000   1.0000   1.0000   1.0000   1.0000   1.0000   1.0000   1.0000
     0.0000   0.0000   0.0000   0.0000   0.0000   0.0000   0.0000   0.0000
     0.0000   0.0000   0.0000   0.0000   0.0000   0.0000   0.0000   0.0000
     0.0000   0.0000   0.0000   0.0000   0.0000   0.0000   0.0000   0.0000
     0.0000   0.0000   0.0000   0.0000   0.0000   0.0000   0.0000   0.0000
     0.0000   0.0000   0.0000   0.0000   0.0000   0.0000   0.0000   0.0000
     0.0000   0.0000   0.0000   0.0000   0.0000   0.0000   0.0000   0.0000
     0.0000   0.0000   0.0000   0.0000   0.0000   0.0000   0.0000   0.0000
     0.0000   0.0000   0.0000   0.0000   0.0000   0.0000   0.0000   0.0000
     0.0000   0.0000   0.0000   0.0000   0.0000   0.0000   0.0000   0.0000
     0.0000   0.0000   0.0000   0.0000   0.0000   0.0000   0.0000   0.0000
     0.0000   0.0000   0.0000   0.0000   0.0000   0.0000   0.0000   0.0000
     0.0000   0.0000   0.0000   0.0000   0.0000   0.0000   0.0000   0.0000
     0.0000   0.0000   0.0000   0.0000   0.0000   0.0000   0.0000   0.0000
     0.0000   0.0000   0.0000   0.0000   0.0000   0.0000   0.0000   0.0000
     0.0000   0.0000   0.0000   0.0000   0.0000   0.0000   0.0000   0.0000
     0.0000   0.0000   0.0000   0.0000   0.0000   0.0000   0.0000   0.0000
     0.0000   0.0000   0.0000   0.0000   0.0000   0.0000   0.0000   0.0000
     0.0000   0.0000   0.0000   0.0000   0.0000   0.0000   0.0000   0.0000
     0.0000   0.0000   0.0000   0.0000

          k = 0.4500 0.0000 0.0000 ( 73900 PWs)   bands (ev):

   -18.1281 -18.1281 -18.0397 -18.0397 -17.9993 -17.9993 -17.9954 -17.9954
   -17.9651 -17.9651 -17.9608 -17.9608 -17.8047 -17.8047 -17.7796 -17.7796
   -15.3216 -15.3216 -15.3009 -15.3008 -15.2537 -15.2537 -15.2487 -15.2487
   -15.2402 -15.2402 -15.2349 -15.2349 -15.2229 -15.2229 -15.2149 -15.2149
   -15.1849 -15.1848 -15.1674 -15.1674 -15.0948 -15.0948 -15.0876 -15.0876
   -15.0732 -15.0732 -15.0690 -15.0689 -15.0092 -15.0092 -15.0005 -15.0005
   -12.7880 -12.7873 -12.7790 -12.7789 -12.7704 -12.7704 -12.7291 -12.7288
   -12.7265 -12.7263 -12.7210 -12.7205 -12.7159 -12.7156 -12.6994 -12.6993
   -12.6840 -12.6838 -12.6580 -12.6578 -12.6569 -12.6569 -12.6468 -12.6463
   -12.6409 -12.6408 -12.6335 -12.6335 -12.5915 -12.5913 -12.5899 -12.5899
   -12.5683 -12.5683 -12.5605 -12.5601 -12.5431 -12.5426 -12.5054 -12.5053
   -12.4986 -12.4985 -12.4911 -12.4911 -12.4893 -12.4892 -12.4172 -12.4172
   -11.4050 -11.4049 -11.3401 -11.3399 -11.2836 -11.2834 -11.2245 -11.2241
   -11.1982 -11.1976 -11.1670 -11.1667 -11.0975 -11.0970 -11.0819 -11.0817
   -11.0382 -11.0376 -11.0157 -11.0147 -11.0016 -11.0007 -10.9885 -10.9883
   -10.9768 -10.9755 -10.9199 -10.9195 -10.8948 -10.8945 -10.8489 -10.8480
   -10.8235 -10.8234 -10.7929 -10.7923 -10.7541 -10.7537 -10.6858 -10.6855
   -10.6437 -10.6435 -10.6225 -10.6222 -10.5901 -10.5898 -10.5358 -10.5358
    -6.0981  -6.0981  -6.0135  -6.0134  -5.9762  -5.9761  -5.9730  -5.9729
    -5.9414  -5.9413  -5.9351  -5.9350  -5.7958  -5.7957  -5.7736  -5.7736
    -5.2077  -5.2070  -5.1009  -5.1001  -4.7483  -4.7469  -4.7289  -4.7280
    -4.6680  -4.6661  -4.6362  -4.6354  -4.5022  -4.5016  -4.4802  -4.4799
    -4.4204  -4.4199  -4.4024  -4.4021  -4.3872  -4.3868  -4.3780  -4.3778
    -4.3705  -4.3698  -4.3615  -4.3611  -4.3527  -4.3523  -4.3431  -4.3431
    -4.3209  -4.3207  -4.3141  -4.3135  -4.2576  -4.2532  -4.2186  -4.2133
    -4.2019  -4.1918  -4.1873  -4.1840  -4.1795  -4.1774  -4.1584  -4.1522
    -1.0076  -0.9995  -0.7700  -0.7621  -0.7355  -0.7291  -0.6817  -0.6801
    -0.6159  -0.6143  -0.5407  -0.5366  -0.4789  -0.4646  -0.4593  -0.4454
    -0.2388  -0.2260  -0.1935  -0.1828  -0.0218  -0.0093   0.0048   0.0215
     0.0934   0.1126   0.1453   0.1618   0.2068   0.2187   0.2827   0.2960
     0.3084   0.3144   0.3645   0.3854   0.4181   0.4247   0.4587   0.4652
     0.4751   0.4835   0.4936   0.5050   0.5973   0.6048   0.6594   0.6631
     0.6854   0.6956   0.7180   0.7264   0.7596   0.7614   0.7842   0.7934
     0.8183   0.8224   0.8401   0.8449   0.8729   0.8785   0.8972   0.9015
     0.9213   0.9241   0.9418   0.9507   0.9701   0.9729   0.9963   1.0021
     1.0044   1.0094   1.0308   1.0372   1.0543   1.0639   1.0700   1.0768
     1.0935   1.0962   1.1172   1.1214   1.1261   1.1302   1.1551   1.1599
     1.1720   1.1822   1.1975   1.1997   1.2185   1.2258   1.2304   1.2438
     1.2634   1.2727   1.2884   1.2916   1.3009   1.3072   1.3289   1.3345
     1.3575   1.3663   1.3741   1.3836   1.3952   1.3987   1.4252   1.4310
     1.4479   1.4533   1.4685   1.4764   1.4961   1.5026   1.5408   1.5469
     1.5731   1.5762   1.5862   1.5887   1.5999   1.6135   1.6332   1.6414
     1.6811   1.6849   1.7615   1.7680   1.8371   1.8509   1.8729   1.8814
     1.9866   1.9993   2.0228   2.0289   2.3016   2.3164   2.3643   2.3751
     4.1452   4.2121   4.2372   4.2940   4.7756   4.7809   4.8775   4.8989
     5.1067   5.1217   5.1657   5.1777   5.4416   5.4619   5.5100   5.5245
     5.9626   5.9912   6.1000   6.1811   6.2197   6.2570   6.3467   6.4001
     6.4328   6.5010   6.5495   6.6078   6.7152   6.7490   6.8073   6.8189
     6.9521   6.9557   7.1055   7.1319   7.3823   7.4300   7.5630   7.5775
     7.6511   7.6748   7.7813   7.8036   7.8274   7.8538   7.8649   7.8972
     7.9255   7.9435   7.9733   7.9795   8.0264   8.0566   8.0662   8.0801
     8.1091   8.1237   8.1512   8.1829   8.2265   8.2362   8.2582   8.2749
     8.2951   8.3001   8.3511   8.3665   8.3817   8.3917   8.4084   8.4161
     8.4374   8.4489   8.4769   8.4818   8.4997   8.5024   8.5486   8.5529
     8.5630   8.5753   8.6263   8.6301   8.6501   8.6571   8.6794   8.6971
     8.7298   8.7404   8.7896   8.7987   8.8068   8.8182   8.8362   8.8467
     8.8658   8.8683   8.8943   8.8993   8.9099   8.9195   8.9541   8.9703
     8.9855   8.9946   9.0013   9.0114   9.0596   9.0655   9.1154   9.1208
     9.1338   9.1459   9.2033   9.2079   9.2520   9.2606   9.2933   9.3025
     9.3469   9.3559   9.3824   9.3950   9.4280   9.4363   9.4859   9.4907
     9.5025   9.5084   9.5200   9.5250   9.5589   9.5613   9.5886   9.5931
     9.6211   9.6318   9.6542   9.6620   9.6826   9.6865   9.7097   9.7201
     9.7422   9.7476   9.9166   9.9250

     occupation numbers 
     1.0000   1.0000   1.0000   1.0000   1.0000   1.0000   1.0000   1.0000
     1.0000   1.0000   1.0000   1.0000   1.0000   1.0000   1.0000   1.0000
     1.0000   1.0000   1.0000   1.0000   1.0000   1.0000   1.0000   1.0000
     1.0000   1.0000   1.0000   1.0000   1.0000   1.0000   1.0000   1.0000
     1.0000   1.0000   1.0000   1.0000   1.0000   1.0000   1.0000   1.0000
     1.0000   1.0000   1.0000   1.0000   1.0000   1.0000   1.0000   1.0000
     1.0000   1.0000   1.0000   1.0000   1.0000   1.0000   1.0000   1.0000
     1.0000   1.0000   1.0000   1.0000   1.0000   1.0000   1.0000   1.0000
     1.0000   1.0000   1.0000   1.0000   1.0000   1.0000   1.0000   1.0000
     1.0000   1.0000   1.0000   1.0000   1.0000   1.0000   1.0000   1.0000
     1.0000   1.0000   1.0000   1.0000   1.0000   1.0000   1.0000   1.0000
     1.0000   1.0000   1.0000   1.0000   1.0000   1.0000   1.0000   1.0000
     1.0000   1.0000   1.0000   1.0000   1.0000   1.0000   1.0000   1.0000
     1.0000   1.0000   1.0000   1.0000   1.0000   1.0000   1.0000   1.0000
     1.0000   1.0000   1.0000   1.0000   1.0000   1.0000   1.0000   1.0000
     1.0000   1.0000   1.0000   1.0000   1.0000   1.0000   1.0000   1.0000
     1.0000   1.0000   1.0000   1.0000   1.0000   1.0000   1.0000   1.0000
     1.0000   1.0000   1.0000   1.0000   1.0000   1.0000   1.0000   1.0000
     1.0000   1.0000   1.0000   1.0000   1.0000   1.0000   1.0000   1.0000
     1.0000   1.0000   1.0000   1.0000   1.0000   1.0000   1.0000   1.0000
     1.0000   1.0000   1.0000   1.0000   1.0000   1.0000   1.0000   1.0000
     1.0000   1.0000   1.0000   1.0000   1.0000   1.0000   1.0000   1.0000
     1.0000   1.0000   1.0000   1.0000   1.0000   1.0000   1.0000   1.0000
     1.0000   1.0000   1.0000   1.0000   1.0000   1.0000   1.0000   1.0000
     1.0000   1.0000   1.0000   1.0000   1.0000   1.0000   1.0000   1.0000
     1.0000   1.0000   1.0000   1.0000   1.0000   1.0000   1.0000   1.0000
     1.0000   1.0000   1.0000   1.0000   1.0000   1.0000   1.0000   1.0000
     1.0000   1.0000   1.0000   1.0000   1.0000   1.0000   1.0000   1.0000
     1.0000   1.0000   1.0000   1.0000   1.0000   1.0000   1.0000   1.0000
     1.0000   1.0000   1.0000   1.0000   1.0000   1.0000   1.0000   1.0000
     1.0000   1.0000   1.0000   1.0000   1.0000   1.0000   1.0000   1.0000
     1.0000   1.0000   1.0000   1.0000   1.0000   1.0000   1.0000   1.0000
     1.0000   1.0000   1.0000   1.0000   1.0000   1.0000   1.0000   1.0000
     1.0000   1.0000   1.0000   1.0000   1.0000   1.0000   1.0000   1.0000
     1.0000   1.0000   1.0000   1.0000   1.0000   1.0000   1.0000   1.0000
     1.0000   1.0000   1.0000   1.0000   1.0000   1.0000   1.0000   1.0000
     1.0000   1.0000   1.0000   1.0000   1.0000   1.0000   1.0000   1.0000
     1.0000   1.0000   1.0000   1.0000   1.0000   1.0000   1.0000   1.0000
     1.0000   1.0000   1.0000   1.0000   1.0000   1.0000   1.0000   1.0000
     1.0000   1.0000   1.0000   1.0000   1.0000   1.0000   1.0000   1.0000
     1.0000   1.0000   1.0000   1.0000   1.0000   1.0000   1.0000   1.0000
     1.0000   1.0000   1.0000   1.0000   1.0000   1.0000   1.0000   1.0000
     1.0000   1.0000   1.0000   1.0000   1.0000   1.0000   1.0000   1.0000
     1.0000   1.0000   1.0000   1.0000   1.0000   1.0000   1.0000   1.0000
     0.0000   0.0000   0.0000   0.0000   0.0000   0.0000   0.0000   0.0000
     0.0000   0.0000   0.0000   0.0000   0.0000   0.0000   0.0000   0.0000
     0.0000   0.0000   0.0000   0.0000   0.0000   0.0000   0.0000   0.0000
     0.0000   0.0000   0.0000   0.0000   0.0000   0.0000   0.0000   0.0000
     0.0000   0.0000   0.0000   0.0000   0.0000   0.0000   0.0000   0.0000
     0.0000   0.0000   0.0000   0.0000   0.0000   0.0000   0.0000   0.0000
     0.0000   0.0000   0.0000   0.0000   0.0000   0.0000   0.0000   0.0000
     0.0000   0.0000   0.0000   0.0000   0.0000   0.0000   0.0000   0.0000
     0.0000   0.0000   0.0000   0.0000   0.0000   0.0000   0.0000   0.0000
     0.0000   0.0000   0.0000   0.0000   0.0000   0.0000   0.0000   0.0000
     0.0000   0.0000   0.0000   0.0000   0.0000   0.0000   0.0000   0.0000
     0.0000   0.0000   0.0000   0.0000   0.0000   0.0000   0.0000   0.0000
     0.0000   0.0000   0.0000   0.0000   0.0000   0.0000   0.0000   0.0000
     0.0000   0.0000   0.0000   0.0000   0.0000   0.0000   0.0000   0.0000
     0.0000   0.0000   0.0000   0.0000   0.0000   0.0000   0.0000   0.0000
     0.0000   0.0000   0.0000   0.0000   0.0000   0.0000   0.0000   0.0000
     0.0000   0.0000   0.0000   0.0000   0.0000   0.0000   0.0000   0.0000
     0.0000   0.0000   0.0000   0.0000   0.0000   0.0000   0.0000   0.0000
     0.0000   0.0000   0.0000   0.0000

          k = 0.4250 0.0000 0.0000 ( 73864 PWs)   bands (ev):

   -18.1281 -18.1281 -18.0397 -18.0397 -17.9993 -17.9993 -17.9954 -17.9954
   -17.9651 -17.9651 -17.9608 -17.9608 -17.8047 -17.8047 -17.7796 -17.7796
   -15.3216 -15.3216 -15.3009 -15.3008 -15.2537 -15.2537 -15.2487 -15.2487
   -15.2402 -15.2401 -15.2349 -15.2349 -15.2229 -15.2229 -15.2149 -15.2149
   -15.1849 -15.1848 -15.1674 -15.1674 -15.0948 -15.0948 -15.0876 -15.0876
   -15.0732 -15.0732 -15.0690 -15.0689 -15.0092 -15.0092 -15.0005 -15.0005
   -12.7884 -12.7874 -12.7789 -12.7787 -12.7704 -12.7704 -12.7292 -12.7288
   -12.7265 -12.7263 -12.7210 -12.7203 -12.7159 -12.7155 -12.6994 -12.6993
   -12.6841 -12.6838 -12.6580 -12.6577 -12.6569 -12.6569 -12.6468 -12.6461
   -12.6409 -12.6408 -12.6336 -12.6335 -12.5916 -12.5913 -12.5899 -12.5899
   -12.5684 -12.5683 -12.5607 -12.5602 -12.5430 -12.5422 -12.5054 -12.5052
   -12.4986 -12.4985 -12.4911 -12.4911 -12.4893 -12.4891 -12.4172 -12.4172
   -11.4054 -11.4053 -11.3397 -11.3394 -11.2832 -11.2828 -11.2251 -11.2245
   -11.1981 -11.1973 -11.1665 -11.1661 -11.0973 -11.0965 -11.0822 -11.0818
   -11.0388 -11.0378 -11.0162 -11.0148 -11.0024 -11.0013 -10.9884 -10.9881
   -10.9769 -10.9752 -10.9198 -10.9193 -10.8949 -10.8944 -10.8498 -10.8483
   -10.8237 -10.8234 -10.7927 -10.7919 -10.7543 -10.7537 -10.6858 -10.6855
   -10.6435 -10.6432 -10.6231 -10.6227 -10.5894 -10.5889 -10.5358 -10.5358
    -6.0981  -6.0980  -6.0135  -6.0134  -5.9763  -5.9761  -5.9730  -5.9728
    -5.9414  -5.9413  -5.9351  -5.9350  -5.7958  -5.7957  -5.7736  -5.7736
    -5.2179  -5.2170  -5.0901  -5.0890  -4.7615  -4.7601  -4.7409  -4.7403
    -4.6520  -4.6498  -4.6250  -4.6241  -4.5023  -4.5015  -4.4802  -4.4797
    -4.4205  -4.4198  -4.4027  -4.4021  -4.3874  -4.3868  -4.3781  -4.3777
    -4.3709  -4.3699  -4.3616  -4.3609  -4.3529  -4.3522  -4.3431  -4.3430
    -4.3210  -4.3207  -4.3143  -4.3134  -4.2706  -4.2661  -4.2177  -4.2134
    -4.1985  -4.1902  -4.1874  -4.1835  -4.1785  -4.1769  -4.1470  -4.1405
    -1.0097  -0.9977  -0.7730  -0.7616  -0.7367  -0.7275  -0.6830  -0.6808
    -0.6166  -0.6142  -0.5420  -0.5358  -0.4833  -0.4645  -0.4605  -0.4422
    -0.2769  -0.2606  -0.2228  -0.2083  -0.0529  -0.0363  -0.0144   0.0047
     0.1117   0.1343   0.1636   0.1871   0.2308   0.2450   0.2881   0.3045
     0.3200   0.3303   0.3646   0.3946   0.4191   0.4273   0.4599   0.4677
     0.4759   0.4878   0.4957   0.5119   0.5993   0.6112   0.6596   0.6640
     0.6851   0.6995   0.7174   0.7286   0.7606   0.7637   0.7830   0.7961
     0.8174   0.8236   0.8411   0.8473   0.8720   0.8798   0.8975   0.9035
     0.9208   0.9248   0.9404   0.9534   0.9692   0.9734   0.9941   1.0022
     1.0048   1.0113   1.0290   1.0375   1.0527   1.0659   1.0694   1.0787
     1.0926   1.0963   1.1154   1.1210   1.1261   1.1324   1.1540   1.1607
     1.1699   1.1843   1.1976   1.2008   1.2169   1.2256   1.2289   1.2464
     1.2610   1.2742   1.2871   1.2914   1.2997   1.3095   1.3262   1.3343
     1.3551   1.3669   1.3738   1.3852   1.3945   1.4002   1.4243   1.4331
     1.4468   1.4549   1.4680   1.4787   1.4955   1.5047   1.5393   1.5479
     1.5720   1.5759   1.5869   1.5905   1.5983   1.6169   1.6322   1.6436
     1.6811   1.6863   1.7599   1.7693   1.8336   1.8524   1.8736   1.8839
     1.9903   2.0077   2.0270   2.0356   2.2935   2.3114   2.3755   2.3874
     4.1204   4.1895   4.2571   4.3114   4.7634   4.7715   4.8626   4.8931
     5.1092   5.1304   5.1667   5.1835   5.4277   5.4522   5.5207   5.5365
     5.9087   5.9438   6.0480   6.1186   6.2173   6.2387   6.3196   6.3496
     6.4353   6.4977   6.5941   6.6449   6.7611   6.7929   6.8373   6.8574
     6.9357   6.9534   7.1367   7.1705   7.3739   7.4453   7.5634   7.5844
     7.6449   7.6790   7.7742   7.8034   7.8237   7.8532   7.8672   7.9019
     7.9161   7.9397   7.9714   7.9774   8.0233   8.0544   8.0662   8.0875
     8.1079   8.1293   8.1475   8.1919   8.2224   8.2357   8.2617   8.2804
     8.2995   8.3067   8.3494   8.3704   8.3757   8.3889   8.4056   8.4165
     8.4451   8.4574   8.4836   8.4889   8.5031   8.5057   8.5482   8.5517
     8.5643   8.5798   8.6249   8.6297   8.6475   8.6565   8.6755   8.7015
     8.7275   8.7415   8.7872   8.7999   8.8053   8.8213   8.8344   8.8486
     8.8656   8.8682   8.8909   8.9006   8.9079   8.9189   8.9551   8.9766
     8.9864   8.9992   9.0083   9.0195   9.0585   9.0670   9.1179   9.1246
     9.1332   9.1485   9.2046   9.2101   9.2507   9.2627   9.2964   9.3084
     9.3483   9.3591   9.3826   9.3993   9.4279   9.4389   9.4846   9.4899
     9.5017   9.5088   9.5221   9.5291   9.5584   9.5636   9.5898   9.5956
     9.6198   9.6352   9.6520   9.6641   9.6853   9.6897   9.7112   9.7254
     9.7421   9.7502   9.9115   9.9227

     occupation numbers 
     1.0000   1.0000   1.0000   1.0000   1.0000   1.0000   1.0000   1.0000
     1.0000   1.0000   1.0000   1.0000   1.0000   1.0000   1.0000   1.0000
     1.0000   1.0000   1.0000   1.0000   1.0000   1.0000   1.0000   1.0000
     1.0000   1.0000   1.0000   1.0000   1.0000   1.0000   1.0000   1.0000
     1.0000   1.0000   1.0000   1.0000   1.0000   1.0000   1.0000   1.0000
     1.0000   1.0000   1.0000   1.0000   1.0000   1.0000   1.0000   1.0000
     1.0000   1.0000   1.0000   1.0000   1.0000   1.0000   1.0000   1.0000
     1.0000   1.0000   1.0000   1.0000   1.0000   1.0000   1.0000   1.0000
     1.0000   1.0000   1.0000   1.0000   1.0000   1.0000   1.0000   1.0000
     1.0000   1.0000   1.0000   1.0000   1.0000   1.0000   1.0000   1.0000
     1.0000   1.0000   1.0000   1.0000   1.0000   1.0000   1.0000   1.0000
     1.0000   1.0000   1.0000   1.0000   1.0000   1.0000   1.0000   1.0000
     1.0000   1.0000   1.0000   1.0000   1.0000   1.0000   1.0000   1.0000
     1.0000   1.0000   1.0000   1.0000   1.0000   1.0000   1.0000   1.0000
     1.0000   1.0000   1.0000   1.0000   1.0000   1.0000   1.0000   1.0000
     1.0000   1.0000   1.0000   1.0000   1.0000   1.0000   1.0000   1.0000
     1.0000   1.0000   1.0000   1.0000   1.0000   1.0000   1.0000   1.0000
     1.0000   1.0000   1.0000   1.0000   1.0000   1.0000   1.0000   1.0000
     1.0000   1.0000   1.0000   1.0000   1.0000   1.0000   1.0000   1.0000
     1.0000   1.0000   1.0000   1.0000   1.0000   1.0000   1.0000   1.0000
     1.0000   1.0000   1.0000   1.0000   1.0000   1.0000   1.0000   1.0000
     1.0000   1.0000   1.0000   1.0000   1.0000   1.0000   1.0000   1.0000
     1.0000   1.0000   1.0000   1.0000   1.0000   1.0000   1.0000   1.0000
     1.0000   1.0000   1.0000   1.0000   1.0000   1.0000   1.0000   1.0000
     1.0000   1.0000   1.0000   1.0000   1.0000   1.0000   1.0000   1.0000
     1.0000   1.0000   1.0000   1.0000   1.0000   1.0000   1.0000   1.0000
     1.0000   1.0000   1.0000   1.0000   1.0000   1.0000   1.0000   1.0000
     1.0000   1.0000   1.0000   1.0000   1.0000   1.0000   1.0000   1.0000
     1.0000   1.0000   1.0000   1.0000   1.0000   1.0000   1.0000   1.0000
     1.0000   1.0000   1.0000   1.0000   1.0000   1.0000   1.0000   1.0000
     1.0000   1.0000   1.0000   1.0000   1.0000   1.0000   1.0000   1.0000
     1.0000   1.0000   1.0000   1.0000   1.0000   1.0000   1.0000   1.0000
     1.0000   1.0000   1.0000   1.0000   1.0000   1.0000   1.0000   1.0000
     1.0000   1.0000   1.0000   1.0000   1.0000   1.0000   1.0000   1.0000
     1.0000   1.0000   1.0000   1.0000   1.0000   1.0000   1.0000   1.0000
     1.0000   1.0000   1.0000   1.0000   1.0000   1.0000   1.0000   1.0000
     1.0000   1.0000   1.0000   1.0000   1.0000   1.0000   1.0000   1.0000
     1.0000   1.0000   1.0000   1.0000   1.0000   1.0000   1.0000   1.0000
     1.0000   1.0000   1.0000   1.0000   1.0000   1.0000   1.0000   1.0000
     1.0000   1.0000   1.0000   1.0000   1.0000   1.0000   1.0000   1.0000
     1.0000   1.0000   1.0000   1.0000   1.0000   1.0000   1.0000   1.0000
     1.0000   1.0000   1.0000   1.0000   1.0000   1.0000   1.0000   1.0000
     1.0000   1.0000   1.0000   1.0000   1.0000   1.0000   1.0000   1.0000
     1.0000   1.0000   1.0000   1.0000   1.0000   1.0000   1.0000   1.0000
     0.0000   0.0000   0.0000   0.0000   0.0000   0.0000   0.0000   0.0000
     0.0000   0.0000   0.0000   0.0000   0.0000   0.0000   0.0000   0.0000
     0.0000   0.0000   0.0000   0.0000   0.0000   0.0000   0.0000   0.0000
     0.0000   0.0000   0.0000   0.0000   0.0000   0.0000   0.0000   0.0000
     0.0000   0.0000   0.0000   0.0000   0.0000   0.0000   0.0000   0.0000
     0.0000   0.0000   0.0000   0.0000   0.0000   0.0000   0.0000   0.0000
     0.0000   0.0000   0.0000   0.0000   0.0000   0.0000   0.0000   0.0000
     0.0000   0.0000   0.0000   0.0000   0.0000   0.0000   0.0000   0.0000
     0.0000   0.0000   0.0000   0.0000   0.0000   0.0000   0.0000   0.0000
     0.0000   0.0000   0.0000   0.0000   0.0000   0.0000   0.0000   0.0000
     0.0000   0.0000   0.0000   0.0000   0.0000   0.0000   0.0000   0.0000
     0.0000   0.0000   0.0000   0.0000   0.0000   0.0000   0.0000   0.0000
     0.0000   0.0000   0.0000   0.0000   0.0000   0.0000   0.0000   0.0000
     0.0000   0.0000   0.0000   0.0000   0.0000   0.0000   0.0000   0.0000
     0.0000   0.0000   0.0000   0.0000   0.0000   0.0000   0.0000   0.0000
     0.0000   0.0000   0.0000   0.0000   0.0000   0.0000   0.0000   0.0000
     0.0000   0.0000   0.0000   0.0000   0.0000   0.0000   0.0000   0.0000
     0.0000   0.0000   0.0000   0.0000   0.0000   0.0000   0.0000   0.0000
     0.0000   0.0000   0.0000   0.0000

          k = 0.4000 0.0000 0.0000 ( 73848 PWs)   bands (ev):

   -18.1281 -18.1281 -18.0397 -18.0397 -17.9993 -17.9993 -17.9954 -17.9954
   -17.9651 -17.9651 -17.9608 -17.9608 -17.8047 -17.8047 -17.7796 -17.7796
   -15.3216 -15.3216 -15.3009 -15.3008 -15.2537 -15.2537 -15.2487 -15.2487
   -15.2402 -15.2401 -15.2349 -15.2349 -15.2229 -15.2229 -15.2149 -15.2149
   -15.1849 -15.1848 -15.1674 -15.1674 -15.0948 -15.0948 -15.0876 -15.0876
   -15.0732 -15.0732 -15.0689 -15.0689 -15.0092 -15.0092 -15.0005 -15.0005
   -12.7889 -12.7877 -12.7787 -12.7785 -12.7705 -12.7704 -12.7293 -12.7289
   -12.7266 -12.7263 -12.7209 -12.7201 -12.7159 -12.7153 -12.6994 -12.6993
   -12.6841 -12.6838 -12.6580 -12.6576 -12.6569 -12.6568 -12.6469 -12.6459
   -12.6409 -12.6408 -12.6336 -12.6335 -12.5918 -12.5914 -12.5899 -12.5899
   -12.5684 -12.5683 -12.5610 -12.5604 -12.5427 -12.5417 -12.5054 -12.5052
   -12.4986 -12.4984 -12.4911 -12.4911 -12.4892 -12.4890 -12.4172 -12.4172
   -11.4060 -11.4059 -11.3392 -11.3388 -11.2826 -11.2820 -11.2259 -11.2250
   -11.1980 -11.1969 -11.1659 -11.1653 -11.0969 -11.0959 -11.0825 -11.0820
   -11.0395 -11.0382 -11.0169 -11.0149 -11.0034 -11.0021 -10.9883 -10.9880
   -10.9771 -10.9749 -10.9196 -10.9189 -10.8949 -10.8944 -10.8508 -10.8490
   -10.8239 -10.8236 -10.7925 -10.7915 -10.7544 -10.7537 -10.6859 -10.6855
   -10.6432 -10.6428 -10.6238 -10.6233 -10.5884 -10.5879 -10.5358 -10.5358
    -6.0981  -6.0980  -6.0136  -6.0133  -5.9764  -5.9762  -5.9729  -5.9727
    -5.9414  -5.9412  -5.9351  -5.9350  -5.7958  -5.7957  -5.7736  -5.7736
    -5.2295  -5.2285  -5.0775  -5.0764  -4.7755  -4.7741  -4.7533  -4.7528
    -4.6356  -4.6332  -4.6122  -4.6113  -4.5024  -4.5013  -4.4802  -4.4795
    -4.4207  -4.4198  -4.4031  -4.4023  -4.3876  -4.3869  -4.3781  -4.3776
    -4.3713  -4.3700  -4.3616  -4.3608  -4.3532  -4.3522  -4.3431  -4.3430
    -4.3213  -4.3208  -4.3145  -4.3133  -4.2835  -4.2790  -4.2171  -4.2137
    -4.1960  -4.1897  -4.1873  -4.1837  -4.1777  -4.1766  -4.1322  -4.1264
    -1.0118  -0.9959  -0.7763  -0.7618  -0.7376  -0.7260  -0.6846  -0.6818
    -0.6174  -0.6143  -0.5434  -0.5352  -0.4879  -0.4682  -0.4591  -0.4392
    -0.3183  -0.2990  -0.2569  -0.2393  -0.0881  -0.0689  -0.0410  -0.0227
     0.1382   0.1636   0.1860   0.2138   0.2526   0.2677   0.2928   0.3187
     0.3324   0.3493   0.3676   0.4022   0.4233   0.4319   0.4629   0.4709
     0.4778   0.4931   0.4994   0.5198   0.6028   0.6200   0.6606   0.6648
     0.6856   0.7029   0.7186   0.7306   0.7621   0.7667   0.7824   0.7987
     0.8166   0.8251   0.8429   0.8499   0.8715   0.8809   0.8984   0.9057
     0.9206   0.9256   0.9395   0.9562   0.9681   0.9738   0.9918   1.0021
     1.0056   1.0131   1.0273   1.0370   1.0517   1.0664   1.0706   1.0805
     1.0918   1.0963   1.1136   1.1203   1.1261   1.1347   1.1531   1.1611
     1.1681   1.1859   1.1978   1.2021   1.2153   1.2227   1.2303   1.2483
     1.2592   1.2751   1.2860   1.2908   1.2984   1.3118   1.3238   1.3335
     1.3529   1.3668   1.3747   1.3858   1.3938   1.4024   1.4235   1.4349
     1.4459   1.4566   1.4683   1.4804   1.4958   1.5070   1.5380   1.5486
     1.5708   1.5756   1.5876   1.5926   1.5980   1.6195   1.6321   1.6457
     1.6817   1.6878   1.7587   1.7705   1.8302   1.8522   1.8763   1.8864
     1.9969   2.0174   2.0337   2.0443   2.2857   2.3056   2.3894   2.4013
     4.0949   4.1656   4.2762   4.3276   4.7475   4.7584   4.8448   4.8829
     5.1137   5.1399   5.1691   5.1896   5.4136   5.4419   5.5313   5.5484
     5.8500   5.8907   5.9899   6.0515   6.1929   6.2044   6.2813   6.2955
     6.4489   6.5003   6.6554   6.6944   6.7816   6.8275   6.8648   6.9034
     6.9358   6.9812   7.1684   7.2102   7.3673   7.4619   7.5661   7.5924
     7.6395   7.6824   7.7673   7.8006   7.8203   7.8496   7.8729   7.8975
     7.9089   7.9377   7.9708   7.9773   8.0203   8.0493   8.0641   8.0940
     8.1089   8.1346   8.1490   8.1997   8.2200   8.2371   8.2652   8.2842
     8.3054   8.3150   8.3490   8.3694   8.3732   8.3888   8.4042   8.4185
     8.4541   8.4648   8.4894   8.4971   8.5072   8.5121   8.5480   8.5504
     8.5679   8.5845   8.6234   8.6282   8.6455   8.6559   8.6724   8.7049
     8.7253   8.7411   8.7855   8.8010   8.8037   8.8240   8.8340   8.8503
     8.8633   8.8694   8.8858   8.9023   8.9092   8.9210   8.9570   8.9805
     8.9886   9.0023   9.0181   9.0278   9.0604   9.0711   9.1212   9.1281
     9.1350   9.1508   9.2070   9.2124   9.2500   9.2650   9.3011   9.3145
     9.3514   9.3622   9.3844   9.4034   9.4295   9.4417   9.4833   9.4879
     9.5017   9.5088   9.5249   9.5341   9.5580   9.5685   9.5914   9.5986
     9.6189   9.6386   9.6504   9.6669   9.6884   9.6929   9.7143   9.7309
     9.7429   9.7533   9.9064   9.9199

     occupation numbers 
     1.0000   1.0000   1.0000   1.0000   1.0000   1.0000   1.0000   1.0000
     1.0000   1.0000   1.0000   1.0000   1.0000   1.0000   1.0000   1.0000
     1.0000   1.0000   1.0000   1.0000   1.0000   1.0000   1.0000   1.0000
     1.0000   1.0000   1.0000   1.0000   1.0000   1.0000   1.0000   1.0000
     1.0000   1.0000   1.0000   1.0000   1.0000   1.0000   1.0000   1.0000
     1.0000   1.0000   1.0000   1.0000   1.0000   1.0000   1.0000   1.0000
     1.0000   1.0000   1.0000   1.0000   1.0000   1.0000   1.0000   1.0000
     1.0000   1.0000   1.0000   1.0000   1.0000   1.0000   1.0000   1.0000
     1.0000   1.0000   1.0000   1.0000   1.0000   1.0000   1.0000   1.0000
     1.0000   1.0000   1.0000   1.0000   1.0000   1.0000   1.0000   1.0000
     1.0000   1.0000   1.0000   1.0000   1.0000   1.0000   1.0000   1.0000
     1.0000   1.0000   1.0000   1.0000   1.0000   1.0000   1.0000   1.0000
     1.0000   1.0000   1.0000   1.0000   1.0000   1.0000   1.0000   1.0000
     1.0000   1.0000   1.0000   1.0000   1.0000   1.0000   1.0000   1.0000
     1.0000   1.0000   1.0000   1.0000   1.0000   1.0000   1.0000   1.0000
     1.0000   1.0000   1.0000   1.0000   1.0000   1.0000   1.0000   1.0000
     1.0000   1.0000   1.0000   1.0000   1.0000   1.0000   1.0000   1.0000
     1.0000   1.0000   1.0000   1.0000   1.0000   1.0000   1.0000   1.0000
     1.0000   1.0000   1.0000   1.0000   1.0000   1.0000   1.0000   1.0000
     1.0000   1.0000   1.0000   1.0000   1.0000   1.0000   1.0000   1.0000
     1.0000   1.0000   1.0000   1.0000   1.0000   1.0000   1.0000   1.0000
     1.0000   1.0000   1.0000   1.0000   1.0000   1.0000   1.0000   1.0000
     1.0000   1.0000   1.0000   1.0000   1.0000   1.0000   1.0000   1.0000
     1.0000   1.0000   1.0000   1.0000   1.0000   1.0000   1.0000   1.0000
     1.0000   1.0000   1.0000   1.0000   1.0000   1.0000   1.0000   1.0000
     1.0000   1.0000   1.0000   1.0000   1.0000   1.0000   1.0000   1.0000
     1.0000   1.0000   1.0000   1.0000   1.0000   1.0000   1.0000   1.0000
     1.0000   1.0000   1.0000   1.0000   1.0000   1.0000   1.0000   1.0000
     1.0000   1.0000   1.0000   1.0000   1.0000   1.0000   1.0000   1.0000
     1.0000   1.0000   1.0000   1.0000   1.0000   1.0000   1.0000   1.0000
     1.0000   1.0000   1.0000   1.0000   1.0000   1.0000   1.0000   1.0000
     1.0000   1.0000   1.0000   1.0000   1.0000   1.0000   1.0000   1.0000
     1.0000   1.0000   1.0000   1.0000   1.0000   1.0000   1.0000   1.0000
     1.0000   1.0000   1.0000   1.0000   1.0000   1.0000   1.0000   1.0000
     1.0000   1.0000   1.0000   1.0000   1.0000   1.0000   1.0000   1.0000
     1.0000   1.0000   1.0000   1.0000   1.0000   1.0000   1.0000   1.0000
     1.0000   1.0000   1.0000   1.0000   1.0000   1.0000   1.0000   1.0000
     1.0000   1.0000   1.0000   1.0000   1.0000   1.0000   1.0000   1.0000
     1.0000   1.0000   1.0000   1.0000   1.0000   1.0000   1.0000   1.0000
     1.0000   1.0000   1.0000   1.0000   1.0000   1.0000   1.0000   1.0000
     1.0000   1.0000   1.0000   1.0000   1.0000   1.0000   1.0000   1.0000
     1.0000   1.0000   1.0000   1.0000   1.0000   1.0000   1.0000   1.0000
     1.0000   1.0000   1.0000   1.0000   1.0000   1.0000   1.0000   1.0000
     1.0000   1.0000   1.0000   1.0000   1.0000   1.0000   1.0000   1.0000
     0.0000   0.0000   0.0000   0.0000   0.0000   0.0000   0.0000   0.0000
     0.0000   0.0000   0.0000   0.0000   0.0000   0.0000   0.0000   0.0000
     0.0000   0.0000   0.0000   0.0000   0.0000   0.0000   0.0000   0.0000
     0.0000   0.0000   0.0000   0.0000   0.0000   0.0000   0.0000   0.0000
     0.0000   0.0000   0.0000   0.0000   0.0000   0.0000   0.0000   0.0000
     0.0000   0.0000   0.0000   0.0000   0.0000   0.0000   0.0000   0.0000
     0.0000   0.0000   0.0000   0.0000   0.0000   0.0000   0.0000   0.0000
     0.0000   0.0000   0.0000   0.0000   0.0000   0.0000   0.0000   0.0000
     0.0000   0.0000   0.0000   0.0000   0.0000   0.0000   0.0000   0.0000
     0.0000   0.0000   0.0000   0.0000   0.0000   0.0000   0.0000   0.0000
     0.0000   0.0000   0.0000   0.0000   0.0000   0.0000   0.0000   0.0000
     0.0000   0.0000   0.0000   0.0000   0.0000   0.0000   0.0000   0.0000
     0.0000   0.0000   0.0000   0.0000   0.0000   0.0000   0.0000   0.0000
     0.0000   0.0000   0.0000   0.0000   0.0000   0.0000   0.0000   0.0000
     0.0000   0.0000   0.0000   0.0000   0.0000   0.0000   0.0000   0.0000
     0.0000   0.0000   0.0000   0.0000   0.0000   0.0000   0.0000   0.0000
     0.0000   0.0000   0.0000   0.0000   0.0000   0.0000   0.0000   0.0000
     0.0000   0.0000   0.0000   0.0000   0.0000   0.0000   0.0000   0.0000
     0.0000   0.0000   0.0000   0.0000

          k = 0.3750 0.0000 0.0000 ( 73848 PWs)   bands (ev):

   -18.1281 -18.1281 -18.0397 -18.0397 -17.9993 -17.9993 -17.9954 -17.9954
   -17.9651 -17.9651 -17.9608 -17.9608 -17.8047 -17.8047 -17.7796 -17.7796
   -15.3216 -15.3216 -15.3009 -15.3008 -15.2537 -15.2537 -15.2487 -15.2487
   -15.2402 -15.2401 -15.2349 -15.2349 -15.2229 -15.2229 -15.2149 -15.2149
   -15.1849 -15.1848 -15.1674 -15.1674 -15.0948 -15.0948 -15.0876 -15.0876
   -15.0733 -15.0732 -15.0689 -15.0688 -15.0092 -15.0092 -15.0005 -15.0005
   -12.7895 -12.7881 -12.7785 -12.7783 -12.7705 -12.7704 -12.7295 -12.7289
   -12.7267 -12.7263 -12.7208 -12.7199 -12.7159 -12.7152 -12.6994 -12.6992
   -12.6842 -12.6838 -12.6579 -12.6576 -12.6569 -12.6568 -12.6468 -12.6457
   -12.6409 -12.6408 -12.6336 -12.6335 -12.5919 -12.5914 -12.5899 -12.5899
   -12.5685 -12.5683 -12.5614 -12.5606 -12.5423 -12.5412 -12.5054 -12.5051
   -12.4986 -12.4984 -12.4911 -12.4911 -12.4892 -12.4889 -12.4172 -12.4172
   -11.4067 -11.4065 -11.3385 -11.3381 -11.2817 -11.2811 -11.2267 -11.2258
   -11.1977 -11.1965 -11.1651 -11.1644 -11.0965 -11.0952 -11.0829 -11.0823
   -11.0403 -11.0387 -11.0177 -11.0152 -11.0043 -11.0031 -10.9882 -10.9879
   -10.9771 -10.9747 -10.9194 -10.9185 -10.8950 -10.8943 -10.8521 -10.8498
   -10.8241 -10.8237 -10.7921 -10.7909 -10.7546 -10.7537 -10.6859 -10.6854
   -10.6428 -10.6423 -10.6246 -10.6240 -10.5872 -10.5866 -10.5358 -10.5358
    -6.0981  -6.0980  -6.0136  -6.0133  -5.9766  -5.9763  -5.9728  -5.9725
    -5.9415  -5.9412  -5.9351  -5.9350  -5.7958  -5.7957  -5.7736  -5.7735
    -5.2415  -5.2405  -5.0641  -5.0630  -4.7895  -4.7882  -4.7657  -4.7652
    -4.6193  -4.6167  -4.5987  -4.5978  -4.5025  -4.5011  -4.4802  -4.4793
    -4.4209  -4.4198  -4.4037  -4.4025  -4.3879  -4.3871  -4.3781  -4.3775
    -4.3718  -4.3703  -4.3617  -4.3608  -4.3534  -4.3521  -4.3430  -4.3429
    -4.3218  -4.3210  -4.3147  -4.3132  -4.2957  -4.2911  -4.2167  -4.2139
    -4.1944  -4.1895  -4.1873  -4.1840  -4.1773  -4.1763  -4.1161  -4.1110
    -1.0139  -0.9943  -0.7800  -0.7629  -0.7383  -0.7247  -0.6864  -0.6832
    -0.6186  -0.6146  -0.5452  -0.5350  -0.4929  -0.4728  -0.4582  -0.4365
    -0.3601  -0.3381  -0.2929  -0.2728  -0.1246  -0.1028  -0.0720  -0.0545
     0.1647   0.1927   0.2106   0.2372   0.2693   0.2838   0.3008   0.3370
     0.3452   0.3693   0.3745   0.4083   0.4288   0.4397   0.4677   0.4760
     0.4809   0.4992   0.5045   0.5283   0.6078   0.6311   0.6623   0.6659
     0.6871   0.7050   0.7226   0.7325   0.7640   0.7705   0.7825   0.8011
     0.8163   0.8271   0.8453   0.8523   0.8715   0.8817   0.8998   0.9081
     0.9206   0.9266   0.9391   0.9590   0.9669   0.9744   0.9895   1.0023
     1.0062   1.0147   1.0259   1.0362   1.0512   1.0661   1.0728   1.0821
     1.0912   1.0961   1.1119   1.1194   1.1261   1.1369   1.1522   1.1612
     1.1669   1.1872   1.1980   1.2036   1.2139   1.2199   1.2319   1.2489
     1.2581   1.2753   1.2849   1.2901   1.2968   1.3135   1.3223   1.3324
     1.3510   1.3665   1.3758   1.3853   1.3935   1.4051   1.4228   1.4362
     1.4452   1.4584   1.4693   1.4815   1.4970   1.5095   1.5368   1.5489
     1.5696   1.5758   1.5881   1.5950   1.5990   1.6214   1.6331   1.6478
     1.6829   1.6892   1.7578   1.7716   1.8270   1.8510   1.8801   1.8890
     2.0061   2.0281   2.0430   2.0551   2.2784   2.3001   2.4052   2.4168
     4.0688   4.1406   4.2940   4.3426   4.7283   4.7421   4.8246   4.8687
     5.1197   5.1499   5.1726   5.1957   5.3994   5.4318   5.5403   5.5591
     5.7900   5.8362   5.9302   5.9841   6.1522   6.1586   6.2312   6.2439
     6.4717   6.5175   6.7096   6.7430   6.7719   6.8541   6.9016   6.9458
     6.9727   7.0241   7.1988   7.2492   7.3631   7.4792   7.5716   7.6011
     7.6354   7.6851   7.7608   7.7966   7.8159   7.8470   7.8756   7.8865
     7.9023   7.9406   7.9702   7.9800   8.0162   8.0452   8.0604   8.0963
     8.1113   8.1394   8.1562   8.2045   8.2209   8.2408   8.2679   8.2878
     8.3116   8.3234   8.3501   8.3661   8.3711   8.3920   8.4055   8.4221
     8.4630   8.4708   8.4939   8.5044   8.5122   8.5204   8.5462   8.5521
     8.5729   8.5893   8.6218   8.6262   8.6436   8.6555   8.6709   8.7066
     8.7231   8.7396   8.7843   8.8014   8.8026   8.8266   8.8349   8.8513
     8.8605   8.8711   8.8815   8.9045   8.9123   8.9260   8.9600   8.9832
     8.9894   9.0035   9.0294   9.0367   9.0654   9.0780   9.1250   9.1313
     9.1392   9.1533   9.2102   9.2149   9.2503   9.2678   9.3067   9.3206
     9.3552   9.3654   9.3878   9.4074   9.4329   9.4449   9.4812   9.4863
     9.5021   9.5092   9.5282   9.5400   9.5591   9.5752   9.5928   9.6022
     9.6183   9.6423   9.6500   9.6703   9.6914   9.6964   9.7182   9.7360
     9.7449   9.7568   9.9016   9.9168

     occupation numbers 
     1.0000   1.0000   1.0000   1.0000   1.0000   1.0000   1.0000   1.0000
     1.0000   1.0000   1.0000   1.0000   1.0000   1.0000   1.0000   1.0000
     1.0000   1.0000   1.0000   1.0000   1.0000   1.0000   1.0000   1.0000
     1.0000   1.0000   1.0000   1.0000   1.0000   1.0000   1.0000   1.0000
     1.0000   1.0000   1.0000   1.0000   1.0000   1.0000   1.0000   1.0000
     1.0000   1.0000   1.0000   1.0000   1.0000   1.0000   1.0000   1.0000
     1.0000   1.0000   1.0000   1.0000   1.0000   1.0000   1.0000   1.0000
     1.0000   1.0000   1.0000   1.0000   1.0000   1.0000   1.0000   1.0000
     1.0000   1.0000   1.0000   1.0000   1.0000   1.0000   1.0000   1.0000
     1.0000   1.0000   1.0000   1.0000   1.0000   1.0000   1.0000   1.0000
     1.0000   1.0000   1.0000   1.0000   1.0000   1.0000   1.0000   1.0000
     1.0000   1.0000   1.0000   1.0000   1.0000   1.0000   1.0000   1.0000
     1.0000   1.0000   1.0000   1.0000   1.0000   1.0000   1.0000   1.0000
     1.0000   1.0000   1.0000   1.0000   1.0000   1.0000   1.0000   1.0000
     1.0000   1.0000   1.0000   1.0000   1.0000   1.0000   1.0000   1.0000
     1.0000   1.0000   1.0000   1.0000   1.0000   1.0000   1.0000   1.0000
     1.0000   1.0000   1.0000   1.0000   1.0000   1.0000   1.0000   1.0000
     1.0000   1.0000   1.0000   1.0000   1.0000   1.0000   1.0000   1.0000
     1.0000   1.0000   1.0000   1.0000   1.0000   1.0000   1.0000   1.0000
     1.0000   1.0000   1.0000   1.0000   1.0000   1.0000   1.0000   1.0000
     1.0000   1.0000   1.0000   1.0000   1.0000   1.0000   1.0000   1.0000
     1.0000   1.0000   1.0000   1.0000   1.0000   1.0000   1.0000   1.0000
     1.0000   1.0000   1.0000   1.0000   1.0000   1.0000   1.0000   1.0000
     1.0000   1.0000   1.0000   1.0000   1.0000   1.0000   1.0000   1.0000
     1.0000   1.0000   1.0000   1.0000   1.0000   1.0000   1.0000   1.0000
     1.0000   1.0000   1.0000   1.0000   1.0000   1.0000   1.0000   1.0000
     1.0000   1.0000   1.0000   1.0000   1.0000   1.0000   1.0000   1.0000
     1.0000   1.0000   1.0000   1.0000   1.0000   1.0000   1.0000   1.0000
     1.0000   1.0000   1.0000   1.0000   1.0000   1.0000   1.0000   1.0000
     1.0000   1.0000   1.0000   1.0000   1.0000   1.0000   1.0000   1.0000
     1.0000   1.0000   1.0000   1.0000   1.0000   1.0000   1.0000   1.0000
     1.0000   1.0000   1.0000   1.0000   1.0000   1.0000   1.0000   1.0000
     1.0000   1.0000   1.0000   1.0000   1.0000   1.0000   1.0000   1.0000
     1.0000   1.0000   1.0000   1.0000   1.0000   1.0000   1.0000   1.0000
     1.0000   1.0000   1.0000   1.0000   1.0000   1.0000   1.0000   1.0000
     1.0000   1.0000   1.0000   1.0000   1.0000   1.0000   1.0000   1.0000
     1.0000   1.0000   1.0000   1.0000   1.0000   1.0000   1.0000   1.0000
     1.0000   1.0000   1.0000   1.0000   1.0000   1.0000   1.0000   1.0000
     1.0000   1.0000   1.0000   1.0000   1.0000   1.0000   1.0000   1.0000
     1.0000   1.0000   1.0000   1.0000   1.0000   1.0000   1.0000   1.0000
     1.0000   1.0000   1.0000   1.0000   1.0000   1.0000   1.0000   1.0000
     1.0000   1.0000   1.0000   1.0000   1.0000   1.0000   1.0000   1.0000
     1.0000   1.0000   1.0000   1.0000   1.0000   1.0000   1.0000   1.0000
     1.0000   1.0000   1.0000   1.0000   1.0000   1.0000   1.0000   1.0000
     0.0000   0.0000   0.0000   0.0000   0.0000   0.0000   0.0000   0.0000
     0.0000   0.0000   0.0000   0.0000   0.0000   0.0000   0.0000   0.0000
     0.0000   0.0000   0.0000   0.0000   0.0000   0.0000   0.0000   0.0000
     0.0000   0.0000   0.0000   0.0000   0.0000   0.0000   0.0000   0.0000
     0.0000   0.0000   0.0000   0.0000   0.0000   0.0000   0.0000   0.0000
     0.0000   0.0000   0.0000   0.0000   0.0000   0.0000   0.0000   0.0000
     0.0000   0.0000   0.0000   0.0000   0.0000   0.0000   0.0000   0.0000
     0.0000   0.0000   0.0000   0.0000   0.0000   0.0000   0.0000   0.0000
     0.0000   0.0000   0.0000   0.0000   0.0000   0.0000   0.0000   0.0000
     0.0000   0.0000   0.0000   0.0000   0.0000   0.0000   0.0000   0.0000
     0.0000   0.0000   0.0000   0.0000   0.0000   0.0000   0.0000   0.0000
     0.0000   0.0000   0.0000   0.0000   0.0000   0.0000   0.0000   0.0000
     0.0000   0.0000   0.0000   0.0000   0.0000   0.0000   0.0000   0.0000
     0.0000   0.0000   0.0000   0.0000   0.0000   0.0000   0.0000   0.0000
     0.0000   0.0000   0.0000   0.0000   0.0000   0.0000   0.0000   0.0000
     0.0000   0.0000   0.0000   0.0000   0.0000   0.0000   0.0000   0.0000
     0.0000   0.0000   0.0000   0.0000   0.0000   0.0000   0.0000   0.0000
     0.0000   0.0000   0.0000   0.0000   0.0000   0.0000   0.0000   0.0000
     0.0000   0.0000   0.0000   0.0000

          k = 0.3500 0.0000 0.0000 ( 73884 PWs)   bands (ev):

   -18.1281 -18.1281 -18.0397 -18.0397 -17.9993 -17.9993 -17.9954 -17.9954
   -17.9651 -17.9651 -17.9608 -17.9608 -17.8047 -17.8047 -17.7796 -17.7796
   -15.3216 -15.3216 -15.3009 -15.3008 -15.2537 -15.2537 -15.2487 -15.2487
   -15.2402 -15.2401 -15.2350 -15.2349 -15.2229 -15.2229 -15.2149 -15.2149
   -15.1849 -15.1848 -15.1674 -15.1674 -15.0948 -15.0948 -15.0876 -15.0876
   -15.0733 -15.0732 -15.0689 -15.0688 -15.0092 -15.0092 -15.0005 -15.0005
   -12.7901 -12.7885 -12.7783 -12.7782 -12.7705 -12.7704 -12.7297 -12.7290
   -12.7268 -12.7263 -12.7207 -12.7198 -12.7159 -12.7150 -12.6994 -12.6992
   -12.6843 -12.6839 -12.6579 -12.6575 -12.6569 -12.6567 -12.6468 -12.6455
   -12.6409 -12.6407 -12.6336 -12.6335 -12.5921 -12.5915 -12.5899 -12.5899
   -12.5685 -12.5683 -12.5617 -12.5609 -12.5419 -12.5407 -12.5054 -12.5051
   -12.4985 -12.4984 -12.4911 -12.4911 -12.4891 -12.4888 -12.4172 -12.4172
   -11.4074 -11.4073 -11.3378 -11.3373 -11.2807 -11.2799 -11.2278 -11.2266
   -11.1974 -11.1960 -11.1642 -11.1634 -11.0959 -11.0944 -11.0833 -11.0826
   -11.0414 -11.0394 -11.0185 -11.0156 -11.0053 -11.0043 -10.9882 -10.9878
   -10.9771 -10.9745 -10.9190 -10.9180 -10.8950 -10.8943 -10.8535 -10.8509
   -10.8243 -10.8239 -10.7917 -10.7903 -10.7548 -10.7538 -10.6859 -10.6854
   -10.6424 -10.6419 -10.6255 -10.6247 -10.5859 -10.5853 -10.5358 -10.5357
    -6.0981  -6.0980  -6.0136  -6.0133  -5.9767  -5.9764  -5.9727  -5.9724
    -5.9415  -5.9412  -5.9351  -5.9350  -5.7958  -5.7957  -5.7736  -5.7735
    -5.2536  -5.2526  -5.0505  -5.0493  -4.8031  -4.8020  -4.7778  -4.7774
    -4.6032  -4.6003  -4.5851  -4.5842  -4.5026  -4.5009  -4.4801  -4.4790
    -4.4211  -4.4198  -4.4043  -4.4028  -4.3882  -4.3873  -4.3781  -4.3774
    -4.3725  -4.3707  -4.3619  -4.3608  -4.3538  -4.3521  -4.3430  -4.3429
    -4.3229  -4.3216  -4.3151  -4.3133  -4.3064  -4.3016  -4.2165  -4.2140
    -4.1933  -4.1894  -4.1872  -4.1843  -4.1771  -4.1761  -4.0994  -4.0949
    -1.0160  -0.9927  -0.7840  -0.7647  -0.7389  -0.7237  -0.6884  -0.6849
    -0.6203  -0.6154  -0.5473  -0.5353  -0.4987  -0.4786  -0.4588  -0.4345
    -0.4004  -0.3753  -0.3290  -0.3067  -0.1609  -0.1364  -0.1045  -0.0878
     0.1861   0.2182   0.2342   0.2557   0.2797   0.2959   0.3133   0.3490
     0.3651   0.3829   0.3909   0.4169   0.4348   0.4484   0.4735   0.4841
     0.4850   0.5062   0.5108   0.5373   0.6141   0.6434   0.6639   0.6691
     0.6895   0.7062   0.7286   0.7348   0.7664   0.7749   0.7838   0.8031
     0.8169   0.8296   0.8481   0.8542   0.8721   0.8827   0.9013   0.9103
     0.9211   0.9278   0.9394   0.9615   0.9657   0.9750   0.9873   1.0027
     1.0066   1.0157   1.0246   1.0358   1.0508   1.0660   1.0750   1.0836
     1.0907   1.0958   1.1103   1.1184   1.1261   1.1389   1.1512   1.1610
     1.1664   1.1881   1.1981   1.2048   1.2126   1.2178   1.2335   1.2482
     1.2577   1.2748   1.2837   1.2893   1.2952   1.3140   1.3221   1.3314
     1.3496   1.3664   1.3767   1.3840   1.3938   1.4078   1.4222   1.4369
     1.4447   1.4602   1.4706   1.4824   1.4988   1.5123   1.5357   1.5489
     1.5684   1.5767   1.5885   1.5972   1.6014   1.6229   1.6348   1.6499
     1.6844   1.6907   1.7574   1.7728   1.8240   1.8491   1.8841   1.8920
     2.0175   2.0399   2.0546   2.0679   2.2717   2.2949   2.4225   2.4337
     4.0422   4.1147   4.3105   4.3562   4.7064   4.7230   4.8024   4.8511
     5.1265   5.1597   5.1771   5.2016   5.3854   5.4224   5.5459   5.5672
     5.7321   5.7834   5.8709   5.9183   6.1022   6.1094   6.1765   6.1926
     6.4971   6.5424   6.7244   6.7554   6.8019   6.8889   6.9428   6.9934
     7.0229   7.0706   7.2271   7.2853   7.3628   7.4961   7.5808   7.6096
     7.6339   7.6873   7.7548   7.7925   7.8106   7.8446   7.8724   7.8755
     7.8968   7.9458   7.9695   7.9843   8.0111   8.0425   8.0578   8.0962
     8.1133   8.1452   8.1664   8.2063   8.2250   8.2459   8.2700   8.2924
     8.3171   8.3310   8.3526   8.3641   8.3684   8.3953   8.4110   8.4275
     8.4704   8.4764   8.4975   8.5091   8.5190   8.5281   8.5455   8.5560
     8.5786   8.5940   8.6198   8.6250   8.6417   8.6550   8.6713   8.7062
     8.7208   8.7381   8.7830   8.7984   8.8047   8.8290   8.8366   8.8507
     8.8602   8.8712   8.8806   8.9073   8.9164   8.9335   8.9642   8.9840
     8.9899   9.0034   9.0397   9.0483   9.0720   9.0873   9.1288   9.1352
     9.1454   9.1565   9.2137   9.2179   9.2518   9.2716   9.3127   9.3268
     9.3582   9.3687   9.3925   9.4117   9.4378   9.4487   9.4782   9.4867
     9.5021   9.5107   9.5312   9.5461   9.5625   9.5826   9.5942   9.6065
     9.6181   9.6455   9.6515   9.6741   9.6942   9.7001   9.7222   9.7397
     9.7491   9.7606   9.8970   9.9135

     occupation numbers 
     1.0000   1.0000   1.0000   1.0000   1.0000   1.0000   1.0000   1.0000
     1.0000   1.0000   1.0000   1.0000   1.0000   1.0000   1.0000   1.0000
     1.0000   1.0000   1.0000   1.0000   1.0000   1.0000   1.0000   1.0000
     1.0000   1.0000   1.0000   1.0000   1.0000   1.0000   1.0000   1.0000
     1.0000   1.0000   1.0000   1.0000   1.0000   1.0000   1.0000   1.0000
     1.0000   1.0000   1.0000   1.0000   1.0000   1.0000   1.0000   1.0000
     1.0000   1.0000   1.0000   1.0000   1.0000   1.0000   1.0000   1.0000
     1.0000   1.0000   1.0000   1.0000   1.0000   1.0000   1.0000   1.0000
     1.0000   1.0000   1.0000   1.0000   1.0000   1.0000   1.0000   1.0000
     1.0000   1.0000   1.0000   1.0000   1.0000   1.0000   1.0000   1.0000
     1.0000   1.0000   1.0000   1.0000   1.0000   1.0000   1.0000   1.0000
     1.0000   1.0000   1.0000   1.0000   1.0000   1.0000   1.0000   1.0000
     1.0000   1.0000   1.0000   1.0000   1.0000   1.0000   1.0000   1.0000
     1.0000   1.0000   1.0000   1.0000   1.0000   1.0000   1.0000   1.0000
     1.0000   1.0000   1.0000   1.0000   1.0000   1.0000   1.0000   1.0000
     1.0000   1.0000   1.0000   1.0000   1.0000   1.0000   1.0000   1.0000
     1.0000   1.0000   1.0000   1.0000   1.0000   1.0000   1.0000   1.0000
     1.0000   1.0000   1.0000   1.0000   1.0000   1.0000   1.0000   1.0000
     1.0000   1.0000   1.0000   1.0000   1.0000   1.0000   1.0000   1.0000
     1.0000   1.0000   1.0000   1.0000   1.0000   1.0000   1.0000   1.0000
     1.0000   1.0000   1.0000   1.0000   1.0000   1.0000   1.0000   1.0000
     1.0000   1.0000   1.0000   1.0000   1.0000   1.0000   1.0000   1.0000
     1.0000   1.0000   1.0000   1.0000   1.0000   1.0000   1.0000   1.0000
     1.0000   1.0000   1.0000   1.0000   1.0000   1.0000   1.0000   1.0000
     1.0000   1.0000   1.0000   1.0000   1.0000   1.0000   1.0000   1.0000
     1.0000   1.0000   1.0000   1.0000   1.0000   1.0000   1.0000   1.0000
     1.0000   1.0000   1.0000   1.0000   1.0000   1.0000   1.0000   1.0000
     1.0000   1.0000   1.0000   1.0000   1.0000   1.0000   1.0000   1.0000
     1.0000   1.0000   1.0000   1.0000   1.0000   1.0000   1.0000   1.0000
     1.0000   1.0000   1.0000   1.0000   1.0000   1.0000   1.0000   1.0000
     1.0000   1.0000   1.0000   1.0000   1.0000   1.0000   1.0000   1.0000
     1.0000   1.0000   1.0000   1.0000   1.0000   1.0000   1.0000   1.0000
     1.0000   1.0000   1.0000   1.0000   1.0000   1.0000   1.0000   1.0000
     1.0000   1.0000   1.0000   1.0000   1.0000   1.0000   1.0000   1.0000
     1.0000   1.0000   1.0000   1.0000   1.0000   1.0000   1.0000   1.0000
     1.0000   1.0000   1.0000   1.0000   1.0000   1.0000   1.0000   1.0000
     1.0000   1.0000   1.0000   1.0000   1.0000   1.0000   1.0000   1.0000
     1.0000   1.0000   1.0000   1.0000   1.0000   1.0000   1.0000   1.0000
     1.0000   1.0000   1.0000   1.0000   1.0000   1.0000   1.0000   1.0000
     1.0000   1.0000   1.0000   1.0000   1.0000   1.0000   1.0000   1.0000
     1.0000   1.0000   1.0000   1.0000   1.0000   1.0000   1.0000   1.0000
     1.0000   1.0000   1.0000   1.0000   1.0000   1.0000   1.0000   1.0000
     1.0000   1.0000   1.0000   1.0000   1.0000   1.0000   1.0000   1.0000
     1.0000   1.0000   1.0000   1.0000   1.0000   1.0000   1.0000   1.0000
     0.0000   0.0000   0.0000   0.0000   0.0000   0.0000   0.0000   0.0000
     0.0000   0.0000   0.0000   0.0000   0.0000   0.0000   0.0000   0.0000
     0.0000   0.0000   0.0000   0.0000   0.0000   0.0000   0.0000   0.0000
     0.0000   0.0000   0.0000   0.0000   0.0000   0.0000   0.0000   0.0000
     0.0000   0.0000   0.0000   0.0000   0.0000   0.0000   0.0000   0.0000
     0.0000   0.0000   0.0000   0.0000   0.0000   0.0000   0.0000   0.0000
     0.0000   0.0000   0.0000   0.0000   0.0000   0.0000   0.0000   0.0000
     0.0000   0.0000   0.0000   0.0000   0.0000   0.0000   0.0000   0.0000
     0.0000   0.0000   0.0000   0.0000   0.0000   0.0000   0.0000   0.0000
     0.0000   0.0000   0.0000   0.0000   0.0000   0.0000   0.0000   0.0000
     0.0000   0.0000   0.0000   0.0000   0.0000   0.0000   0.0000   0.0000
     0.0000   0.0000   0.0000   0.0000   0.0000   0.0000   0.0000   0.0000
     0.0000   0.0000   0.0000   0.0000   0.0000   0.0000   0.0000   0.0000
     0.0000   0.0000   0.0000   0.0000   0.0000   0.0000   0.0000   0.0000
     0.0000   0.0000   0.0000   0.0000   0.0000   0.0000   0.0000   0.0000
     0.0000   0.0000   0.0000   0.0000   0.0000   0.0000   0.0000   0.0000
     0.0000   0.0000   0.0000   0.0000   0.0000   0.0000   0.0000   0.0000
     0.0000   0.0000   0.0000   0.0000   0.0000   0.0000   0.0000   0.0000
     0.0000   0.0000   0.0000   0.0000

          k = 0.3250 0.0000 0.0000 ( 73908 PWs)   bands (ev):

   -18.1281 -18.1281 -18.0397 -18.0397 -17.9993 -17.9993 -17.9954 -17.9954
   -17.9651 -17.9651 -17.9608 -17.9608 -17.8047 -17.8047 -17.7796 -17.7796
   -15.3216 -15.3216 -15.3009 -15.3009 -15.2537 -15.2537 -15.2487 -15.2487
   -15.2402 -15.2401 -15.2350 -15.2349 -15.2229 -15.2229 -15.2149 -15.2149
   -15.1849 -15.1848 -15.1674 -15.1674 -15.0948 -15.0948 -15.0876 -15.0876
   -15.0733 -15.0732 -15.0689 -15.0688 -15.0092 -15.0092 -15.0005 -15.0005
   -12.7907 -12.7890 -12.7781 -12.7780 -12.7705 -12.7704 -12.7299 -12.7291
   -12.7269 -12.7263 -12.7205 -12.7196 -12.7158 -12.7147 -12.6993 -12.6992
   -12.6844 -12.6839 -12.6578 -12.6575 -12.6569 -12.6566 -12.6467 -12.6453
   -12.6409 -12.6407 -12.6336 -12.6335 -12.5923 -12.5917 -12.5899 -12.5899
   -12.5686 -12.5684 -12.5620 -12.5612 -12.5414 -12.5401 -12.5054 -12.5050
   -12.4985 -12.4984 -12.4911 -12.4911 -12.4890 -12.4887 -12.4172 -12.4172
   -11.4083 -11.4081 -11.3370 -11.3365 -11.2795 -11.2786 -11.2289 -11.2276
   -11.1970 -11.1954 -11.1631 -11.1623 -11.0953 -11.0936 -11.0837 -11.0828
   -11.0426 -11.0403 -11.0195 -11.0161 -11.0062 -11.0054 -10.9881 -10.9877
   -10.9771 -10.9745 -10.9186 -10.9175 -10.8950 -10.8942 -10.8550 -10.8521
   -10.8245 -10.8241 -10.7912 -10.7897 -10.7550 -10.7539 -10.6859 -10.6853
   -10.6419 -10.6414 -10.6263 -10.6255 -10.5846 -10.5838 -10.5358 -10.5357
    -6.0981  -6.0980  -6.0137  -6.0133  -5.9768  -5.9766  -5.9726  -5.9723
    -5.9415  -5.9412  -5.9351  -5.9350  -5.7958  -5.7957  -5.7736  -5.7735
    -5.2655  -5.2645  -5.0369  -5.0357  -4.8162  -4.8151  -4.7896  -4.7891
    -4.5876  -4.5844  -4.5717  -4.5708  -4.5027  -4.5006  -4.4799  -4.4787
    -4.4214  -4.4200  -4.4052  -4.4032  -4.3886  -4.3876  -4.3781  -4.3774
    -4.3732  -4.3713  -4.3621  -4.3609  -4.3542  -4.3522  -4.3429  -4.3428
    -4.3256  -4.3234  -4.3162  -4.3145  -4.3128  -4.3087  -4.2162  -4.2141
    -4.1925  -4.1893  -4.1872  -4.1845  -4.1769  -4.1759  -4.0827  -4.0787
    -1.0180  -0.9913  -0.7884  -0.7672  -0.7395  -0.7231  -0.6906  -0.6868
    -0.6228  -0.6167  -0.5501  -0.5365  -0.5064  -0.4867  -0.4619  -0.4380
    -0.4319  -0.4082  -0.3631  -0.3391  -0.1962  -0.1687  -0.1372  -0.1209
     0.2008   0.2398   0.2484   0.2747   0.2845   0.3083   0.3254   0.3585
     0.3845   0.3955   0.4102   0.4301   0.4421   0.4566   0.4808   0.4896
     0.4945   0.5138   0.5186   0.5471   0.6212   0.6536   0.6666   0.6754
     0.6928   0.7078   0.7333   0.7398   0.7692   0.7790   0.7869   0.8047
     0.8184   0.8326   0.8510   0.8556   0.8728   0.8843   0.9026   0.9122
     0.9222   0.9295   0.9404   0.9624   0.9656   0.9760   0.9855   1.0030
     1.0070   1.0159   1.0238   1.0363   1.0503   1.0662   1.0769   1.0849
     1.0905   1.0957   1.1089   1.1173   1.1260   1.1404   1.1502   1.1604
     1.1666   1.1887   1.1981   1.2053   1.2115   1.2169   1.2349   1.2467
     1.2572   1.2739   1.2824   1.2887   1.2940   1.3135   1.3224   1.3312
     1.3487   1.3662   1.3773   1.3825   1.3947   1.4100   1.4220   1.4373
     1.4444   1.4620   1.4718   1.4837   1.5011   1.5151   1.5348   1.5487
     1.5677   1.5780   1.5891   1.5991   1.6052   1.6244   1.6368   1.6522
     1.6863   1.6922   1.7575   1.7742   1.8213   1.8471   1.8877   1.8954
     2.0309   2.0529   2.0681   2.0824   2.2656   2.2904   2.4411   2.4519
     4.0154   4.0879   4.3254   4.3684   4.6822   4.7017   4.7786   4.8306
     5.1338   5.1688   5.1820   5.2069   5.3712   5.4138   5.5453   5.5693
     5.6814   5.7359   5.8134   5.8552   6.0490   6.0603   6.1222   6.1409
     6.5204   6.5689   6.7093   6.7435   6.8648   6.9348   6.9869   7.0420
     7.0736   7.1157   7.2532   7.3135   7.3706   7.5112   7.5945   7.6158
     7.6371   7.6894   7.7493   7.7884   7.8049   7.8418   7.8624   7.8683
     7.8939   7.9493   7.9691   7.9888   8.0066   8.0405   8.0585   8.0955
     8.1149   8.1516   8.1764   8.2075   8.2310   8.2511   8.2718   8.2987
     8.3215   8.3379   8.3556   8.3625   8.3673   8.3981   8.4199   8.4343
     8.4748   8.4831   8.5003   8.5120   8.5248   8.5329   8.5481   8.5612
     8.5840   8.5989   8.6177   8.6257   8.6402   8.6546   8.6731   8.7039
     8.7186   8.7374   8.7817   8.7941   8.8077   8.8307   8.8385   8.8498
     8.8621   8.8700   8.8839   8.9102   8.9210   8.9425   8.9694   8.9820
     8.9925   9.0037   9.0486   9.0619   9.0784   9.0978   9.1326   9.1402
     9.1535   9.1610   9.2170   9.2218   9.2550   9.2765   9.3188   9.3332
     9.3599   9.3715   9.3983   9.4166   9.4433   9.4536   9.4759   9.4890
     9.5024   9.5134   9.5337   9.5518   9.5683   9.5896   9.5962   9.6113
     9.6189   9.6476   9.6556   9.6779   9.6970   9.7035   9.7260   9.7422
     9.7547   9.7645   9.8928   9.9098

     occupation numbers 
     1.0000   1.0000   1.0000   1.0000   1.0000   1.0000   1.0000   1.0000
     1.0000   1.0000   1.0000   1.0000   1.0000   1.0000   1.0000   1.0000
     1.0000   1.0000   1.0000   1.0000   1.0000   1.0000   1.0000   1.0000
     1.0000   1.0000   1.0000   1.0000   1.0000   1.0000   1.0000   1.0000
     1.0000   1.0000   1.0000   1.0000   1.0000   1.0000   1.0000   1.0000
     1.0000   1.0000   1.0000   1.0000   1.0000   1.0000   1.0000   1.0000
     1.0000   1.0000   1.0000   1.0000   1.0000   1.0000   1.0000   1.0000
     1.0000   1.0000   1.0000   1.0000   1.0000   1.0000   1.0000   1.0000
     1.0000   1.0000   1.0000   1.0000   1.0000   1.0000   1.0000   1.0000
     1.0000   1.0000   1.0000   1.0000   1.0000   1.0000   1.0000   1.0000
     1.0000   1.0000   1.0000   1.0000   1.0000   1.0000   1.0000   1.0000
     1.0000   1.0000   1.0000   1.0000   1.0000   1.0000   1.0000   1.0000
     1.0000   1.0000   1.0000   1.0000   1.0000   1.0000   1.0000   1.0000
     1.0000   1.0000   1.0000   1.0000   1.0000   1.0000   1.0000   1.0000
     1.0000   1.0000   1.0000   1.0000   1.0000   1.0000   1.0000   1.0000
     1.0000   1.0000   1.0000   1.0000   1.0000   1.0000   1.0000   1.0000
     1.0000   1.0000   1.0000   1.0000   1.0000   1.0000   1.0000   1.0000
     1.0000   1.0000   1.0000   1.0000   1.0000   1.0000   1.0000   1.0000
     1.0000   1.0000   1.0000   1.0000   1.0000   1.0000   1.0000   1.0000
     1.0000   1.0000   1.0000   1.0000   1.0000   1.0000   1.0000   1.0000
     1.0000   1.0000   1.0000   1.0000   1.0000   1.0000   1.0000   1.0000
     1.0000   1.0000   1.0000   1.0000   1.0000   1.0000   1.0000   1.0000
     1.0000   1.0000   1.0000   1.0000   1.0000   1.0000   1.0000   1.0000
     1.0000   1.0000   1.0000   1.0000   1.0000   1.0000   1.0000   1.0000
     1.0000   1.0000   1.0000   1.0000   1.0000   1.0000   1.0000   1.0000
     1.0000   1.0000   1.0000   1.0000   1.0000   1.0000   1.0000   1.0000
     1.0000   1.0000   1.0000   1.0000   1.0000   1.0000   1.0000   1.0000
     1.0000   1.0000   1.0000   1.0000   1.0000   1.0000   1.0000   1.0000
     1.0000   1.0000   1.0000   1.0000   1.0000   1.0000   1.0000   1.0000
     1.0000   1.0000   1.0000   1.0000   1.0000   1.0000   1.0000   1.0000
     1.0000   1.0000   1.0000   1.0000   1.0000   1.0000   1.0000   1.0000
     1.0000   1.0000   1.0000   1.0000   1.0000   1.0000   1.0000   1.0000
     1.0000   1.0000   1.0000   1.0000   1.0000   1.0000   1.0000   1.0000
     1.0000   1.0000   1.0000   1.0000   1.0000   1.0000   1.0000   1.0000
     1.0000   1.0000   1.0000   1.0000   1.0000   1.0000   1.0000   1.0000
     1.0000   1.0000   1.0000   1.0000   1.0000   1.0000   1.0000   1.0000
     1.0000   1.0000   1.0000   1.0000   1.0000   1.0000   1.0000   1.0000
     1.0000   1.0000   1.0000   1.0000   1.0000   1.0000   1.0000   1.0000
     1.0000   1.0000   1.0000   1.0000   1.0000   1.0000   1.0000   1.0000
     1.0000   1.0000   1.0000   1.0000   1.0000   1.0000   1.0000   1.0000
     1.0000   1.0000   1.0000   1.0000   1.0000   1.0000   1.0000   1.0000
     1.0000   1.0000   1.0000   1.0000   1.0000   1.0000   1.0000   1.0000
     1.0000   1.0000   1.0000   1.0000   1.0000   1.0000   1.0000   1.0000
     1.0000   1.0000   1.0000   1.0000   1.0000   1.0000   1.0000   1.0000
     0.0000   0.0000   0.0000   0.0000   0.0000   0.0000   0.0000   0.0000
     0.0000   0.0000   0.0000   0.0000   0.0000   0.0000   0.0000   0.0000
     0.0000   0.0000   0.0000   0.0000   0.0000   0.0000   0.0000   0.0000
     0.0000   0.0000   0.0000   0.0000   0.0000   0.0000   0.0000   0.0000
     0.0000   0.0000   0.0000   0.0000   0.0000   0.0000   0.0000   0.0000
     0.0000   0.0000   0.0000   0.0000   0.0000   0.0000   0.0000   0.0000
     0.0000   0.0000   0.0000   0.0000   0.0000   0.0000   0.0000   0.0000
     0.0000   0.0000   0.0000   0.0000   0.0000   0.0000   0.0000   0.0000
     0.0000   0.0000   0.0000   0.0000   0.0000   0.0000   0.0000   0.0000
     0.0000   0.0000   0.0000   0.0000   0.0000   0.0000   0.0000   0.0000
     0.0000   0.0000   0.0000   0.0000   0.0000   0.0000   0.0000   0.0000
     0.0000   0.0000   0.0000   0.0000   0.0000   0.0000   0.0000   0.0000
     0.0000   0.0000   0.0000   0.0000   0.0000   0.0000   0.0000   0.0000
     0.0000   0.0000   0.0000   0.0000   0.0000   0.0000   0.0000   0.0000
     0.0000   0.0000   0.0000   0.0000   0.0000   0.0000   0.0000   0.0000
     0.0000   0.0000   0.0000   0.0000   0.0000   0.0000   0.0000   0.0000
     0.0000   0.0000   0.0000   0.0000   0.0000   0.0000   0.0000   0.0000
     0.0000   0.0000   0.0000   0.0000   0.0000   0.0000   0.0000   0.0000
     0.0000   0.0000   0.0000   0.0000

          k = 0.3000 0.0000 0.0000 ( 73864 PWs)   bands (ev):

   -18.1281 -18.1281 -18.0397 -18.0397 -17.9993 -17.9993 -17.9954 -17.9954
   -17.9651 -17.9651 -17.9608 -17.9608 -17.8047 -17.8047 -17.7796 -17.7796
   -15.3216 -15.3216 -15.3009 -15.3009 -15.2537 -15.2537 -15.2487 -15.2487
   -15.2402 -15.2401 -15.2350 -15.2349 -15.2229 -15.2229 -15.2149 -15.2149
   -15.1849 -15.1848 -15.1674 -15.1674 -15.0948 -15.0948 -15.0876 -15.0876
   -15.0733 -15.0732 -15.0688 -15.0687 -15.0092 -15.0092 -15.0005 -15.0005
   -12.7913 -12.7896 -12.7779 -12.7778 -12.7705 -12.7704 -12.7301 -12.7292
   -12.7270 -12.7264 -12.7203 -12.7194 -12.7157 -12.7144 -12.6993 -12.6991
   -12.6845 -12.6840 -12.6577 -12.6574 -12.6568 -12.6565 -12.6466 -12.6451
   -12.6409 -12.6407 -12.6336 -12.6335 -12.5925 -12.5918 -12.5899 -12.5899
   -12.5687 -12.5684 -12.5624 -12.5615 -12.5409 -12.5395 -12.5053 -12.5050
   -12.4985 -12.4983 -12.4911 -12.4911 -12.4889 -12.4886 -12.4172 -12.4172
   -11.4091 -11.4089 -11.3362 -11.3357 -11.2781 -11.2771 -11.2301 -11.2287
   -11.1965 -11.1947 -11.1621 -11.1612 -11.0947 -11.0929 -11.0840 -11.0830
   -11.0440 -11.0414 -11.0204 -11.0168 -11.0072 -11.0064 -10.9881 -10.9876
   -10.9771 -10.9744 -10.9182 -10.9169 -10.8950 -10.8942 -10.8566 -10.8536
   -10.8248 -10.8244 -10.7907 -10.7891 -10.7551 -10.7540 -10.6859 -10.6853
   -10.6415 -10.6409 -10.6271 -10.6262 -10.5831 -10.5824 -10.5357 -10.5357
    -6.0981  -6.0980  -6.0137  -6.0133  -5.9770  -5.9767  -5.9725  -5.9722
    -5.9415  -5.9411  -5.9351  -5.9350  -5.7958  -5.7957  -5.7736  -5.7735
    -5.2769  -5.2760  -5.0237  -5.0225  -4.8285  -4.8276  -4.8007  -4.8002
    -4.5726  -4.5691  -4.5587  -4.5577  -4.5028  -4.5002  -4.4796  -4.4783
    -4.4218  -4.4203  -4.4062  -4.4038  -4.3890  -4.3881  -4.3784  -4.3774
    -4.3740  -4.3721  -4.3626  -4.3612  -4.3547  -4.3523  -4.3429  -4.3427
    -4.3304  -4.3283  -4.3185  -4.3163  -4.3134  -4.3115  -4.2161  -4.2142
    -4.1919  -4.1893  -4.1871  -4.1847  -4.1767  -4.1757  -4.0663  -4.0626
    -1.0198  -0.9901  -0.7932  -0.7702  -0.7406  -0.7230  -0.6929  -0.6889
    -0.6265  -0.6190  -0.5539  -0.5395  -0.5183  -0.4993  -0.4714  -0.4619
    -0.4361  -0.4316  -0.3929  -0.3684  -0.2298  -0.1989  -0.1689  -0.1529
     0.2101   0.2492   0.2623   0.2862   0.2918   0.3182   0.3378   0.3688
     0.3974   0.4103   0.4284   0.4437   0.4527   0.4658   0.4893   0.4948
     0.5050   0.5221   0.5288   0.5580   0.6282   0.6576   0.6728   0.6846
     0.6977   0.7109   0.7356   0.7485   0.7722   0.7824   0.7923   0.8062
     0.8210   0.8361   0.8536   0.8569   0.8730   0.8872   0.9034   0.9137
     0.9238   0.9319   0.9420   0.9613   0.9668   0.9774   0.9844   1.0028
     1.0077   1.0148   1.0238   1.0380   1.0495   1.0665   1.0783   1.0859
     1.0907   1.0958   1.1077   1.1163   1.1258   1.1412   1.1493   1.1597
     1.1673   1.1890   1.1979   1.2049   1.2108   1.2169   1.2357   1.2451
     1.2560   1.2726   1.2811   1.2885   1.2933   1.3128   1.3219   1.3323
     1.3483   1.3658   1.3774   1.3817   1.3957   1.4115   1.4219   1.4376
     1.4439   1.4636   1.4727   1.4855   1.5036   1.5178   1.5342   1.5485
     1.5676   1.5796   1.5898   1.6012   1.6096   1.6262   1.6388   1.6547
     1.6884   1.6937   1.7580   1.7757   1.8190   1.8450   1.8908   1.8990
     2.0460   2.0673   2.0830   2.0984   2.2601   2.2865   2.4609   2.4713
     3.9883   4.0603   4.3386   4.3792   4.6565   4.6786   4.7535   4.8077
     5.1408   5.1764   5.1876   5.2117   5.3567   5.4059   5.5337   5.5575
     5.6465   5.6981   5.7596   5.7959   5.9965   6.0125   6.0697   6.0900
     6.5380   6.5915   6.6905   6.7342   6.9252   6.9817   7.0330   7.0880
     7.1226   7.1567   7.2776   7.3295   7.3908   7.5234   7.6112   7.6207
     7.6450   7.6916   7.7446   7.7843   7.7993   7.8378   7.8532   7.8619
     7.8923   7.9491   7.9673   7.9930   8.0053   8.0402   8.0617   8.0957
     8.1170   8.1579   8.1842   8.2101   8.2375   8.2559   8.2738   8.3056
     8.3250   8.3444   8.3579   8.3609   8.3692   8.4018   8.4296   8.4420
     8.4777   8.4897   8.5026   8.5144   8.5265   8.5372   8.5529   8.5668
     8.5887   8.6033   8.6157   8.6274   8.6410   8.6542   8.6753   8.7008
     8.7168   8.7375   8.7804   8.7894   8.8113   8.8314   8.8405   8.8503
     8.8629   8.8712   8.8893   8.9129   8.9257   8.9514   8.9741   8.9809
     8.9964   9.0061   9.0571   9.0742   9.0850   9.1087   9.1364   9.1467
     9.1624   9.1675   9.2200   9.2270   9.2600   9.2824   9.3247   9.3396
     9.3605   9.3733   9.4046   9.4224   9.4486   9.4602   9.4753   9.4925
     9.5037   9.5169   9.5356   9.5574   9.5752   9.5950   9.5998   9.6156
     9.6220   9.6495   9.6609   9.6817   9.6997   9.7064   9.7296   9.7440
     9.7607   9.7684   9.8889   9.9058

     occupation numbers 
     1.0000   1.0000   1.0000   1.0000   1.0000   1.0000   1.0000   1.0000
     1.0000   1.0000   1.0000   1.0000   1.0000   1.0000   1.0000   1.0000
     1.0000   1.0000   1.0000   1.0000   1.0000   1.0000   1.0000   1.0000
     1.0000   1.0000   1.0000   1.0000   1.0000   1.0000   1.0000   1.0000
     1.0000   1.0000   1.0000   1.0000   1.0000   1.0000   1.0000   1.0000
     1.0000   1.0000   1.0000   1.0000   1.0000   1.0000   1.0000   1.0000
     1.0000   1.0000   1.0000   1.0000   1.0000   1.0000   1.0000   1.0000
     1.0000   1.0000   1.0000   1.0000   1.0000   1.0000   1.0000   1.0000
     1.0000   1.0000   1.0000   1.0000   1.0000   1.0000   1.0000   1.0000
     1.0000   1.0000   1.0000   1.0000   1.0000   1.0000   1.0000   1.0000
     1.0000   1.0000   1.0000   1.0000   1.0000   1.0000   1.0000   1.0000
     1.0000   1.0000   1.0000   1.0000   1.0000   1.0000   1.0000   1.0000
     1.0000   1.0000   1.0000   1.0000   1.0000   1.0000   1.0000   1.0000
     1.0000   1.0000   1.0000   1.0000   1.0000   1.0000   1.0000   1.0000
     1.0000   1.0000   1.0000   1.0000   1.0000   1.0000   1.0000   1.0000
     1.0000   1.0000   1.0000   1.0000   1.0000   1.0000   1.0000   1.0000
     1.0000   1.0000   1.0000   1.0000   1.0000   1.0000   1.0000   1.0000
     1.0000   1.0000   1.0000   1.0000   1.0000   1.0000   1.0000   1.0000
     1.0000   1.0000   1.0000   1.0000   1.0000   1.0000   1.0000   1.0000
     1.0000   1.0000   1.0000   1.0000   1.0000   1.0000   1.0000   1.0000
     1.0000   1.0000   1.0000   1.0000   1.0000   1.0000   1.0000   1.0000
     1.0000   1.0000   1.0000   1.0000   1.0000   1.0000   1.0000   1.0000
     1.0000   1.0000   1.0000   1.0000   1.0000   1.0000   1.0000   1.0000
     1.0000   1.0000   1.0000   1.0000   1.0000   1.0000   1.0000   1.0000
     1.0000   1.0000   1.0000   1.0000   1.0000   1.0000   1.0000   1.0000
     1.0000   1.0000   1.0000   1.0000   1.0000   1.0000   1.0000   1.0000
     1.0000   1.0000   1.0000   1.0000   1.0000   1.0000   1.0000   1.0000
     1.0000   1.0000   1.0000   1.0000   1.0000   1.0000   1.0000   1.0000
     1.0000   1.0000   1.0000   1.0000   1.0000   1.0000   1.0000   1.0000
     1.0000   1.0000   1.0000   1.0000   1.0000   1.0000   1.0000   1.0000
     1.0000   1.0000   1.0000   1.0000   1.0000   1.0000   1.0000   1.0000
     1.0000   1.0000   1.0000   1.0000   1.0000   1.0000   1.0000   1.0000
     1.0000   1.0000   1.0000   1.0000   1.0000   1.0000   1.0000   1.0000
     1.0000   1.0000   1.0000   1.0000   1.0000   1.0000   1.0000   1.0000
     1.0000   1.0000   1.0000   1.0000   1.0000   1.0000   1.0000   1.0000
     1.0000   1.0000   1.0000   1.0000   1.0000   1.0000   1.0000   1.0000
     1.0000   1.0000   1.0000   1.0000   1.0000   1.0000   1.0000   1.0000
     1.0000   1.0000   1.0000   1.0000   1.0000   1.0000   1.0000   1.0000
     1.0000   1.0000   1.0000   1.0000   1.0000   1.0000   1.0000   1.0000
     1.0000   1.0000   1.0000   1.0000   1.0000   1.0000   1.0000   1.0000
     1.0000   1.0000   1.0000   1.0000   1.0000   1.0000   1.0000   1.0000
     1.0000   1.0000   1.0000   1.0000   1.0000   1.0000   1.0000   1.0000
     1.0000   1.0000   1.0000   1.0000   1.0000   1.0000   1.0000   1.0000
     1.0000   1.0000   1.0000   1.0000   1.0000   1.0000   1.0000   1.0000
     0.0000   0.0000   0.0000   0.0000   0.0000   0.0000   0.0000   0.0000
     0.0000   0.0000   0.0000   0.0000   0.0000   0.0000   0.0000   0.0000
     0.0000   0.0000   0.0000   0.0000   0.0000   0.0000   0.0000   0.0000
     0.0000   0.0000   0.0000   0.0000   0.0000   0.0000   0.0000   0.0000
     0.0000   0.0000   0.0000   0.0000   0.0000   0.0000   0.0000   0.0000
     0.0000   0.0000   0.0000   0.0000   0.0000   0.0000   0.0000   0.0000
     0.0000   0.0000   0.0000   0.0000   0.0000   0.0000   0.0000   0.0000
     0.0000   0.0000   0.0000   0.0000   0.0000   0.0000   0.0000   0.0000
     0.0000   0.0000   0.0000   0.0000   0.0000   0.0000   0.0000   0.0000
     0.0000   0.0000   0.0000   0.0000   0.0000   0.0000   0.0000   0.0000
     0.0000   0.0000   0.0000   0.0000   0.0000   0.0000   0.0000   0.0000
     0.0000   0.0000   0.0000   0.0000   0.0000   0.0000   0.0000   0.0000
     0.0000   0.0000   0.0000   0.0000   0.0000   0.0000   0.0000   0.0000
     0.0000   0.0000   0.0000   0.0000   0.0000   0.0000   0.0000   0.0000
     0.0000   0.0000   0.0000   0.0000   0.0000   0.0000   0.0000   0.0000
     0.0000   0.0000   0.0000   0.0000   0.0000   0.0000   0.0000   0.0000
     0.0000   0.0000   0.0000   0.0000   0.0000   0.0000   0.0000   0.0000
     0.0000   0.0000   0.0000   0.0000   0.0000   0.0000   0.0000   0.0000
     0.0000   0.0000   0.0000   0.0000

          k = 0.2750 0.0000 0.0000 ( 73876 PWs)   bands (ev):

   -18.1281 -18.1281 -18.0397 -18.0397 -17.9993 -17.9993 -17.9954 -17.9954
   -17.9651 -17.9651 -17.9608 -17.9608 -17.8047 -17.8047 -17.7796 -17.7796
   -15.3216 -15.3216 -15.3009 -15.3009 -15.2537 -15.2537 -15.2487 -15.2487
   -15.2402 -15.2401 -15.2350 -15.2349 -15.2229 -15.2229 -15.2149 -15.2149
   -15.1849 -15.1848 -15.1674 -15.1674 -15.0949 -15.0948 -15.0876 -15.0876
   -15.0734 -15.0733 -15.0688 -15.0687 -15.0092 -15.0092 -15.0005 -15.0005
   -12.7919 -12.7902 -12.7777 -12.7776 -12.7705 -12.7704 -12.7303 -12.7293
   -12.7270 -12.7265 -12.7201 -12.7193 -12.7156 -12.7142 -12.6993 -12.6991
   -12.6846 -12.6840 -12.6576 -12.6574 -12.6568 -12.6564 -12.6465 -12.6449
   -12.6408 -12.6407 -12.6336 -12.6335 -12.5928 -12.5920 -12.5899 -12.5899
   -12.5688 -12.5685 -12.5626 -12.5618 -12.5403 -12.5390 -12.5053 -12.5050
   -12.4985 -12.4983 -12.4911 -12.4911 -12.4887 -12.4884 -12.4172 -12.4172
   -11.4100 -11.4098 -11.3354 -11.3349 -11.2766 -11.2754 -11.2314 -11.2298
   -11.1959 -11.1940 -11.1610 -11.1601 -11.0942 -11.0923 -11.0842 -11.0830
   -11.0456 -11.0427 -11.0213 -11.0175 -11.0081 -11.0072 -10.9882 -10.9876
   -10.9770 -10.9745 -10.9177 -10.9164 -10.8950 -10.8941 -10.8584 -10.8552
   -10.8250 -10.8246 -10.7901 -10.7885 -10.7553 -10.7541 -10.6859 -10.6853
   -10.6411 -10.6404 -10.6277 -10.6268 -10.5817 -10.5809 -10.5357 -10.5357
    -6.0982  -6.0980  -6.0137  -6.0133  -5.9771  -5.9768  -5.9723  -5.9720
    -5.9415  -5.9411  -5.9351  -5.9350  -5.7958  -5.7957  -5.7736  -5.7735
    -5.2877  -5.2868  -5.0110  -5.0099  -4.8400  -4.8392  -4.8111  -4.8107
    -4.5585  -4.5547  -4.5466  -4.5450  -4.5029  -4.4997  -4.4792  -4.4778
    -4.4224  -4.4207  -4.4074  -4.4045  -4.3896  -4.3887  -4.3790  -4.3774
    -4.3749  -4.3731  -4.3631  -4.3616  -4.3551  -4.3525  -4.3429  -4.3426
    -4.3356  -4.3338  -4.3192  -4.3172  -4.3137  -4.3121  -4.2159  -4.2143
    -4.1915  -4.1893  -4.1870  -4.1849  -4.1766  -4.1755  -4.0503  -4.0470
    -1.0216  -0.9891  -0.7984  -0.7738  -0.7421  -0.7234  -0.6954  -0.6909
    -0.6323  -0.6226  -0.5595  -0.5483  -0.5327  -0.5176  -0.4862  -0.4725
    -0.4549  -0.4374  -0.4142  -0.3920  -0.2611  -0.2265  -0.1989  -0.1830
     0.2160   0.2504   0.2761   0.2878   0.3012   0.3225   0.3540   0.3798
     0.4065   0.4249   0.4423   0.4527   0.4664   0.4795   0.4976   0.5013
     0.5144   0.5313   0.5426   0.5699   0.6347   0.6584   0.6794   0.6928
     0.7049   0.7167   0.7376   0.7586   0.7755   0.7855   0.7989   0.8086
     0.8243   0.8399   0.8552   0.8589   0.8726   0.8912   0.9037   0.9148
     0.9257   0.9349   0.9441   0.9598   0.9677   0.9790   0.9848   1.0018
     1.0088   1.0129   1.0249   1.0407   1.0484   1.0671   1.0788   1.0865
     1.0915   1.0962   1.1067   1.1155   1.1256   1.1408   1.1486   1.1589
     1.1684   1.1890   1.1971   1.2045   1.2106   1.2174   1.2354   1.2438
     1.2541   1.2710   1.2801   1.2889   1.2929   1.3120   1.3207   1.3342
     1.3483   1.3646   1.3773   1.3818   1.3967   1.4123   1.4219   1.4379
     1.4436   1.4649   1.4734   1.4875   1.5063   1.5200   1.5341   1.5485
     1.5680   1.5811   1.5911   1.6039   1.6142   1.6282   1.6408   1.6577
     1.6905   1.6954   1.7592   1.7774   1.8171   1.8430   1.8937   1.9025
     2.0623   2.0828   2.0993   2.1154   2.2552   2.2832   2.4817   2.4918
     3.9614   4.0320   4.3498   4.3883   4.6296   4.6544   4.7276   4.7830
     5.1473   5.1818   5.1936   5.2159   5.3413   5.3987   5.5075   5.5298
     5.6287   5.6721   5.7137   5.7428   5.9466   5.9669   6.0198   6.0411
     6.5475   6.6024   6.6815   6.7303   6.9796   7.0248   7.0800   7.1297
     7.1690   7.1926   7.3004   7.3391   7.4176   7.5328   7.6202   7.6352
     7.6549   7.6941   7.7409   7.7804   7.7941   7.8328   7.8471   7.8574
     7.8914   7.9460   7.9630   7.9934   8.0097   8.0429   8.0652   8.0976
     8.1206   8.1638   8.1887   8.2146   8.2437   8.2612   8.2764   8.3113
     8.3285   8.3500   8.3580   8.3620   8.3731   8.4066   8.4380   8.4503
     8.4808   8.4951   8.5046   8.5168   8.5259   8.5414   8.5571   8.5717
     8.5928   8.6070   8.6146   8.6280   8.6453   8.6545   8.6771   8.6979
     8.7166   8.7376   8.7785   8.7861   8.8149   8.8315   8.8429   8.8521
     8.8626   8.8742   8.8958   8.9157   8.9304   8.9569   8.9773   8.9839
     9.0021   9.0113   9.0655   9.0802   9.0959   9.1193   9.1409   9.1537
     9.1706   9.1769   9.2233   9.2336   9.2666   9.2888   9.3304   9.3457
     9.3607   9.3746   9.4108   9.4290   9.4532   9.4677   9.4778   9.4968
     9.5069   9.5209   9.5372   9.5630   9.5814   9.5994   9.6049   9.6191
     9.6274   9.6522   9.6663   9.6851   9.7022   9.7090   9.7329   9.7454
     9.7668   9.7726   9.8852   9.9018

     occupation numbers 
     1.0000   1.0000   1.0000   1.0000   1.0000   1.0000   1.0000   1.0000
     1.0000   1.0000   1.0000   1.0000   1.0000   1.0000   1.0000   1.0000
     1.0000   1.0000   1.0000   1.0000   1.0000   1.0000   1.0000   1.0000
     1.0000   1.0000   1.0000   1.0000   1.0000   1.0000   1.0000   1.0000
     1.0000   1.0000   1.0000   1.0000   1.0000   1.0000   1.0000   1.0000
     1.0000   1.0000   1.0000   1.0000   1.0000   1.0000   1.0000   1.0000
     1.0000   1.0000   1.0000   1.0000   1.0000   1.0000   1.0000   1.0000
     1.0000   1.0000   1.0000   1.0000   1.0000   1.0000   1.0000   1.0000
     1.0000   1.0000   1.0000   1.0000   1.0000   1.0000   1.0000   1.0000
     1.0000   1.0000   1.0000   1.0000   1.0000   1.0000   1.0000   1.0000
     1.0000   1.0000   1.0000   1.0000   1.0000   1.0000   1.0000   1.0000
     1.0000   1.0000   1.0000   1.0000   1.0000   1.0000   1.0000   1.0000
     1.0000   1.0000   1.0000   1.0000   1.0000   1.0000   1.0000   1.0000
     1.0000   1.0000   1.0000   1.0000   1.0000   1.0000   1.0000   1.0000
     1.0000   1.0000   1.0000   1.0000   1.0000   1.0000   1.0000   1.0000
     1.0000   1.0000   1.0000   1.0000   1.0000   1.0000   1.0000   1.0000
     1.0000   1.0000   1.0000   1.0000   1.0000   1.0000   1.0000   1.0000
     1.0000   1.0000   1.0000   1.0000   1.0000   1.0000   1.0000   1.0000
     1.0000   1.0000   1.0000   1.0000   1.0000   1.0000   1.0000   1.0000
     1.0000   1.0000   1.0000   1.0000   1.0000   1.0000   1.0000   1.0000
     1.0000   1.0000   1.0000   1.0000   1.0000   1.0000   1.0000   1.0000
     1.0000   1.0000   1.0000   1.0000   1.0000   1.0000   1.0000   1.0000
     1.0000   1.0000   1.0000   1.0000   1.0000   1.0000   1.0000   1.0000
     1.0000   1.0000   1.0000   1.0000   1.0000   1.0000   1.0000   1.0000
     1.0000   1.0000   1.0000   1.0000   1.0000   1.0000   1.0000   1.0000
     1.0000   1.0000   1.0000   1.0000   1.0000   1.0000   1.0000   1.0000
     1.0000   1.0000   1.0000   1.0000   1.0000   1.0000   1.0000   1.0000
     1.0000   1.0000   1.0000   1.0000   1.0000   1.0000   1.0000   1.0000
     1.0000   1.0000   1.0000   1.0000   1.0000   1.0000   1.0000   1.0000
     1.0000   1.0000   1.0000   1.0000   1.0000   1.0000   1.0000   1.0000
     1.0000   1.0000   1.0000   1.0000   1.0000   1.0000   1.0000   1.0000
     1.0000   1.0000   1.0000   1.0000   1.0000   1.0000   1.0000   1.0000
     1.0000   1.0000   1.0000   1.0000   1.0000   1.0000   1.0000   1.0000
     1.0000   1.0000   1.0000   1.0000   1.0000   1.0000   1.0000   1.0000
     1.0000   1.0000   1.0000   1.0000   1.0000   1.0000   1.0000   1.0000
     1.0000   1.0000   1.0000   1.0000   1.0000   1.0000   1.0000   1.0000
     1.0000   1.0000   1.0000   1.0000   1.0000   1.0000   1.0000   1.0000
     1.0000   1.0000   1.0000   1.0000   1.0000   1.0000   1.0000   1.0000
     1.0000   1.0000   1.0000   1.0000   1.0000   1.0000   1.0000   1.0000
     1.0000   1.0000   1.0000   1.0000   1.0000   1.0000   1.0000   1.0000
     1.0000   1.0000   1.0000   1.0000   1.0000   1.0000   1.0000   1.0000
     1.0000   1.0000   1.0000   1.0000   1.0000   1.0000   1.0000   1.0000
     1.0000   1.0000   1.0000   1.0000   1.0000   1.0000   1.0000   1.0000
     1.0000   1.0000   1.0000   1.0000   1.0000   1.0000   1.0000   1.0000
     0.0000   0.0000   0.0000   0.0000   0.0000   0.0000   0.0000   0.0000
     0.0000   0.0000   0.0000   0.0000   0.0000   0.0000   0.0000   0.0000
     0.0000   0.0000   0.0000   0.0000   0.0000   0.0000   0.0000   0.0000
     0.0000   0.0000   0.0000   0.0000   0.0000   0.0000   0.0000   0.0000
     0.0000   0.0000   0.0000   0.0000   0.0000   0.0000   0.0000   0.0000
     0.0000   0.0000   0.0000   0.0000   0.0000   0.0000   0.0000   0.0000
     0.0000   0.0000   0.0000   0.0000   0.0000   0.0000   0.0000   0.0000
     0.0000   0.0000   0.0000   0.0000   0.0000   0.0000   0.0000   0.0000
     0.0000   0.0000   0.0000   0.0000   0.0000   0.0000   0.0000   0.0000
     0.0000   0.0000   0.0000   0.0000   0.0000   0.0000   0.0000   0.0000
     0.0000   0.0000   0.0000   0.0000   0.0000   0.0000   0.0000   0.0000
     0.0000   0.0000   0.0000   0.0000   0.0000   0.0000   0.0000   0.0000
     0.0000   0.0000   0.0000   0.0000   0.0000   0.0000   0.0000   0.0000
     0.0000   0.0000   0.0000   0.0000   0.0000   0.0000   0.0000   0.0000
     0.0000   0.0000   0.0000   0.0000   0.0000   0.0000   0.0000   0.0000
     0.0000   0.0000   0.0000   0.0000   0.0000   0.0000   0.0000   0.0000
     0.0000   0.0000   0.0000   0.0000   0.0000   0.0000   0.0000   0.0000
     0.0000   0.0000   0.0000   0.0000   0.0000   0.0000   0.0000   0.0000
     0.0000   0.0000   0.0000   0.0000

          k = 0.2500 0.0000 0.0000 ( 73920 PWs)   bands (ev):

   -18.1281 -18.1281 -18.0397 -18.0397 -17.9993 -17.9993 -17.9954 -17.9954
   -17.9651 -17.9651 -17.9608 -17.9608 -17.8047 -17.8047 -17.7796 -17.7796
   -15.3216 -15.3216 -15.3009 -15.3009 -15.2537 -15.2537 -15.2487 -15.2487
   -15.2402 -15.2401 -15.2350 -15.2349 -15.2229 -15.2229 -15.2149 -15.2149
   -15.1848 -15.1847 -15.1674 -15.1674 -15.0949 -15.0948 -15.0876 -15.0876
   -15.0734 -15.0733 -15.0688 -15.0686 -15.0092 -15.0092 -15.0005 -15.0005
   -12.7925 -12.7908 -12.7776 -12.7775 -12.7706 -12.7704 -12.7305 -12.7294
   -12.7271 -12.7266 -12.7199 -12.7192 -12.7154 -12.7139 -12.6992 -12.6991
   -12.6846 -12.6841 -12.6576 -12.6574 -12.6567 -12.6563 -12.6463 -12.6447
   -12.6408 -12.6406 -12.6336 -12.6335 -12.5930 -12.5922 -12.5899 -12.5899
   -12.5688 -12.5686 -12.5629 -12.5622 -12.5398 -12.5385 -12.5053 -12.5049
   -12.4984 -12.4983 -12.4911 -12.4910 -12.4886 -12.4883 -12.4173 -12.4172
   -11.4109 -11.4107 -11.3346 -11.3341 -11.2750 -11.2736 -11.2327 -11.2310
   -11.1953 -11.1932 -11.1599 -11.1591 -11.0938 -11.0919 -11.0840 -11.0828
   -11.0473 -11.0443 -11.0221 -11.0184 -11.0089 -11.0079 -10.9882 -10.9876
   -10.9770 -10.9746 -10.9171 -10.9158 -10.8950 -10.8940 -10.8601 -10.8568
   -10.8252 -10.8248 -10.7895 -10.7880 -10.7554 -10.7543 -10.6858 -10.6852
   -10.6408 -10.6401 -10.6283 -10.6273 -10.5802 -10.5795 -10.5357 -10.5356
    -6.0982  -6.0980  -6.0137  -6.0133  -5.9772  -5.9770  -5.9722  -5.9719
    -5.9415  -5.9411  -5.9351  -5.9350  -5.7958  -5.7957  -5.7736  -5.7735
    -5.2978  -5.2970  -4.9991  -4.9981  -4.8507  -4.8499  -4.8208  -4.8203
    -4.5456  -4.5414  -4.5354  -4.5329  -4.5029  -4.4989  -4.4786  -4.4772
    -4.4232  -4.4214  -4.4088  -4.4055  -4.3905  -4.3894  -4.3800  -4.3774
    -4.3758  -4.3741  -4.3638  -4.3622  -4.3554  -4.3527  -4.3432  -4.3425
    -4.3396  -4.3378  -4.3195  -4.3176  -4.3139  -4.3122  -4.2158  -4.2143
    -4.1911  -4.1892  -4.1870  -4.1851  -4.1764  -4.1753  -4.0350  -4.0320
    -1.0231  -0.9883  -0.8040  -0.7779  -0.7444  -0.7246  -0.6982  -0.6928
    -0.6412  -0.6283  -0.5703  -0.5633  -0.5434  -0.5363  -0.4964  -0.4826
    -0.4718  -0.4473  -0.4259  -0.4072  -0.2895  -0.2512  -0.2267  -0.2108
     0.2197   0.2496   0.2835   0.2907   0.3057   0.3229   0.3713   0.3909
     0.4141   0.4373   0.4514   0.4611   0.4761   0.4948   0.5034   0.5126
     0.5220   0.5423   0.5594   0.5823   0.6406   0.6589   0.6849   0.6980
     0.7135   0.7253   0.7404   0.7688   0.7789   0.7888   0.8041   0.8139
     0.8281   0.8434   0.8565   0.8616   0.8720   0.8957   0.9036   0.9156
     0.9279   0.9383   0.9464   0.9587   0.9679   0.9801   0.9872   1.0001
     1.0086   1.0124   1.0269   1.0441   1.0472   1.0677   1.0782   1.0868
     1.0926   1.0972   1.1060   1.1150   1.1253   1.1394   1.1481   1.1582
     1.1697   1.1889   1.1953   1.2047   1.2107   1.2180   1.2335   1.2436
     1.2520   1.2689   1.2796   1.2898   1.2928   1.3112   1.3194   1.3362
     1.3489   1.3628   1.3775   1.3825   1.3974   1.4126   1.4216   1.4376
     1.4440   1.4659   1.4743   1.4892   1.5091   1.5215   1.5347   1.5487
     1.5688   1.5823   1.5930   1.6074   1.6184   1.6308   1.6428   1.6612
     1.6926   1.6973   1.7609   1.7793   1.8157   1.8411   1.8963   1.9058
     2.0795   2.0992   2.1165   2.1330   2.2509   2.2807   2.5033   2.5132
     3.9347   4.0033   4.3587   4.3955   4.6025   4.6295   4.7015   4.7570
     5.1528   5.1847   5.1998   5.2197   5.3241   5.3916   5.4720   5.4965
     5.6075   5.6498   5.6847   5.7033   5.9003   5.9244   5.9731   5.9951
     6.5483   6.5956   6.6892   6.7332   7.0251   7.0648   7.1247   7.1664
     7.2111   7.2258   7.3202   7.3508   7.4439   7.5399   7.6259   7.6520
     7.6662   7.6971   7.7387   7.7770   7.7897   7.8283   7.8442   7.8552
     7.8911   7.9415   7.9577   7.9907   8.0172   8.0480   8.0688   8.1015
     8.1259   8.1692   8.1913   8.2197   8.2487   8.2675   8.2801   8.3144
     8.3328   8.3522   8.3590   8.3656   8.3788   8.4118   8.4438   8.4584
     8.4846   8.4989   8.5067   8.5185   8.5264   8.5446   8.5605   8.5748
     8.5953   8.6089   8.6160   8.6283   8.6492   8.6568   8.6784   8.6967
     8.7186   8.7373   8.7754   8.7857   8.8179   8.8323   8.8457   8.8542
     8.8630   8.8770   8.9021   8.9194   8.9346   8.9581   8.9790   8.9919
     9.0086   9.0189   9.0744   9.0824   9.1086   9.1290   9.1472   9.1607
     9.1787   9.1881   9.2272   9.2413   9.2742   9.2952   9.3363   9.3513
     9.3610   9.3761   9.4169   9.4358   9.4576   9.4742   9.4843   9.5008
     9.5121   9.5252   9.5387   9.5685   9.5861   9.6044   9.6102   9.6225
     9.6331   9.6560   9.6710   9.6881   9.7044   9.7119   9.7358   9.7461
     9.7725   9.7775   9.8813   9.8984

     occupation numbers 
     1.0000   1.0000   1.0000   1.0000   1.0000   1.0000   1.0000   1.0000
     1.0000   1.0000   1.0000   1.0000   1.0000   1.0000   1.0000   1.0000
     1.0000   1.0000   1.0000   1.0000   1.0000   1.0000   1.0000   1.0000
     1.0000   1.0000   1.0000   1.0000   1.0000   1.0000   1.0000   1.0000
     1.0000   1.0000   1.0000   1.0000   1.0000   1.0000   1.0000   1.0000
     1.0000   1.0000   1.0000   1.0000   1.0000   1.0000   1.0000   1.0000
     1.0000   1.0000   1.0000   1.0000   1.0000   1.0000   1.0000   1.0000
     1.0000   1.0000   1.0000   1.0000   1.0000   1.0000   1.0000   1.0000
     1.0000   1.0000   1.0000   1.0000   1.0000   1.0000   1.0000   1.0000
     1.0000   1.0000   1.0000   1.0000   1.0000   1.0000   1.0000   1.0000
     1.0000   1.0000   1.0000   1.0000   1.0000   1.0000   1.0000   1.0000
     1.0000   1.0000   1.0000   1.0000   1.0000   1.0000   1.0000   1.0000
     1.0000   1.0000   1.0000   1.0000   1.0000   1.0000   1.0000   1.0000
     1.0000   1.0000   1.0000   1.0000   1.0000   1.0000   1.0000   1.0000
     1.0000   1.0000   1.0000   1.0000   1.0000   1.0000   1.0000   1.0000
     1.0000   1.0000   1.0000   1.0000   1.0000   1.0000   1.0000   1.0000
     1.0000   1.0000   1.0000   1.0000   1.0000   1.0000   1.0000   1.0000
     1.0000   1.0000   1.0000   1.0000   1.0000   1.0000   1.0000   1.0000
     1.0000   1.0000   1.0000   1.0000   1.0000   1.0000   1.0000   1.0000
     1.0000   1.0000   1.0000   1.0000   1.0000   1.0000   1.0000   1.0000
     1.0000   1.0000   1.0000   1.0000   1.0000   1.0000   1.0000   1.0000
     1.0000   1.0000   1.0000   1.0000   1.0000   1.0000   1.0000   1.0000
     1.0000   1.0000   1.0000   1.0000   1.0000   1.0000   1.0000   1.0000
     1.0000   1.0000   1.0000   1.0000   1.0000   1.0000   1.0000   1.0000
     1.0000   1.0000   1.0000   1.0000   1.0000   1.0000   1.0000   1.0000
     1.0000   1.0000   1.0000   1.0000   1.0000   1.0000   1.0000   1.0000
     1.0000   1.0000   1.0000   1.0000   1.0000   1.0000   1.0000   1.0000
     1.0000   1.0000   1.0000   1.0000   1.0000   1.0000   1.0000   1.0000
     1.0000   1.0000   1.0000   1.0000   1.0000   1.0000   1.0000   1.0000
     1.0000   1.0000   1.0000   1.0000   1.0000   1.0000   1.0000   1.0000
     1.0000   1.0000   1.0000   1.0000   1.0000   1.0000   1.0000   1.0000
     1.0000   1.0000   1.0000   1.0000   1.0000   1.0000   1.0000   1.0000
     1.0000   1.0000   1.0000   1.0000   1.0000   1.0000   1.0000   1.0000
     1.0000   1.0000   1.0000   1.0000   1.0000   1.0000   1.0000   1.0000
     1.0000   1.0000   1.0000   1.0000   1.0000   1.0000   1.0000   1.0000
     1.0000   1.0000   1.0000   1.0000   1.0000   1.0000   1.0000   1.0000
     1.0000   1.0000   1.0000   1.0000   1.0000   1.0000   1.0000   1.0000
     1.0000   1.0000   1.0000   1.0000   1.0000   1.0000   1.0000   1.0000
     1.0000   1.0000   1.0000   1.0000   1.0000   1.0000   1.0000   1.0000
     1.0000   1.0000   1.0000   1.0000   1.0000   1.0000   1.0000   1.0000
     1.0000   1.0000   1.0000   1.0000   1.0000   1.0000   1.0000   1.0000
     1.0000   1.0000   1.0000   1.0000   1.0000   1.0000   1.0000   1.0000
     1.0000   1.0000   1.0000   1.0000   1.0000   1.0000   1.0000   1.0000
     1.0000   1.0000   1.0000   1.0000   1.0000   1.0000   1.0000   1.0000
     0.0000   0.0000   0.0000   0.0000   0.0000   0.0000   0.0000   0.0000
     0.0000   0.0000   0.0000   0.0000   0.0000   0.0000   0.0000   0.0000
     0.0000   0.0000   0.0000   0.0000   0.0000   0.0000   0.0000   0.0000
     0.0000   0.0000   0.0000   0.0000   0.0000   0.0000   0.0000   0.0000
     0.0000   0.0000   0.0000   0.0000   0.0000   0.0000   0.0000   0.0000
     0.0000   0.0000   0.0000   0.0000   0.0000   0.0000   0.0000   0.0000
     0.0000   0.0000   0.0000   0.0000   0.0000   0.0000   0.0000   0.0000
     0.0000   0.0000   0.0000   0.0000   0.0000   0.0000   0.0000   0.0000
     0.0000   0.0000   0.0000   0.0000   0.0000   0.0000   0.0000   0.0000
     0.0000   0.0000   0.0000   0.0000   0.0000   0.0000   0.0000   0.0000
     0.0000   0.0000   0.0000   0.0000   0.0000   0.0000   0.0000   0.0000
     0.0000   0.0000   0.0000   0.0000   0.0000   0.0000   0.0000   0.0000
     0.0000   0.0000   0.0000   0.0000   0.0000   0.0000   0.0000   0.0000
     0.0000   0.0000   0.0000   0.0000   0.0000   0.0000   0.0000   0.0000
     0.0000   0.0000   0.0000   0.0000   0.0000   0.0000   0.0000   0.0000
     0.0000   0.0000   0.0000   0.0000   0.0000   0.0000   0.0000   0.0000
     0.0000   0.0000   0.0000   0.0000   0.0000   0.0000   0.0000   0.0000
     0.0000   0.0000   0.0000   0.0000   0.0000   0.0000   0.0000   0.0000
     0.0000   0.0000   0.0000   0.0000

          k = 0.2250 0.0000 0.0000 ( 73888 PWs)   bands (ev):

   -18.1281 -18.1281 -18.0397 -18.0397 -17.9993 -17.9993 -17.9954 -17.9954
   -17.9651 -17.9651 -17.9608 -17.9608 -17.8047 -17.8047 -17.7796 -17.7796
   -15.3216 -15.3216 -15.3009 -15.3009 -15.2537 -15.2537 -15.2487 -15.2487
   -15.2402 -15.2401 -15.2350 -15.2349 -15.2229 -15.2229 -15.2149 -15.2149
   -15.1848 -15.1847 -15.1674 -15.1674 -15.0949 -15.0948 -15.0876 -15.0876
   -15.0734 -15.0733 -15.0687 -15.0686 -15.0092 -15.0092 -15.0005 -15.0005
   -12.7930 -12.7914 -12.7774 -12.7773 -12.7706 -12.7704 -12.7307 -12.7296
   -12.7272 -12.7267 -12.7197 -12.7191 -12.7152 -12.7136 -12.6992 -12.6990
   -12.6847 -12.6842 -12.6575 -12.6573 -12.6567 -12.6563 -12.6461 -12.6445
   -12.6408 -12.6406 -12.6336 -12.6335 -12.5932 -12.5924 -12.5900 -12.5899
   -12.5689 -12.5686 -12.5631 -12.5624 -12.5392 -12.5380 -12.5052 -12.5049
   -12.4984 -12.4982 -12.4911 -12.4910 -12.4885 -12.4882 -12.4173 -12.4172
   -11.4117 -11.4115 -11.3338 -11.3334 -11.2732 -11.2718 -11.2340 -11.2323
   -11.1945 -11.1924 -11.1590 -11.1581 -11.0936 -11.0919 -11.0836 -11.0823
   -11.0492 -11.0460 -11.0229 -11.0193 -11.0096 -11.0086 -10.9883 -10.9877
   -10.9769 -10.9747 -10.9165 -10.9152 -10.8949 -10.8940 -10.8619 -10.8586
   -10.8254 -10.8251 -10.7889 -10.7874 -10.7555 -10.7544 -10.6857 -10.6852
   -10.6405 -10.6398 -10.6287 -10.6277 -10.5788 -10.5782 -10.5357 -10.5356
    -6.0982  -6.0980  -6.0137  -6.0133  -5.9774  -5.9771  -5.9721  -5.9718
    -5.9415  -5.9411  -5.9350  -5.9349  -5.7958  -5.7957  -5.7735  -5.7735
    -5.3072  -5.3065  -4.9881  -4.9871  -4.8603  -4.8596  -4.8296  -4.8291
    -4.5341  -4.5296  -4.5254  -4.5214  -4.5028  -4.4976  -4.4778  -4.4763
    -4.4245  -4.4224  -4.4102  -4.4065  -4.3916  -4.3902  -4.3811  -4.3777
    -4.3767  -4.3746  -4.3645  -4.3629  -4.3556  -4.3531  -4.3442  -4.3427
    -4.3416  -4.3400  -4.3196  -4.3178  -4.3139  -4.3122  -4.2156  -4.2144
    -4.1908  -4.1892  -4.1869  -4.1852  -4.1763  -4.1752  -4.0206  -4.0179
    -1.0244  -0.9880  -0.8101  -0.7825  -0.7475  -0.7268  -0.7015  -0.6944
    -0.6540  -0.6366  -0.5880  -0.5732  -0.5591  -0.5470  -0.5068  -0.4932
    -0.4834  -0.4580  -0.4342  -0.4149  -0.3144  -0.2729  -0.2517  -0.2358
     0.2221   0.2480   0.2852   0.2952   0.3075   0.3213   0.3863   0.4012
     0.4211   0.4464   0.4586   0.4698   0.4840   0.5035   0.5084   0.5212
     0.5360   0.5545   0.5769   0.5946   0.6456   0.6602   0.6892   0.7020
     0.7224   0.7337   0.7451   0.7765   0.7839   0.7926   0.8078   0.8215
     0.8325   0.8459   0.8589   0.8642   0.8717   0.9005   0.9034   0.9162
     0.9299   0.9417   0.9483   0.9585   0.9679   0.9813   0.9908   0.9979
     1.0065   1.0144   1.0296   1.0448   1.0488   1.0685   1.0768   1.0868
     1.0938   1.0986   1.1055   1.1150   1.1251   1.1373   1.1476   1.1575
     1.1710   1.1887   1.1928   1.2052   1.2111   1.2183   1.2305   1.2437
     1.2501   1.2668   1.2794   1.2909   1.2931   1.3104   1.3182   1.3378
     1.3500   1.3607   1.3780   1.3835   1.3978   1.4126   1.4210   1.4366
     1.4452   1.4667   1.4753   1.4903   1.5119   1.5227   1.5358   1.5491
     1.5696   1.5832   1.5954   1.6115   1.6217   1.6342   1.6447   1.6653
     1.6945   1.6994   1.7632   1.7814   1.8150   1.8393   1.8988   1.9086
     2.0969   2.1161   2.1345   2.1508   2.2472   2.2788   2.5254   2.5351
     3.9087   3.9744   4.3651   4.4007   4.5757   4.6046   4.6759   4.7303
     5.1565   5.1856   5.2053   5.2231   5.3045   5.3829   5.4373   5.4645
     5.5727   5.6159   5.6759   5.6877   5.8583   5.8855   5.9301   5.9523
     6.5422   6.5790   6.7061   6.7417   7.0603   7.1021   7.1638   7.1977
     7.2443   7.2626   7.3359   7.3684   7.4670   7.5452   7.6333   7.6616
     7.6792   7.7003   7.7379   7.7747   7.7867   7.8260   7.8439   7.8557
     7.8921   7.9367   7.9529   7.9871   8.0247   8.0524   8.0743   8.1070
     8.1326   8.1740   8.1936   8.2238   8.2527   8.2738   8.2856   8.3154
     8.3374   8.3524   8.3603   8.3712   8.3859   8.4165   8.4475   8.4649
     8.4888   8.5016   8.5090   8.5185   8.5297   8.5466   8.5637   8.5760
     8.5953   8.6093   8.6191   8.6307   8.6499   8.6602   8.6801   8.6981
     8.7229   8.7366   8.7725   8.7872   8.8202   8.8343   8.8482   8.8559
     8.8646   8.8790   8.9072   8.9249   8.9380   8.9586   8.9799   9.0007
     9.0151   9.0277   9.0820   9.0869   9.1197   9.1373   9.1556   9.1682
     9.1871   9.1998   9.2319   9.2495   9.2821   9.3008   9.3427   9.3564
     9.3621   9.3780   9.4233   9.4423   9.4622   9.4801   9.4935   9.5046
     9.5185   9.5298   9.5406   9.5737   9.5893   9.6103   9.6153   9.6259
     9.6379   9.6605   9.6742   9.6906   9.7069   9.7154   9.7387   9.7462
     9.7779   9.7831   9.8772   9.8963

     occupation numbers 
     1.0000   1.0000   1.0000   1.0000   1.0000   1.0000   1.0000   1.0000
     1.0000   1.0000   1.0000   1.0000   1.0000   1.0000   1.0000   1.0000
     1.0000   1.0000   1.0000   1.0000   1.0000   1.0000   1.0000   1.0000
     1.0000   1.0000   1.0000   1.0000   1.0000   1.0000   1.0000   1.0000
     1.0000   1.0000   1.0000   1.0000   1.0000   1.0000   1.0000   1.0000
     1.0000   1.0000   1.0000   1.0000   1.0000   1.0000   1.0000   1.0000
     1.0000   1.0000   1.0000   1.0000   1.0000   1.0000   1.0000   1.0000
     1.0000   1.0000   1.0000   1.0000   1.0000   1.0000   1.0000   1.0000
     1.0000   1.0000   1.0000   1.0000   1.0000   1.0000   1.0000   1.0000
     1.0000   1.0000   1.0000   1.0000   1.0000   1.0000   1.0000   1.0000
     1.0000   1.0000   1.0000   1.0000   1.0000   1.0000   1.0000   1.0000
     1.0000   1.0000   1.0000   1.0000   1.0000   1.0000   1.0000   1.0000
     1.0000   1.0000   1.0000   1.0000   1.0000   1.0000   1.0000   1.0000
     1.0000   1.0000   1.0000   1.0000   1.0000   1.0000   1.0000   1.0000
     1.0000   1.0000   1.0000   1.0000   1.0000   1.0000   1.0000   1.0000
     1.0000   1.0000   1.0000   1.0000   1.0000   1.0000   1.0000   1.0000
     1.0000   1.0000   1.0000   1.0000   1.0000   1.0000   1.0000   1.0000
     1.0000   1.0000   1.0000   1.0000   1.0000   1.0000   1.0000   1.0000
     1.0000   1.0000   1.0000   1.0000   1.0000   1.0000   1.0000   1.0000
     1.0000   1.0000   1.0000   1.0000   1.0000   1.0000   1.0000   1.0000
     1.0000   1.0000   1.0000   1.0000   1.0000   1.0000   1.0000   1.0000
     1.0000   1.0000   1.0000   1.0000   1.0000   1.0000   1.0000   1.0000
     1.0000   1.0000   1.0000   1.0000   1.0000   1.0000   1.0000   1.0000
     1.0000   1.0000   1.0000   1.0000   1.0000   1.0000   1.0000   1.0000
     1.0000   1.0000   1.0000   1.0000   1.0000   1.0000   1.0000   1.0000
     1.0000   1.0000   1.0000   1.0000   1.0000   1.0000   1.0000   1.0000
     1.0000   1.0000   1.0000   1.0000   1.0000   1.0000   1.0000   1.0000
     1.0000   1.0000   1.0000   1.0000   1.0000   1.0000   1.0000   1.0000
     1.0000   1.0000   1.0000   1.0000   1.0000   1.0000   1.0000   1.0000
     1.0000   1.0000   1.0000   1.0000   1.0000   1.0000   1.0000   1.0000
     1.0000   1.0000   1.0000   1.0000   1.0000   1.0000   1.0000   1.0000
     1.0000   1.0000   1.0000   1.0000   1.0000   1.0000   1.0000   1.0000
     1.0000   1.0000   1.0000   1.0000   1.0000   1.0000   1.0000   1.0000
     1.0000   1.0000   1.0000   1.0000   1.0000   1.0000   1.0000   1.0000
     1.0000   1.0000   1.0000   1.0000   1.0000   1.0000   1.0000   1.0000
     1.0000   1.0000   1.0000   1.0000   1.0000   1.0000   1.0000   1.0000
     1.0000   1.0000   1.0000   1.0000   1.0000   1.0000   1.0000   1.0000
     1.0000   1.0000   1.0000   1.0000   1.0000   1.0000   1.0000   1.0000
     1.0000   1.0000   1.0000   1.0000   1.0000   1.0000   1.0000   1.0000
     1.0000   1.0000   1.0000   1.0000   1.0000   1.0000   1.0000   1.0000
     1.0000   1.0000   1.0000   1.0000   1.0000   1.0000   1.0000   1.0000
     1.0000   1.0000   1.0000   1.0000   1.0000   1.0000   1.0000   1.0000
     1.0000   1.0000   1.0000   1.0000   1.0000   1.0000   1.0000   1.0000
     1.0000   1.0000   1.0000   1.0000   1.0000   1.0000   1.0000   1.0000
     0.0000   0.0000   0.0000   0.0000   0.0000   0.0000   0.0000   0.0000
     0.0000   0.0000   0.0000   0.0000   0.0000   0.0000   0.0000   0.0000
     0.0000   0.0000   0.0000   0.0000   0.0000   0.0000   0.0000   0.0000
     0.0000   0.0000   0.0000   0.0000   0.0000   0.0000   0.0000   0.0000
     0.0000   0.0000   0.0000   0.0000   0.0000   0.0000   0.0000   0.0000
     0.0000   0.0000   0.0000   0.0000   0.0000   0.0000   0.0000   0.0000
     0.0000   0.0000   0.0000   0.0000   0.0000   0.0000   0.0000   0.0000
     0.0000   0.0000   0.0000   0.0000   0.0000   0.0000   0.0000   0.0000
     0.0000   0.0000   0.0000   0.0000   0.0000   0.0000   0.0000   0.0000
     0.0000   0.0000   0.0000   0.0000   0.0000   0.0000   0.0000   0.0000
     0.0000   0.0000   0.0000   0.0000   0.0000   0.0000   0.0000   0.0000
     0.0000   0.0000   0.0000   0.0000   0.0000   0.0000   0.0000   0.0000
     0.0000   0.0000   0.0000   0.0000   0.0000   0.0000   0.0000   0.0000
     0.0000   0.0000   0.0000   0.0000   0.0000   0.0000   0.0000   0.0000
     0.0000   0.0000   0.0000   0.0000   0.0000   0.0000   0.0000   0.0000
     0.0000   0.0000   0.0000   0.0000   0.0000   0.0000   0.0000   0.0000
     0.0000   0.0000   0.0000   0.0000   0.0000   0.0000   0.0000   0.0000
     0.0000   0.0000   0.0000   0.0000   0.0000   0.0000   0.0000   0.0000
     0.0000   0.0000   0.0000   0.0000

          k = 0.2000 0.0000 0.0000 ( 73848 PWs)   bands (ev):

   -18.1281 -18.1281 -18.0397 -18.0397 -17.9993 -17.9993 -17.9954 -17.9954
   -17.9651 -17.9651 -17.9608 -17.9608 -17.8047 -17.8047 -17.7796 -17.7796
   -15.3216 -15.3216 -15.3009 -15.3009 -15.2537 -15.2537 -15.2487 -15.2486
   -15.2402 -15.2401 -15.2350 -15.2349 -15.2229 -15.2229 -15.2149 -15.2149
   -15.1848 -15.1847 -15.1674 -15.1674 -15.0949 -15.0948 -15.0876 -15.0876
   -15.0734 -15.0733 -15.0687 -15.0686 -15.0092 -15.0092 -15.0005 -15.0005
   -12.7935 -12.7919 -12.7773 -12.7772 -12.7706 -12.7705 -12.7308 -12.7297
   -12.7273 -12.7268 -12.7195 -12.7190 -12.7149 -12.7133 -12.6992 -12.6990
   -12.6848 -12.6843 -12.6575 -12.6573 -12.6566 -12.6562 -12.6459 -12.6444
   -12.6408 -12.6406 -12.6336 -12.6335 -12.5933 -12.5926 -12.5900 -12.5899
   -12.5690 -12.5687 -12.5633 -12.5627 -12.5387 -12.5375 -12.5052 -12.5049
   -12.4984 -12.4982 -12.4910 -12.4910 -12.4883 -12.4881 -12.4173 -12.4172
   -11.4125 -11.4123 -11.3332 -11.3328 -11.2714 -11.2698 -11.2354 -11.2336
   -11.1937 -11.1916 -11.1581 -11.1572 -11.0936 -11.0920 -11.0828 -11.0815
   -11.0511 -11.0479 -11.0235 -11.0202 -11.0102 -11.0091 -10.9884 -10.9877
   -10.9769 -10.9749 -10.9159 -10.9146 -10.8948 -10.8939 -10.8636 -10.8604
   -10.8256 -10.8253 -10.7884 -10.7870 -10.7556 -10.7546 -10.6857 -10.6851
   -10.6404 -10.6397 -10.6289 -10.6280 -10.5775 -10.5769 -10.5356 -10.5356
    -6.0982  -6.0980  -6.0137  -6.0133  -5.9775  -5.9772  -5.9720  -5.9717
    -5.9415  -5.9411  -5.9350  -5.9349  -5.7958  -5.7957  -5.7735  -5.7734
    -5.3157  -5.3150  -4.9782  -4.9773  -4.8689  -4.8683  -4.8374  -4.8370
    -4.5245  -4.5199  -4.5167  -4.5108  -4.5023  -4.4954  -4.4768  -4.4752
    -4.4262  -4.4238  -4.4115  -4.4075  -4.3928  -4.3910  -4.3819  -4.3788
    -4.3769  -4.3749  -4.3651  -4.3634  -4.3556  -4.3534  -4.3453  -4.3436
    -4.3419  -4.3408  -4.3196  -4.3179  -4.3139  -4.3122  -4.2155  -4.2144
    -4.1906  -4.1892  -4.1868  -4.1854  -4.1761  -4.1750  -4.0071  -4.0047
    -1.0253  -0.9881  -0.8166  -0.7876  -0.7515  -0.7301  -0.7057  -0.6960
    -0.6692  -0.6479  -0.6028  -0.5823  -0.5745  -0.5566  -0.5174  -0.5032
    -0.4898  -0.4665  -0.4414  -0.4199  -0.3352  -0.2917  -0.2733  -0.2578
     0.2237   0.2461   0.2855   0.2983   0.3079   0.3187   0.3982   0.4097
     0.4281   0.4524   0.4658   0.4785   0.4912   0.5084   0.5134   0.5242
     0.5535   0.5676   0.5925   0.6065   0.6495   0.6631   0.6926   0.7059
     0.7306   0.7404   0.7526   0.7805   0.7900   0.7967   0.8118   0.8287
     0.8373   0.8473   0.8627   0.8664   0.8725   0.9028   0.9052   0.9170
     0.9318   0.9445   0.9495   0.9594   0.9683   0.9828   0.9931   0.9974
     1.0049   1.0169   1.0326   1.0436   1.0528   1.0689   1.0751   1.0865
     1.0947   1.1001   1.1054   1.1154   1.1250   1.1351   1.1469   1.1570
     1.1723   1.1881   1.1904   1.2055   1.2119   1.2179   1.2276   1.2433
     1.2488   1.2648   1.2794   1.2919   1.2937   1.3097   1.3172   1.3389
     1.3514   1.3587   1.3784   1.3849   1.3978   1.4124   1.4201   1.4351
     1.4470   1.4673   1.4763   1.4909   1.5142   1.5239   1.5372   1.5497
     1.5704   1.5838   1.5981   1.6156   1.6242   1.6383   1.6467   1.6699
     1.6964   1.7016   1.7660   1.7836   1.8148   1.8377   1.9013   1.9111
     2.1140   2.1332   2.1527   2.1683   2.2443   2.2777   2.5477   2.5572
     3.8837   3.9456   4.3687   4.4033   4.5505   4.5806   4.6513   4.7036
     5.1575   5.1854   5.2097   5.2254   5.2830   5.3685   5.4113   5.4382
     5.5334   5.5757   5.6769   5.6856   5.8212   5.8506   5.8912   5.9134
     6.5320   6.5601   6.7249   6.7533   7.0874   7.1338   7.1951   7.2240
     7.2725   7.2993   7.3516   7.3894   7.4863   7.5489   7.6419   7.6662
     7.6884   7.7036   7.7381   7.7733   7.7867   7.8267   7.8447   7.8593
     7.8943   7.9325   7.9493   7.9835   8.0312   8.0546   8.0827   8.1137
     8.1401   8.1783   8.1964   8.2268   8.2561   8.2792   8.2925   8.3156
     8.3402   8.3531   8.3622   8.3770   8.3938   8.4201   8.4500   8.4693
     8.4912   8.5039   8.5117   8.5190   8.5340   8.5477   8.5675   8.5758
     8.5933   8.6088   8.6217   8.6354   8.6489   8.6620   8.6825   8.7024
     8.7286   8.7367   8.7704   8.7895   8.8226   8.8370   8.8502   8.8576
     8.8668   8.8799   8.9120   8.9313   8.9402   8.9609   8.9811   9.0063
     9.0216   9.0358   9.0861   9.0981   9.1286   9.1440   9.1654   9.1778
     9.1956   9.2120   9.2366   9.2577   9.2895   9.3053   9.3502   9.3614
     9.3640   9.3804   9.4299   9.4479   9.4672   9.4866   9.5034   9.5079
     9.5247   9.5350   9.5437   9.5782   9.5920   9.6165   9.6193   9.6292
     9.6416   9.6643   9.6766   9.6929   9.7099   9.7193   9.7419   9.7464
     9.7832   9.7890   9.8729   9.8961

     occupation numbers 
     1.0000   1.0000   1.0000   1.0000   1.0000   1.0000   1.0000   1.0000
     1.0000   1.0000   1.0000   1.0000   1.0000   1.0000   1.0000   1.0000
     1.0000   1.0000   1.0000   1.0000   1.0000   1.0000   1.0000   1.0000
     1.0000   1.0000   1.0000   1.0000   1.0000   1.0000   1.0000   1.0000
     1.0000   1.0000   1.0000   1.0000   1.0000   1.0000   1.0000   1.0000
     1.0000   1.0000   1.0000   1.0000   1.0000   1.0000   1.0000   1.0000
     1.0000   1.0000   1.0000   1.0000   1.0000   1.0000   1.0000   1.0000
     1.0000   1.0000   1.0000   1.0000   1.0000   1.0000   1.0000   1.0000
     1.0000   1.0000   1.0000   1.0000   1.0000   1.0000   1.0000   1.0000
     1.0000   1.0000   1.0000   1.0000   1.0000   1.0000   1.0000   1.0000
     1.0000   1.0000   1.0000   1.0000   1.0000   1.0000   1.0000   1.0000
     1.0000   1.0000   1.0000   1.0000   1.0000   1.0000   1.0000   1.0000
     1.0000   1.0000   1.0000   1.0000   1.0000   1.0000   1.0000   1.0000
     1.0000   1.0000   1.0000   1.0000   1.0000   1.0000   1.0000   1.0000
     1.0000   1.0000   1.0000   1.0000   1.0000   1.0000   1.0000   1.0000
     1.0000   1.0000   1.0000   1.0000   1.0000   1.0000   1.0000   1.0000
     1.0000   1.0000   1.0000   1.0000   1.0000   1.0000   1.0000   1.0000
     1.0000   1.0000   1.0000   1.0000   1.0000   1.0000   1.0000   1.0000
     1.0000   1.0000   1.0000   1.0000   1.0000   1.0000   1.0000   1.0000
     1.0000   1.0000   1.0000   1.0000   1.0000   1.0000   1.0000   1.0000
     1.0000   1.0000   1.0000   1.0000   1.0000   1.0000   1.0000   1.0000
     1.0000   1.0000   1.0000   1.0000   1.0000   1.0000   1.0000   1.0000
     1.0000   1.0000   1.0000   1.0000   1.0000   1.0000   1.0000   1.0000
     1.0000   1.0000   1.0000   1.0000   1.0000   1.0000   1.0000   1.0000
     1.0000   1.0000   1.0000   1.0000   1.0000   1.0000   1.0000   1.0000
     1.0000   1.0000   1.0000   1.0000   1.0000   1.0000   1.0000   1.0000
     1.0000   1.0000   1.0000   1.0000   1.0000   1.0000   1.0000   1.0000
     1.0000   1.0000   1.0000   1.0000   1.0000   1.0000   1.0000   1.0000
     1.0000   1.0000   1.0000   1.0000   1.0000   1.0000   1.0000   1.0000
     1.0000   1.0000   1.0000   1.0000   1.0000   1.0000   1.0000   1.0000
     1.0000   1.0000   1.0000   1.0000   1.0000   1.0000   1.0000   1.0000
     1.0000   1.0000   1.0000   1.0000   1.0000   1.0000   1.0000   1.0000
     1.0000   1.0000   1.0000   1.0000   1.0000   1.0000   1.0000   1.0000
     1.0000   1.0000   1.0000   1.0000   1.0000   1.0000   1.0000   1.0000
     1.0000   1.0000   1.0000   1.0000   1.0000   1.0000   1.0000   1.0000
     1.0000   1.0000   1.0000   1.0000   1.0000   1.0000   1.0000   1.0000
     1.0000   1.0000   1.0000   1.0000   1.0000   1.0000   1.0000   1.0000
     1.0000   1.0000   1.0000   1.0000   1.0000   1.0000   1.0000   1.0000
     1.0000   1.0000   1.0000   1.0000   1.0000   1.0000   1.0000   1.0000
     1.0000   1.0000   1.0000   1.0000   1.0000   1.0000   1.0000   1.0000
     1.0000   1.0000   1.0000   1.0000   1.0000   1.0000   1.0000   1.0000
     1.0000   1.0000   1.0000   1.0000   1.0000   1.0000   1.0000   1.0000
     1.0000   1.0000   1.0000   1.0000   1.0000   1.0000   1.0000   1.0000
     1.0000   1.0000   1.0000   1.0000   1.0000   1.0000   1.0000   1.0000
     0.0000   0.0000   0.0000   0.0000   0.0000   0.0000   0.0000   0.0000
     0.0000   0.0000   0.0000   0.0000   0.0000   0.0000   0.0000   0.0000
     0.0000   0.0000   0.0000   0.0000   0.0000   0.0000   0.0000   0.0000
     0.0000   0.0000   0.0000   0.0000   0.0000   0.0000   0.0000   0.0000
     0.0000   0.0000   0.0000   0.0000   0.0000   0.0000   0.0000   0.0000
     0.0000   0.0000   0.0000   0.0000   0.0000   0.0000   0.0000   0.0000
     0.0000   0.0000   0.0000   0.0000   0.0000   0.0000   0.0000   0.0000
     0.0000   0.0000   0.0000   0.0000   0.0000   0.0000   0.0000   0.0000
     0.0000   0.0000   0.0000   0.0000   0.0000   0.0000   0.0000   0.0000
     0.0000   0.0000   0.0000   0.0000   0.0000   0.0000   0.0000   0.0000
     0.0000   0.0000   0.0000   0.0000   0.0000   0.0000   0.0000   0.0000
     0.0000   0.0000   0.0000   0.0000   0.0000   0.0000   0.0000   0.0000
     0.0000   0.0000   0.0000   0.0000   0.0000   0.0000   0.0000   0.0000
     0.0000   0.0000   0.0000   0.0000   0.0000   0.0000   0.0000   0.0000
     0.0000   0.0000   0.0000   0.0000   0.0000   0.0000   0.0000   0.0000
     0.0000   0.0000   0.0000   0.0000   0.0000   0.0000   0.0000   0.0000
     0.0000   0.0000   0.0000   0.0000   0.0000   0.0000   0.0000   0.0000
     0.0000   0.0000   0.0000   0.0000   0.0000   0.0000   0.0000   0.0000
     0.0000   0.0000   0.0000   0.0000

          k = 0.1750 0.0000 0.0000 ( 73872 PWs)   bands (ev):

   -18.1281 -18.1281 -18.0397 -18.0397 -17.9993 -17.9993 -17.9954 -17.9954
   -17.9651 -17.9651 -17.9608 -17.9608 -17.8047 -17.8047 -17.7796 -17.7796
   -15.3216 -15.3216 -15.3009 -15.3009 -15.2537 -15.2537 -15.2487 -15.2486
   -15.2402 -15.2401 -15.2350 -15.2349 -15.2229 -15.2229 -15.2149 -15.2149
   -15.1848 -15.1847 -15.1674 -15.1674 -15.0949 -15.0949 -15.0876 -15.0876
   -15.0734 -15.0733 -15.0686 -15.0685 -15.0092 -15.0092 -15.0005 -15.0005
   -12.7940 -12.7925 -12.7772 -12.7771 -12.7706 -12.7705 -12.7310 -12.7299
   -12.7274 -12.7269 -12.7193 -12.7190 -12.7146 -12.7131 -12.6991 -12.6990
   -12.6848 -12.6844 -12.6574 -12.6573 -12.6565 -12.6561 -12.6457 -12.6443
   -12.6408 -12.6405 -12.6336 -12.6335 -12.5935 -12.5929 -12.5900 -12.5899
   -12.5691 -12.5688 -12.5635 -12.5630 -12.5381 -12.5371 -12.5052 -12.5048
   -12.4983 -12.4982 -12.4910 -12.4910 -12.4882 -12.4880 -12.4173 -12.4172
   -11.4132 -11.4131 -11.3326 -11.3322 -11.2695 -11.2679 -11.2368 -11.2350
   -11.1928 -11.1908 -11.1573 -11.1565 -11.0937 -11.0924 -11.0818 -11.0805
   -11.0531 -11.0500 -11.0240 -11.0210 -11.0107 -11.0096 -10.9885 -10.9878
   -10.9769 -10.9751 -10.9153 -10.9141 -10.8947 -10.8938 -10.8653 -10.8622
   -10.8258 -10.8255 -10.7878 -10.7865 -10.7557 -10.7547 -10.6856 -10.6850
   -10.6403 -10.6396 -10.6290 -10.6282 -10.5763 -10.5758 -10.5356 -10.5355
    -6.0981  -6.0980  -6.0137  -6.0133  -5.9776  -5.9774  -5.9719  -5.9716
    -5.9415  -5.9411  -5.9350  -5.9349  -5.7958  -5.7957  -5.7735  -5.7734
    -5.3233  -5.3227  -4.9695  -4.9687  -4.8763  -4.8758  -4.8443  -4.8439
    -4.5172  -4.5130  -4.5093  -4.5039  -4.4988  -4.4917  -4.4754  -4.4737
    -4.4282  -4.4257  -4.4124  -4.4083  -4.3939  -4.3919  -4.3825  -4.3799
    -4.3769  -4.3750  -4.3655  -4.3638  -4.3555  -4.3537  -4.3461  -4.3445
    -4.3417  -4.3410  -4.3195  -4.3180  -4.3139  -4.3122  -4.2154  -4.2144
    -4.1904  -4.1892  -4.1868  -4.1855  -4.1760  -4.1749  -3.9949  -3.9928
    -1.0258  -0.9887  -0.8233  -0.7934  -0.7562  -0.7348  -0.7117  -0.6978
    -0.6833  -0.6607  -0.6144  -0.5929  -0.5855  -0.5667  -0.5255  -0.5125
    -0.4930  -0.4731  -0.4478  -0.4252  -0.3515  -0.3084  -0.2909  -0.2765
     0.2248   0.2439   0.2856   0.2999   0.3075   0.3157   0.4069   0.4162
     0.4352   0.4564   0.4724   0.4867   0.4976   0.5121   0.5177   0.5262
     0.5674   0.5809   0.6051   0.6178   0.6525   0.6675   0.6954   0.7101
     0.7365   0.7480   0.7609   0.7833   0.7943   0.8010   0.8166   0.8339
     0.8410   0.8495   0.8657   0.8697   0.8748   0.9025   0.9088   0.9187
     0.9334   0.9458   0.9507   0.9605   0.9698   0.9843   0.9914   0.9999
     1.0054   1.0193   1.0351   1.0435   1.0565   1.0685   1.0741   1.0859
     1.0954   1.1011   1.1059   1.1161   1.1252   1.1332   1.1461   1.1566
     1.1734   1.1858   1.1895   1.2054   1.2124   1.2167   1.2258   1.2418
     1.2485   1.2632   1.2795   1.2925   1.2948   1.3091   1.3165   1.3394
     1.3527   1.3577   1.3784   1.3867   1.3973   1.4124   1.4190   1.4333
     1.4490   1.4677   1.4773   1.4909   1.5161   1.5256   1.5386   1.5504
     1.5712   1.5844   1.6009   1.6189   1.6266   1.6424   1.6491   1.6745
     1.6985   1.7040   1.7694   1.7858   1.8152   1.8363   1.9037   1.9132
     2.1302   2.1499   2.1706   2.1850   2.2424   2.2772   2.5697   2.5789
     3.8602   3.9174   4.3693   4.4028   4.5278   4.5581   4.6287   4.6777
     5.1548   5.1850   5.2123   5.2251   5.2631   5.3460   5.3978   5.4188
     5.4961   5.5372   5.6802   5.6878   5.7892   5.8198   5.8570   5.8786
     6.5202   6.5416   6.7429   6.7657   7.1089   7.1572   7.2196   7.2458
     7.2987   7.3286   7.3731   7.4107   7.5021   7.5516   7.6503   7.6684
     7.6926   7.7061   7.7384   7.7714   7.7909   7.8296   7.8458   7.8664
     7.8974   7.9303   7.9473   7.9802   8.0363   8.0557   8.0923   8.1213
     8.1476   8.1824   8.1996   8.2289   8.2587   8.2841   8.2992   8.3167
     8.3407   8.3537   8.3663   8.3821   8.4017   8.4223   8.4517   8.4719
     8.4913   8.5044   8.5147   8.5216   8.5373   8.5492   8.5711   8.5750
     8.5906   8.6079   8.6239   8.6404   8.6471   8.6630   8.6858   8.7074
     8.7339   8.7398   8.7691   8.7919   8.8253   8.8400   8.8516   8.8593
     8.8688   8.8799   8.9176   8.9371   8.9422   8.9653   8.9825   9.0087
     9.0265   9.0417   9.0927   9.1111   9.1362   9.1489   9.1749   9.1903
     9.2039   9.2247   9.2408   9.2650   9.2957   9.3088   9.3579   9.3662
     9.3670   9.3840   9.4362   9.4522   9.4725   9.4934   9.5102   9.5140
     9.5298   9.5405   9.5485   9.5811   9.5957   9.6205   9.6239   9.6321
     9.6440   9.6658   9.6793   9.6963   9.7129   9.7237   9.7455   9.7481
     9.7882   9.7947   9.8694   9.8975

     occupation numbers 
     1.0000   1.0000   1.0000   1.0000   1.0000   1.0000   1.0000   1.0000
     1.0000   1.0000   1.0000   1.0000   1.0000   1.0000   1.0000   1.0000
     1.0000   1.0000   1.0000   1.0000   1.0000   1.0000   1.0000   1.0000
     1.0000   1.0000   1.0000   1.0000   1.0000   1.0000   1.0000   1.0000
     1.0000   1.0000   1.0000   1.0000   1.0000   1.0000   1.0000   1.0000
     1.0000   1.0000   1.0000   1.0000   1.0000   1.0000   1.0000   1.0000
     1.0000   1.0000   1.0000   1.0000   1.0000   1.0000   1.0000   1.0000
     1.0000   1.0000   1.0000   1.0000   1.0000   1.0000   1.0000   1.0000
     1.0000   1.0000   1.0000   1.0000   1.0000   1.0000   1.0000   1.0000
     1.0000   1.0000   1.0000   1.0000   1.0000   1.0000   1.0000   1.0000
     1.0000   1.0000   1.0000   1.0000   1.0000   1.0000   1.0000   1.0000
     1.0000   1.0000   1.0000   1.0000   1.0000   1.0000   1.0000   1.0000
     1.0000   1.0000   1.0000   1.0000   1.0000   1.0000   1.0000   1.0000
     1.0000   1.0000   1.0000   1.0000   1.0000   1.0000   1.0000   1.0000
     1.0000   1.0000   1.0000   1.0000   1.0000   1.0000   1.0000   1.0000
     1.0000   1.0000   1.0000   1.0000   1.0000   1.0000   1.0000   1.0000
     1.0000   1.0000   1.0000   1.0000   1.0000   1.0000   1.0000   1.0000
     1.0000   1.0000   1.0000   1.0000   1.0000   1.0000   1.0000   1.0000
     1.0000   1.0000   1.0000   1.0000   1.0000   1.0000   1.0000   1.0000
     1.0000   1.0000   1.0000   1.0000   1.0000   1.0000   1.0000   1.0000
     1.0000   1.0000   1.0000   1.0000   1.0000   1.0000   1.0000   1.0000
     1.0000   1.0000   1.0000   1.0000   1.0000   1.0000   1.0000   1.0000
     1.0000   1.0000   1.0000   1.0000   1.0000   1.0000   1.0000   1.0000
     1.0000   1.0000   1.0000   1.0000   1.0000   1.0000   1.0000   1.0000
     1.0000   1.0000   1.0000   1.0000   1.0000   1.0000   1.0000   1.0000
     1.0000   1.0000   1.0000   1.0000   1.0000   1.0000   1.0000   1.0000
     1.0000   1.0000   1.0000   1.0000   1.0000   1.0000   1.0000   1.0000
     1.0000   1.0000   1.0000   1.0000   1.0000   1.0000   1.0000   1.0000
     1.0000   1.0000   1.0000   1.0000   1.0000   1.0000   1.0000   1.0000
     1.0000   1.0000   1.0000   1.0000   1.0000   1.0000   1.0000   1.0000
     1.0000   1.0000   1.0000   1.0000   1.0000   1.0000   1.0000   1.0000
     1.0000   1.0000   1.0000   1.0000   1.0000   1.0000   1.0000   1.0000
     1.0000   1.0000   1.0000   1.0000   1.0000   1.0000   1.0000   1.0000
     1.0000   1.0000   1.0000   1.0000   1.0000   1.0000   1.0000   1.0000
     1.0000   1.0000   1.0000   1.0000   1.0000   1.0000   1.0000   1.0000
     1.0000   1.0000   1.0000   1.0000   1.0000   1.0000   1.0000   1.0000
     1.0000   1.0000   1.0000   1.0000   1.0000   1.0000   1.0000   1.0000
     1.0000   1.0000   1.0000   1.0000   1.0000   1.0000   1.0000   1.0000
     1.0000   1.0000   1.0000   1.0000   1.0000   1.0000   1.0000   1.0000
     1.0000   1.0000   1.0000   1.0000   1.0000   1.0000   1.0000   1.0000
     1.0000   1.0000   1.0000   1.0000   1.0000   1.0000   1.0000   1.0000
     1.0000   1.0000   1.0000   1.0000   1.0000   1.0000   1.0000   1.0000
     1.0000   1.0000   1.0000   1.0000   1.0000   1.0000   1.0000   1.0000
     1.0000   1.0000   1.0000   1.0000   1.0000   1.0000   1.0000   1.0000
     0.0000   0.0000   0.0000   0.0000   0.0000   0.0000   0.0000   0.0000
     0.0000   0.0000   0.0000   0.0000   0.0000   0.0000   0.0000   0.0000
     0.0000   0.0000   0.0000   0.0000   0.0000   0.0000   0.0000   0.0000
     0.0000   0.0000   0.0000   0.0000   0.0000   0.0000   0.0000   0.0000
     0.0000   0.0000   0.0000   0.0000   0.0000   0.0000   0.0000   0.0000
     0.0000   0.0000   0.0000   0.0000   0.0000   0.0000   0.0000   0.0000
     0.0000   0.0000   0.0000   0.0000   0.0000   0.0000   0.0000   0.0000
     0.0000   0.0000   0.0000   0.0000   0.0000   0.0000   0.0000   0.0000
     0.0000   0.0000   0.0000   0.0000   0.0000   0.0000   0.0000   0.0000
     0.0000   0.0000   0.0000   0.0000   0.0000   0.0000   0.0000   0.0000
     0.0000   0.0000   0.0000   0.0000   0.0000   0.0000   0.0000   0.0000
     0.0000   0.0000   0.0000   0.0000   0.0000   0.0000   0.0000   0.0000
     0.0000   0.0000   0.0000   0.0000   0.0000   0.0000   0.0000   0.0000
     0.0000   0.0000   0.0000   0.0000   0.0000   0.0000   0.0000   0.0000
     0.0000   0.0000   0.0000   0.0000   0.0000   0.0000   0.0000   0.0000
     0.0000   0.0000   0.0000   0.0000   0.0000   0.0000   0.0000   0.0000
     0.0000   0.0000   0.0000   0.0000   0.0000   0.0000   0.0000   0.0000
     0.0000   0.0000   0.0000   0.0000   0.0000   0.0000   0.0000   0.0000
     0.0000   0.0000   0.0000   0.0000

          k = 0.1500 0.0000 0.0000 ( 73856 PWs)   bands (ev):

   -18.1281 -18.1281 -18.0397 -18.0397 -17.9993 -17.9993 -17.9954 -17.9954
   -17.9651 -17.9651 -17.9608 -17.9608 -17.8047 -17.8047 -17.7796 -17.7796
   -15.3216 -15.3216 -15.3009 -15.3009 -15.2537 -15.2537 -15.2487 -15.2486
   -15.2402 -15.2401 -15.2350 -15.2350 -15.2229 -15.2229 -15.2149 -15.2149
   -15.1848 -15.1847 -15.1674 -15.1674 -15.0949 -15.0949 -15.0876 -15.0876
   -15.0734 -15.0734 -15.0686 -15.0685 -15.0092 -15.0092 -15.0005 -15.0005
   -12.7943 -12.7930 -12.7771 -12.7770 -12.7706 -12.7705 -12.7311 -12.7301
   -12.7274 -12.7270 -12.7192 -12.7189 -12.7143 -12.7129 -12.6991 -12.6990
   -12.6849 -12.6845 -12.6574 -12.6573 -12.6564 -12.6561 -12.6454 -12.6442
   -12.6408 -12.6405 -12.6336 -12.6335 -12.5937 -12.5931 -12.5900 -12.5899
   -12.5691 -12.5689 -12.5637 -12.5632 -12.5377 -12.5367 -12.5051 -12.5048
   -12.4983 -12.4982 -12.4910 -12.4910 -12.4881 -12.4879 -12.4173 -12.4172
   -11.4139 -11.4137 -11.3320 -11.3317 -11.2676 -11.2660 -11.2381 -11.2363
   -11.1919 -11.1899 -11.1566 -11.1559 -11.0939 -11.0928 -11.0807 -11.0793
   -11.0550 -11.0521 -11.0244 -11.0218 -11.0111 -11.0101 -10.9886 -10.9879
   -10.9768 -10.9753 -10.9147 -10.9136 -10.8946 -10.8937 -10.8668 -10.8639
   -10.8259 -10.8257 -10.7873 -10.7862 -10.7558 -10.7549 -10.6855 -10.6850
   -10.6402 -10.6397 -10.6290 -10.6283 -10.5752 -10.5747 -10.5356 -10.5355
    -6.0981  -6.0980  -6.0137  -6.0134  -5.9777  -5.9775  -5.9718  -5.9716
    -5.9414  -5.9411  -5.9350  -5.9349  -5.7958  -5.7957  -5.7735  -5.7734
    -5.3300  -5.3295  -4.9621  -4.9615  -4.8827  -4.8822  -4.8501  -4.8497
    -4.5124  -4.5087  -4.5035  -4.5019  -4.4911  -4.4866  -4.4737  -4.4717
    -4.4303  -4.4279  -4.4129  -4.4088  -4.3947  -4.3928  -4.3829  -4.3807
    -4.3767  -4.3751  -4.3658  -4.3642  -4.3554  -4.3539  -4.3465  -4.3451
    -4.3415  -4.3410  -4.3194  -4.3180  -4.3138  -4.3123  -4.2153  -4.2144
    -4.1902  -4.1892  -4.1867  -4.1857  -4.1758  -4.1748  -3.9839  -3.9821
    -1.0258  -0.9901  -0.8297  -0.7998  -0.7615  -0.7414  -0.7193  -0.7017
    -0.6922  -0.6726  -0.6241  -0.6062  -0.5911  -0.5759  -0.5312  -0.5203
    -0.4951  -0.4789  -0.4536  -0.4315  -0.3632  -0.3236  -0.3041  -0.2919
     0.2256   0.2417   0.2858   0.3004   0.3066   0.3127   0.4133   0.4207
     0.4419   0.4593   0.4781   0.4937   0.5034   0.5155   0.5207   0.5283
     0.5778   0.5921   0.6153   0.6278   0.6555   0.6724   0.6980   0.7145
     0.7408   0.7569   0.7686   0.7860   0.7969   0.8049   0.8212   0.8373
     0.8416   0.8542   0.8669   0.8743   0.8780   0.9024   0.9112   0.9221
     0.9347   0.9456   0.9520   0.9611   0.9721   0.9846   0.9908   1.0007
     1.0093   1.0213   1.0365   1.0453   1.0588   1.0680   1.0737   1.0852
     1.0960   1.1014   1.1066   1.1172   1.1257   1.1318   1.1454   1.1564
     1.1741   1.1830   1.1890   1.2052   1.2104   1.2169   1.2249   1.2395
     1.2490   1.2621   1.2796   1.2927   1.2959   1.3087   1.3161   1.3392
     1.3532   1.3585   1.3779   1.3888   1.3964   1.4125   1.4178   1.4316
     1.4510   1.4679   1.4781   1.4906   1.5176   1.5273   1.5399   1.5511
     1.5720   1.5848   1.6037   1.6208   1.6293   1.6451   1.6530   1.6786
     1.7009   1.7063   1.7733   1.7882   1.8161   1.8349   1.9060   1.9149
     2.1449   2.1654   2.1877   2.2004   2.2418   2.2774   2.5910   2.5997
     3.8388   3.8902   4.3671   4.3986   4.5087   4.5378   4.6089   4.6535
     5.1483   5.1836   5.2096   5.2214   5.2516   5.3221   5.3905   5.4056
     5.4630   5.5029   5.6832   5.6912   5.7627   5.7932   5.8278   5.8480
     6.5083   6.5248   6.7592   6.7776   7.1261   7.1723   7.2392   7.2634
     7.3221   7.3487   7.4009   7.4312   7.5153   7.5534   7.6569   7.6691
     7.6943   7.7073   7.7384   7.7689   7.7982   7.8329   7.8470   7.8755
     7.9007   7.9312   7.9473   7.9774   8.0400   8.0570   8.1018   8.1289
     8.1550   8.1865   8.2029   8.2305   8.2605   8.2891   8.3040   8.3194
     8.3402   8.3535   8.3722   8.3862   8.4086   8.4235   8.4524   8.4735
     8.4902   8.5037   8.5164   8.5253   8.5400   8.5518   8.5704   8.5769
     8.5883   8.6074   8.6255   8.6419   8.6474   8.6644   8.6903   8.7112
     8.7387   8.7457   8.7684   8.7943   8.8283   8.8435   8.8527   8.8607
     8.8704   8.8790   8.9240   8.9407   8.9460   8.9710   8.9840   9.0088
     9.0294   9.0444   9.1025   9.1237   9.1432   9.1532   9.1839   9.2033
     9.2132   9.2375   9.2443   9.2712   9.3008   9.3118   9.3632   9.3683
     9.3741   9.3894   9.4417   9.4552   9.4777   9.4995   9.5125   9.5234
     9.5347   9.5456   9.5551   9.5817   9.6012   9.6213   9.6289   9.6348
     9.6462   9.6653   9.6832   9.7013   9.7154   9.7282   9.7485   9.7527
     9.7926   9.7996   9.8675   9.8995

     occupation numbers 
     1.0000   1.0000   1.0000   1.0000   1.0000   1.0000   1.0000   1.0000
     1.0000   1.0000   1.0000   1.0000   1.0000   1.0000   1.0000   1.0000
     1.0000   1.0000   1.0000   1.0000   1.0000   1.0000   1.0000   1.0000
     1.0000   1.0000   1.0000   1.0000   1.0000   1.0000   1.0000   1.0000
     1.0000   1.0000   1.0000   1.0000   1.0000   1.0000   1.0000   1.0000
     1.0000   1.0000   1.0000   1.0000   1.0000   1.0000   1.0000   1.0000
     1.0000   1.0000   1.0000   1.0000   1.0000   1.0000   1.0000   1.0000
     1.0000   1.0000   1.0000   1.0000   1.0000   1.0000   1.0000   1.0000
     1.0000   1.0000   1.0000   1.0000   1.0000   1.0000   1.0000   1.0000
     1.0000   1.0000   1.0000   1.0000   1.0000   1.0000   1.0000   1.0000
     1.0000   1.0000   1.0000   1.0000   1.0000   1.0000   1.0000   1.0000
     1.0000   1.0000   1.0000   1.0000   1.0000   1.0000   1.0000   1.0000
     1.0000   1.0000   1.0000   1.0000   1.0000   1.0000   1.0000   1.0000
     1.0000   1.0000   1.0000   1.0000   1.0000   1.0000   1.0000   1.0000
     1.0000   1.0000   1.0000   1.0000   1.0000   1.0000   1.0000   1.0000
     1.0000   1.0000   1.0000   1.0000   1.0000   1.0000   1.0000   1.0000
     1.0000   1.0000   1.0000   1.0000   1.0000   1.0000   1.0000   1.0000
     1.0000   1.0000   1.0000   1.0000   1.0000   1.0000   1.0000   1.0000
     1.0000   1.0000   1.0000   1.0000   1.0000   1.0000   1.0000   1.0000
     1.0000   1.0000   1.0000   1.0000   1.0000   1.0000   1.0000   1.0000
     1.0000   1.0000   1.0000   1.0000   1.0000   1.0000   1.0000   1.0000
     1.0000   1.0000   1.0000   1.0000   1.0000   1.0000   1.0000   1.0000
     1.0000   1.0000   1.0000   1.0000   1.0000   1.0000   1.0000   1.0000
     1.0000   1.0000   1.0000   1.0000   1.0000   1.0000   1.0000   1.0000
     1.0000   1.0000   1.0000   1.0000   1.0000   1.0000   1.0000   1.0000
     1.0000   1.0000   1.0000   1.0000   1.0000   1.0000   1.0000   1.0000
     1.0000   1.0000   1.0000   1.0000   1.0000   1.0000   1.0000   1.0000
     1.0000   1.0000   1.0000   1.0000   1.0000   1.0000   1.0000   1.0000
     1.0000   1.0000   1.0000   1.0000   1.0000   1.0000   1.0000   1.0000
     1.0000   1.0000   1.0000   1.0000   1.0000   1.0000   1.0000   1.0000
     1.0000   1.0000   1.0000   1.0000   1.0000   1.0000   1.0000   1.0000
     1.0000   1.0000   1.0000   1.0000   1.0000   1.0000   1.0000   1.0000
     1.0000   1.0000   1.0000   1.0000   1.0000   1.0000   1.0000   1.0000
     1.0000   1.0000   1.0000   1.0000   1.0000   1.0000   1.0000   1.0000
     1.0000   1.0000   1.0000   1.0000   1.0000   1.0000   1.0000   1.0000
     1.0000   1.0000   1.0000   1.0000   1.0000   1.0000   1.0000   1.0000
     1.0000   1.0000   1.0000   1.0000   1.0000   1.0000   1.0000   1.0000
     1.0000   1.0000   1.0000   1.0000   1.0000   1.0000   1.0000   1.0000
     1.0000   1.0000   1.0000   1.0000   1.0000   1.0000   1.0000   1.0000
     1.0000   1.0000   1.0000   1.0000   1.0000   1.0000   1.0000   1.0000
     1.0000   1.0000   1.0000   1.0000   1.0000   1.0000   1.0000   1.0000
     1.0000   1.0000   1.0000   1.0000   1.0000   1.0000   1.0000   1.0000
     1.0000   1.0000   1.0000   1.0000   1.0000   1.0000   1.0000   1.0000
     1.0000   1.0000   1.0000   1.0000   1.0000   1.0000   1.0000   1.0000
     0.0000   0.0000   0.0000   0.0000   0.0000   0.0000   0.0000   0.0000
     0.0000   0.0000   0.0000   0.0000   0.0000   0.0000   0.0000   0.0000
     0.0000   0.0000   0.0000   0.0000   0.0000   0.0000   0.0000   0.0000
     0.0000   0.0000   0.0000   0.0000   0.0000   0.0000   0.0000   0.0000
     0.0000   0.0000   0.0000   0.0000   0.0000   0.0000   0.0000   0.0000
     0.0000   0.0000   0.0000   0.0000   0.0000   0.0000   0.0000   0.0000
     0.0000   0.0000   0.0000   0.0000   0.0000   0.0000   0.0000   0.0000
     0.0000   0.0000   0.0000   0.0000   0.0000   0.0000   0.0000   0.0000
     0.0000   0.0000   0.0000   0.0000   0.0000   0.0000   0.0000   0.0000
     0.0000   0.0000   0.0000   0.0000   0.0000   0.0000   0.0000   0.0000
     0.0000   0.0000   0.0000   0.0000   0.0000   0.0000   0.0000   0.0000
     0.0000   0.0000   0.0000   0.0000   0.0000   0.0000   0.0000   0.0000
     0.0000   0.0000   0.0000   0.0000   0.0000   0.0000   0.0000   0.0000
     0.0000   0.0000   0.0000   0.0000   0.0000   0.0000   0.0000   0.0000
     0.0000   0.0000   0.0000   0.0000   0.0000   0.0000   0.0000   0.0000
     0.0000   0.0000   0.0000   0.0000   0.0000   0.0000   0.0000   0.0000
     0.0000   0.0000   0.0000   0.0000   0.0000   0.0000   0.0000   0.0000
     0.0000   0.0000   0.0000   0.0000   0.0000   0.0000   0.0000   0.0000
     0.0000   0.0000   0.0000   0.0000

          k = 0.1250 0.0000 0.0000 ( 73872 PWs)   bands (ev):

   -18.1281 -18.1281 -18.0397 -18.0397 -17.9993 -17.9993 -17.9954 -17.9954
   -17.9651 -17.9651 -17.9608 -17.9608 -17.8047 -17.8047 -17.7796 -17.7796
   -15.3216 -15.3216 -15.3009 -15.3009 -15.2537 -15.2537 -15.2487 -15.2486
   -15.2402 -15.2401 -15.2350 -15.2350 -15.2229 -15.2229 -15.2149 -15.2149
   -15.1848 -15.1847 -15.1674 -15.1674 -15.0949 -15.0949 -15.0876 -15.0876
   -15.0735 -15.0734 -15.0686 -15.0685 -15.0092 -15.0092 -15.0005 -15.0005
   -12.7946 -12.7935 -12.7770 -12.7769 -12.7706 -12.7705 -12.7312 -12.7303
   -12.7275 -12.7271 -12.7191 -12.7189 -12.7140 -12.7127 -12.6991 -12.6990
   -12.6849 -12.6845 -12.6574 -12.6573 -12.6564 -12.6560 -12.6452 -12.6441
   -12.6407 -12.6405 -12.6336 -12.6335 -12.5938 -12.5933 -12.5900 -12.5899
   -12.5692 -12.5689 -12.5638 -12.5634 -12.5372 -12.5365 -12.5051 -12.5048
   -12.4983 -12.4981 -12.4910 -12.4910 -12.4880 -12.4878 -12.4173 -12.4172
   -11.4144 -11.4143 -11.3316 -11.3313 -11.2658 -11.2642 -11.2394 -11.2376
   -11.1910 -11.1892 -11.1561 -11.1555 -11.0942 -11.0932 -11.0794 -11.0781
   -11.0569 -11.0542 -11.0247 -11.0225 -11.0113 -11.0105 -10.9887 -10.9881
   -10.9767 -10.9755 -10.9141 -10.9131 -10.8944 -10.8937 -10.8681 -10.8655
   -10.8261 -10.8258 -10.7869 -10.7859 -10.7558 -10.7550 -10.6854 -10.6850
   -10.6402 -10.6398 -10.6289 -10.6283 -10.5743 -10.5739 -10.5355 -10.5355
    -6.0981  -6.0980  -6.0137  -6.0134  -5.9777  -5.9776  -5.9717  -5.9715
    -5.9414  -5.9412  -5.9350  -5.9349  -5.7958  -5.7957  -5.7735  -5.7734
    -5.3357  -5.3353  -4.9562  -4.9556  -4.8878  -4.8875  -4.8549  -4.8545
    -4.5097  -4.5068  -4.4999  -4.4991  -4.4844  -4.4807  -4.4719  -4.4693
    -4.4321  -4.4300  -4.4130  -4.4092  -4.3954  -4.3936  -4.3831  -4.3813
    -4.3766  -4.3752  -4.3659  -4.3644  -4.3552  -4.3540  -4.3467  -4.3456
    -4.3413  -4.3409  -4.3193  -4.3181  -4.3136  -4.3123  -4.2152  -4.2145
    -4.1901  -4.1892  -4.1867  -4.1858  -4.1756  -4.1747  -3.9743  -3.9728
    -1.0252  -0.9924  -0.8355  -0.8068  -0.7669  -0.7498  -0.7266  -0.7092
    -0.6953  -0.6816  -0.6323  -0.6185  -0.5947  -0.5836  -0.5355  -0.5266
    -0.4969  -0.4843  -0.4584  -0.4383  -0.3710  -0.3371  -0.3134  -0.3041
     0.2263   0.2395   0.2861   0.3002   0.3054   0.3099   0.4178   0.4239
     0.4477   0.4614   0.4832   0.4989   0.5085   0.5192   0.5225   0.5307
     0.5859   0.5997   0.6238   0.6355   0.6591   0.6767   0.7010   0.7184
     0.7451   0.7650   0.7753   0.7893   0.7984   0.8083   0.8247   0.8378
     0.8430   0.8593   0.8680   0.8784   0.8813   0.9025   0.9128   0.9264
     0.9358   0.9451   0.9526   0.9616   0.9743   0.9834   0.9924   1.0015
     1.0130   1.0231   1.0379   1.0480   1.0587   1.0687   1.0734   1.0847
     1.0969   1.1013   1.1072   1.1182   1.1265   1.1316   1.1448   1.1567
     1.1740   1.1808   1.1884   1.2046   1.2071   1.2183   1.2243   1.2368
     1.2498   1.2615   1.2798   1.2924   1.2970   1.3085   1.3163   1.3382
     1.3536   1.3605   1.3769   1.3905   1.3954   1.4127   1.4167   1.4298
     1.4530   1.4678   1.4789   1.4900   1.5191   1.5288   1.5413   1.5516
     1.5730   1.5849   1.6064   1.6214   1.6322   1.6462   1.6583   1.6815
     1.7038   1.7085   1.7775   1.7906   1.8175   1.8336   1.9082   1.9163
     2.1578   2.1788   2.2033   2.2139   2.2433   2.2780   2.6108   2.6188
     3.8199   3.8647   4.3627   4.3907   4.4939   4.5200   4.5926   4.6316
     5.1394   5.1764   5.2015   5.2202   5.2491   5.3017   5.3845   5.3969
     5.4354   5.4736   5.6848   5.6941   5.7420   5.7707   5.8040   5.8220
     6.4974   6.5100   6.7733   6.7881   7.1401   7.1807   7.2555   7.2770
     7.3414   7.3631   7.4293   7.4502   7.5265   7.5548   7.6611   7.6689
     7.6951   7.7076   7.7389   7.7661   7.8061   7.8354   7.8490   7.8828
     7.9052   7.9346   7.9496   7.9753   8.0428   8.0585   8.1111   8.1354
     8.1625   8.1906   8.2055   8.2316   8.2620   8.2942   8.3069   8.3234
     8.3396   8.3532   8.3782   8.3893   8.4137   8.4249   8.4521   8.4745
     8.4889   8.5025   8.5165   8.5276   8.5434   8.5544   8.5680   8.5787
     8.5872   8.6077   8.6264   8.6394   8.6510   8.6663   8.6957   8.7140
     8.7438   8.7516   8.7685   8.7964   8.8311   8.8475   8.8538   8.8617
     8.8712   8.8780   8.9300   8.9437   8.9513   8.9768   8.9853   9.0074
     9.0309   9.0445   9.1133   9.1349   9.1477   9.1605   9.1929   9.2123
     9.2253   9.2445   9.2530   9.2766   9.3048   9.3145   9.3643   9.3693
     9.3834   9.3963   9.4455   9.4567   9.4823   9.5036   9.5151   9.5301
     9.5406   9.5504   9.5622   9.5807   9.6081   9.6211   9.6304   9.6376
     9.6506   9.6647   9.6888   9.7066   9.7180   9.7322   9.7522   9.7585
     9.7960   9.8039   9.8676   9.8987

     occupation numbers 
     1.0000   1.0000   1.0000   1.0000   1.0000   1.0000   1.0000   1.0000
     1.0000   1.0000   1.0000   1.0000   1.0000   1.0000   1.0000   1.0000
     1.0000   1.0000   1.0000   1.0000   1.0000   1.0000   1.0000   1.0000
     1.0000   1.0000   1.0000   1.0000   1.0000   1.0000   1.0000   1.0000
     1.0000   1.0000   1.0000   1.0000   1.0000   1.0000   1.0000   1.0000
     1.0000   1.0000   1.0000   1.0000   1.0000   1.0000   1.0000   1.0000
     1.0000   1.0000   1.0000   1.0000   1.0000   1.0000   1.0000   1.0000
     1.0000   1.0000   1.0000   1.0000   1.0000   1.0000   1.0000   1.0000
     1.0000   1.0000   1.0000   1.0000   1.0000   1.0000   1.0000   1.0000
     1.0000   1.0000   1.0000   1.0000   1.0000   1.0000   1.0000   1.0000
     1.0000   1.0000   1.0000   1.0000   1.0000   1.0000   1.0000   1.0000
     1.0000   1.0000   1.0000   1.0000   1.0000   1.0000   1.0000   1.0000
     1.0000   1.0000   1.0000   1.0000   1.0000   1.0000   1.0000   1.0000
     1.0000   1.0000   1.0000   1.0000   1.0000   1.0000   1.0000   1.0000
     1.0000   1.0000   1.0000   1.0000   1.0000   1.0000   1.0000   1.0000
     1.0000   1.0000   1.0000   1.0000   1.0000   1.0000   1.0000   1.0000
     1.0000   1.0000   1.0000   1.0000   1.0000   1.0000   1.0000   1.0000
     1.0000   1.0000   1.0000   1.0000   1.0000   1.0000   1.0000   1.0000
     1.0000   1.0000   1.0000   1.0000   1.0000   1.0000   1.0000   1.0000
     1.0000   1.0000   1.0000   1.0000   1.0000   1.0000   1.0000   1.0000
     1.0000   1.0000   1.0000   1.0000   1.0000   1.0000   1.0000   1.0000
     1.0000   1.0000   1.0000   1.0000   1.0000   1.0000   1.0000   1.0000
     1.0000   1.0000   1.0000   1.0000   1.0000   1.0000   1.0000   1.0000
     1.0000   1.0000   1.0000   1.0000   1.0000   1.0000   1.0000   1.0000
     1.0000   1.0000   1.0000   1.0000   1.0000   1.0000   1.0000   1.0000
     1.0000   1.0000   1.0000   1.0000   1.0000   1.0000   1.0000   1.0000
     1.0000   1.0000   1.0000   1.0000   1.0000   1.0000   1.0000   1.0000
     1.0000   1.0000   1.0000   1.0000   1.0000   1.0000   1.0000   1.0000
     1.0000   1.0000   1.0000   1.0000   1.0000   1.0000   1.0000   1.0000
     1.0000   1.0000   1.0000   1.0000   1.0000   1.0000   1.0000   1.0000
     1.0000   1.0000   1.0000   1.0000   1.0000   1.0000   1.0000   1.0000
     1.0000   1.0000   1.0000   1.0000   1.0000   1.0000   1.0000   1.0000
     1.0000   1.0000   1.0000   1.0000   1.0000   1.0000   1.0000   1.0000
     1.0000   1.0000   1.0000   1.0000   1.0000   1.0000   1.0000   1.0000
     1.0000   1.0000   1.0000   1.0000   1.0000   1.0000   1.0000   1.0000
     1.0000   1.0000   1.0000   1.0000   1.0000   1.0000   1.0000   1.0000
     1.0000   1.0000   1.0000   1.0000   1.0000   1.0000   1.0000   1.0000
     1.0000   1.0000   1.0000   1.0000   1.0000   1.0000   1.0000   1.0000
     1.0000   1.0000   1.0000   1.0000   1.0000   1.0000   1.0000   1.0000
     1.0000   1.0000   1.0000   1.0000   1.0000   1.0000   1.0000   1.0000
     1.0000   1.0000   1.0000   1.0000   1.0000   1.0000   1.0000   1.0000
     1.0000   1.0000   1.0000   1.0000   1.0000   1.0000   1.0000   1.0000
     1.0000   1.0000   1.0000   1.0000   1.0000   1.0000   1.0000   1.0000
     1.0000   1.0000   1.0000   1.0000   1.0000   1.0000   1.0000   1.0000
     0.0000   0.0000   0.0000   0.0000   0.0000   0.0000   0.0000   0.0000
     0.0000   0.0000   0.0000   0.0000   0.0000   0.0000   0.0000   0.0000
     0.0000   0.0000   0.0000   0.0000   0.0000   0.0000   0.0000   0.0000
     0.0000   0.0000   0.0000   0.0000   0.0000   0.0000   0.0000   0.0000
     0.0000   0.0000   0.0000   0.0000   0.0000   0.0000   0.0000   0.0000
     0.0000   0.0000   0.0000   0.0000   0.0000   0.0000   0.0000   0.0000
     0.0000   0.0000   0.0000   0.0000   0.0000   0.0000   0.0000   0.0000
     0.0000   0.0000   0.0000   0.0000   0.0000   0.0000   0.0000   0.0000
     0.0000   0.0000   0.0000   0.0000   0.0000   0.0000   0.0000   0.0000
     0.0000   0.0000   0.0000   0.0000   0.0000   0.0000   0.0000   0.0000
     0.0000   0.0000   0.0000   0.0000   0.0000   0.0000   0.0000   0.0000
     0.0000   0.0000   0.0000   0.0000   0.0000   0.0000   0.0000   0.0000
     0.0000   0.0000   0.0000   0.0000   0.0000   0.0000   0.0000   0.0000
     0.0000   0.0000   0.0000   0.0000   0.0000   0.0000   0.0000   0.0000
     0.0000   0.0000   0.0000   0.0000   0.0000   0.0000   0.0000   0.0000
     0.0000   0.0000   0.0000   0.0000   0.0000   0.0000   0.0000   0.0000
     0.0000   0.0000   0.0000   0.0000   0.0000   0.0000   0.0000   0.0000
     0.0000   0.0000   0.0000   0.0000   0.0000   0.0000   0.0000   0.0000
     0.0000   0.0000   0.0000   0.0000

          k = 0.1000 0.0000 0.0000 ( 73864 PWs)   bands (ev):

   -18.1281 -18.1281 -18.0397 -18.0397 -17.9993 -17.9993 -17.9954 -17.9954
   -17.9651 -17.9651 -17.9608 -17.9608 -17.8047 -17.8047 -17.7796 -17.7796
   -15.3216 -15.3216 -15.3009 -15.3009 -15.2537 -15.2537 -15.2487 -15.2486
   -15.2402 -15.2401 -15.2350 -15.2350 -15.2229 -15.2229 -15.2149 -15.2149
   -15.1848 -15.1847 -15.1674 -15.1674 -15.0949 -15.0949 -15.0876 -15.0876
   -15.0735 -15.0734 -15.0685 -15.0685 -15.0092 -15.0092 -15.0005 -15.0005
   -12.7948 -12.7939 -12.7769 -12.7768 -12.7706 -12.7705 -12.7313 -12.7305
   -12.7275 -12.7272 -12.7190 -12.7189 -12.7137 -12.7126 -12.6990 -12.6990
   -12.6849 -12.6846 -12.6573 -12.6573 -12.6563 -12.6560 -12.6450 -12.6441
   -12.6407 -12.6405 -12.6336 -12.6335 -12.5939 -12.5934 -12.5900 -12.5899
   -12.5692 -12.5690 -12.5639 -12.5635 -12.5369 -12.5362 -12.5050 -12.5048
   -12.4982 -12.4981 -12.4910 -12.4909 -12.4879 -12.4877 -12.4173 -12.4172
   -11.4149 -11.4148 -11.3312 -11.3310 -11.2640 -11.2625 -11.2406 -11.2389
   -11.1901 -11.1886 -11.1557 -11.1552 -11.0944 -11.0936 -11.0781 -11.0769
   -11.0587 -11.0563 -11.0249 -11.0231 -11.0115 -11.0108 -10.9887 -10.9882
   -10.9767 -10.9757 -10.9136 -10.9128 -10.8942 -10.8936 -10.8693 -10.8670
   -10.8261 -10.8260 -10.7865 -10.7856 -10.7558 -10.7552 -10.6853 -10.6849
   -10.6403 -10.6399 -10.6288 -10.6283 -10.5735 -10.5731 -10.5355 -10.5355
    -6.0981  -6.0980  -6.0137  -6.0134  -5.9778  -5.9777  -5.9716  -5.9715
    -5.9414  -5.9412  -5.9350  -5.9349  -5.7958  -5.7957  -5.7735  -5.7734
    -5.3404  -5.3401  -4.9517  -4.9512  -4.8918  -4.8915  -4.8586  -4.8583
    -4.5083  -4.5061  -4.4975  -4.4964  -4.4795  -4.4749  -4.4704  -4.4666
    -4.4335  -4.4318  -4.4128  -4.4094  -4.3959  -4.3944  -4.3831  -4.3817
    -4.3764  -4.3753  -4.3659  -4.3646  -4.3550  -4.3541  -4.3468  -4.3459
    -4.3411  -4.3408  -4.3192  -4.3181  -4.3135  -4.3124  -4.2151  -4.2145
    -4.1899  -4.1892  -4.1866  -4.1859  -4.1754  -4.1747  -3.9663  -3.9651
    -1.0239  -0.9954  -0.8401  -0.8143  -0.7719  -0.7585  -0.7325  -0.7179
    -0.6964  -0.6875  -0.6390  -0.6289  -0.5973  -0.5896  -0.5385  -0.5315
    -0.4986  -0.4894  -0.4619  -0.4449  -0.3758  -0.3488  -0.3199  -0.3132
     0.2270   0.2375   0.2868   0.2993   0.3042   0.3076   0.4212   0.4260
     0.4525   0.4629   0.4877   0.5019   0.5129   0.5225   0.5240   0.5330
     0.5922   0.6042   0.6311   0.6409   0.6632   0.6798   0.7046   0.7213
     0.7498   0.7707   0.7806   0.7936   0.7994   0.8113   0.8268   0.8360
     0.8460   0.8629   0.8698   0.8813   0.8843   0.9024   0.9146   0.9295
     0.9380   0.9450   0.9522   0.9622   0.9758   0.9823   0.9943   1.0031
     1.0146   1.0256   1.0400   1.0497   1.0574   1.0690   1.0739   1.0847
     1.0978   1.1008   1.1077   1.1185   1.1274   1.1325   1.1446   1.1572
     1.1728   1.1802   1.1872   1.2016   1.2062   1.2195   1.2238   1.2343
     1.2509   1.2610   1.2802   1.2916   1.2981   1.3081   1.3172   1.3364
     1.3546   1.3628   1.3755   1.3898   1.3963   1.4128   1.4162   1.4281
     1.4550   1.4673   1.4797   1.4891   1.5207   1.5297   1.5428   1.5518
     1.5742   1.5847   1.6089   1.6214   1.6350   1.6464   1.6637   1.6831
     1.7067   1.7105   1.7817   1.7928   1.8191   1.8324   1.9104   1.9172
     2.1689   2.1890   2.2167   2.2248   2.2476   2.2787   2.6287   2.6357
     3.8043   3.8414   4.3570   4.3803   4.4832   4.5049   4.5804   4.6128
     5.1297   5.1608   5.1992   5.2193   5.2496   5.2862   5.3783   5.3903
     5.4150   5.4499   5.6847   5.6948   5.7281   5.7526   5.7856   5.8006
     6.4881   6.4975   6.7853   6.7968   7.1515   7.1848   7.2688   7.2868
     7.3565   7.3739   7.4542   7.4669   7.5361   7.5560   7.6632   7.6683
     7.6958   7.7073   7.7402   7.7633   7.8135   7.8362   7.8524   7.8849
     7.9126   7.9384   7.9543   7.9741   8.0454   8.0598   8.1197   8.1403
     8.1704   8.1945   8.2070   8.2315   8.2646   8.2986   8.3087   8.3268
     8.3401   8.3532   8.3826   8.3917   8.4161   8.4268   8.4517   8.4749
     8.4880   8.5015   8.5152   8.5286   8.5463   8.5560   8.5668   8.5788
     8.5872   8.6083   8.6270   8.6370   8.6545   8.6680   8.7018   8.7170
     8.7475   8.7567   8.7696   8.7977   8.8340   8.8517   8.8549   8.8623
     8.8709   8.8774   8.9348   8.9474   8.9568   8.9819   8.9866   9.0050
     9.0316   9.0432   9.1225   9.1448   9.1496   9.1705   9.2022   9.2178
     9.2354   9.2496   9.2647   9.2824   9.3081   9.3171   9.3633   9.3690
     9.3925   9.4030   9.4475   9.4561   9.4867   9.5057   9.5185   9.5324
     9.5468   9.5566   9.5685   9.5803   9.6143   9.6215   9.6292   9.6406
     9.6574   9.6659   9.6948   9.7103   9.7225   9.7352   9.7564   9.7646
     9.7988   9.8083   9.8682   9.8842

     occupation numbers 
     1.0000   1.0000   1.0000   1.0000   1.0000   1.0000   1.0000   1.0000
     1.0000   1.0000   1.0000   1.0000   1.0000   1.0000   1.0000   1.0000
     1.0000   1.0000   1.0000   1.0000   1.0000   1.0000   1.0000   1.0000
     1.0000   1.0000   1.0000   1.0000   1.0000   1.0000   1.0000   1.0000
     1.0000   1.0000   1.0000   1.0000   1.0000   1.0000   1.0000   1.0000
     1.0000   1.0000   1.0000   1.0000   1.0000   1.0000   1.0000   1.0000
     1.0000   1.0000   1.0000   1.0000   1.0000   1.0000   1.0000   1.0000
     1.0000   1.0000   1.0000   1.0000   1.0000   1.0000   1.0000   1.0000
     1.0000   1.0000   1.0000   1.0000   1.0000   1.0000   1.0000   1.0000
     1.0000   1.0000   1.0000   1.0000   1.0000   1.0000   1.0000   1.0000
     1.0000   1.0000   1.0000   1.0000   1.0000   1.0000   1.0000   1.0000
     1.0000   1.0000   1.0000   1.0000   1.0000   1.0000   1.0000   1.0000
     1.0000   1.0000   1.0000   1.0000   1.0000   1.0000   1.0000   1.0000
     1.0000   1.0000   1.0000   1.0000   1.0000   1.0000   1.0000   1.0000
     1.0000   1.0000   1.0000   1.0000   1.0000   1.0000   1.0000   1.0000
     1.0000   1.0000   1.0000   1.0000   1.0000   1.0000   1.0000   1.0000
     1.0000   1.0000   1.0000   1.0000   1.0000   1.0000   1.0000   1.0000
     1.0000   1.0000   1.0000   1.0000   1.0000   1.0000   1.0000   1.0000
     1.0000   1.0000   1.0000   1.0000   1.0000   1.0000   1.0000   1.0000
     1.0000   1.0000   1.0000   1.0000   1.0000   1.0000   1.0000   1.0000
     1.0000   1.0000   1.0000   1.0000   1.0000   1.0000   1.0000   1.0000
     1.0000   1.0000   1.0000   1.0000   1.0000   1.0000   1.0000   1.0000
     1.0000   1.0000   1.0000   1.0000   1.0000   1.0000   1.0000   1.0000
     1.0000   1.0000   1.0000   1.0000   1.0000   1.0000   1.0000   1.0000
     1.0000   1.0000   1.0000   1.0000   1.0000   1.0000   1.0000   1.0000
     1.0000   1.0000   1.0000   1.0000   1.0000   1.0000   1.0000   1.0000
     1.0000   1.0000   1.0000   1.0000   1.0000   1.0000   1.0000   1.0000
     1.0000   1.0000   1.0000   1.0000   1.0000   1.0000   1.0000   1.0000
     1.0000   1.0000   1.0000   1.0000   1.0000   1.0000   1.0000   1.0000
     1.0000   1.0000   1.0000   1.0000   1.0000   1.0000   1.0000   1.0000
     1.0000   1.0000   1.0000   1.0000   1.0000   1.0000   1.0000   1.0000
     1.0000   1.0000   1.0000   1.0000   1.0000   1.0000   1.0000   1.0000
     1.0000   1.0000   1.0000   1.0000   1.0000   1.0000   1.0000   1.0000
     1.0000   1.0000   1.0000   1.0000   1.0000   1.0000   1.0000   1.0000
     1.0000   1.0000   1.0000   1.0000   1.0000   1.0000   1.0000   1.0000
     1.0000   1.0000   1.0000   1.0000   1.0000   1.0000   1.0000   1.0000
     1.0000   1.0000   1.0000   1.0000   1.0000   1.0000   1.0000   1.0000
     1.0000   1.0000   1.0000   1.0000   1.0000   1.0000   1.0000   1.0000
     1.0000   1.0000   1.0000   1.0000   1.0000   1.0000   1.0000   1.0000
     1.0000   1.0000   1.0000   1.0000   1.0000   1.0000   1.0000   1.0000
     1.0000   1.0000   1.0000   1.0000   1.0000   1.0000   1.0000   1.0000
     1.0000   1.0000   1.0000   1.0000   1.0000   1.0000   1.0000   1.0000
     1.0000   1.0000   1.0000   1.0000   1.0000   1.0000   1.0000   1.0000
     1.0000   1.0000   1.0000   1.0000   1.0000   1.0000   1.0000   1.0000
     0.0000   0.0000   0.0000   0.0000   0.0000   0.0000   0.0000   0.0000
     0.0000   0.0000   0.0000   0.0000   0.0000   0.0000   0.0000   0.0000
     0.0000   0.0000   0.0000   0.0000   0.0000   0.0000   0.0000   0.0000
     0.0000   0.0000   0.0000   0.0000   0.0000   0.0000   0.0000   0.0000
     0.0000   0.0000   0.0000   0.0000   0.0000   0.0000   0.0000   0.0000
     0.0000   0.0000   0.0000   0.0000   0.0000   0.0000   0.0000   0.0000
     0.0000   0.0000   0.0000   0.0000   0.0000   0.0000   0.0000   0.0000
     0.0000   0.0000   0.0000   0.0000   0.0000   0.0000   0.0000   0.0000
     0.0000   0.0000   0.0000   0.0000   0.0000   0.0000   0.0000   0.0000
     0.0000   0.0000   0.0000   0.0000   0.0000   0.0000   0.0000   0.0000
     0.0000   0.0000   0.0000   0.0000   0.0000   0.0000   0.0000   0.0000
     0.0000   0.0000   0.0000   0.0000   0.0000   0.0000   0.0000   0.0000
     0.0000   0.0000   0.0000   0.0000   0.0000   0.0000   0.0000   0.0000
     0.0000   0.0000   0.0000   0.0000   0.0000   0.0000   0.0000   0.0000
     0.0000   0.0000   0.0000   0.0000   0.0000   0.0000   0.0000   0.0000
     0.0000   0.0000   0.0000   0.0000   0.0000   0.0000   0.0000   0.0000
     0.0000   0.0000   0.0000   0.0000   0.0000   0.0000   0.0000   0.0000
     0.0000   0.0000   0.0000   0.0000   0.0000   0.0000   0.0000   0.0000
     0.0000   0.0000   0.0000   0.0000

          k = 0.0750 0.0000 0.0000 ( 73848 PWs)   bands (ev):

   -18.1281 -18.1281 -18.0397 -18.0397 -17.9993 -17.9993 -17.9954 -17.9954
   -17.9651 -17.9651 -17.9608 -17.9608 -17.8047 -17.8047 -17.7796 -17.7796
   -15.3216 -15.3216 -15.3009 -15.3009 -15.2537 -15.2537 -15.2487 -15.2486
   -15.2402 -15.2401 -15.2350 -15.2350 -15.2229 -15.2229 -15.2149 -15.2149
   -15.1847 -15.1847 -15.1674 -15.1674 -15.0949 -15.0949 -15.0876 -15.0876
   -15.0735 -15.0734 -15.0685 -15.0685 -15.0092 -15.0092 -15.0005 -15.0005
   -12.7950 -12.7943 -12.7768 -12.7768 -12.7706 -12.7706 -12.7313 -12.7307
   -12.7275 -12.7272 -12.7190 -12.7189 -12.7134 -12.7125 -12.6990 -12.6990
   -12.6849 -12.6847 -12.6573 -12.6573 -12.6562 -12.6560 -12.6448 -12.6441
   -12.6407 -12.6405 -12.6336 -12.6335 -12.5939 -12.5936 -12.5900 -12.5899
   -12.5692 -12.5691 -12.5639 -12.5637 -12.5366 -12.5361 -12.5050 -12.5048
   -12.4982 -12.4981 -12.4910 -12.4909 -12.4878 -12.4877 -12.4173 -12.4172
   -11.4153 -11.4152 -11.3309 -11.3307 -11.2625 -11.2611 -11.2415 -11.2401
   -11.1893 -11.1881 -11.1555 -11.1551 -11.0945 -11.0940 -11.0769 -11.0757
   -11.0602 -11.0582 -11.0250 -11.0237 -11.0117 -11.0111 -10.9888 -10.9884
   -10.9766 -10.9758 -10.9131 -10.9125 -10.8941 -10.8935 -10.8701 -10.8684
   -10.8262 -10.8261 -10.7861 -10.7855 -10.7558 -10.7553 -10.6852 -10.6849
   -10.6403 -10.6400 -10.6286 -10.6283 -10.5728 -10.5726 -10.5355 -10.5355
    -6.0981  -6.0981  -6.0136  -6.0135  -5.9778  -5.9777  -5.9715  -5.9714
    -5.9414  -5.9412  -5.9350  -5.9349  -5.7958  -5.7957  -5.7735  -5.7734
    -5.3441  -5.3438  -4.9484  -4.9481  -4.8948  -4.8945  -4.8613  -4.8610
    -4.5074  -4.5060  -4.4957  -4.4948  -4.4760  -4.4708  -4.4686  -4.4640
    -4.4344  -4.4331  -4.4123  -4.4096  -4.3963  -4.3950  -4.3831  -4.3819
    -4.3763  -4.3753  -4.3658  -4.3647  -4.3549  -4.3542  -4.3467  -4.3461
    -4.3409  -4.3407  -4.3190  -4.3182  -4.3133  -4.3124  -4.2150  -4.2146
    -4.1898  -4.1893  -4.1866  -4.1861  -4.1752  -4.1747  -3.9599  -3.9590
    -1.0220  -0.9991  -0.8431  -0.8220  -0.7760  -0.7663  -0.7367  -0.7261
    -0.6969  -0.6911  -0.6440  -0.6370  -0.5992  -0.5940  -0.5407  -0.5353
    -0.5003  -0.4941  -0.4639  -0.4507  -0.3784  -0.3584  -0.3242  -0.3198
     0.2277   0.2355   0.2876   0.2979   0.3032   0.3058   0.4237   0.4273
     0.4564   0.4638   0.4917   0.5031   0.5164   0.5235   0.5273   0.5348
     0.5971   0.6064   0.6369   0.6442   0.6675   0.6812   0.7089   0.7230
     0.7551   0.7738   0.7840   0.7967   0.8023   0.8140   0.8275   0.8340
     0.8493   0.8642   0.8728   0.8827   0.8872   0.9021   0.9165   0.9297
     0.9412   0.9463   0.9511   0.9630   0.9761   0.9821   0.9957   1.0046
     1.0153   1.0286   1.0423   1.0492   1.0576   1.0675   1.0756   1.0850
     1.0988   1.1006   1.1083   1.1181   1.1282   1.1335   1.1455   1.1578
     1.1713   1.1808   1.1854   1.1976   1.2069   1.2195   1.2239   1.2321
     1.2521   1.2604   1.2809   1.2903   1.2994   1.3074   1.3188   1.3342
     1.3563   1.3650   1.3742   1.3872   1.3987   1.4121   1.4167   1.4263
     1.4569   1.4665   1.4806   1.4880   1.5224   1.5299   1.5444   1.5517
     1.5756   1.5841   1.6113   1.6208   1.6374   1.6461   1.6687   1.6835
     1.7092   1.7122   1.7859   1.7945   1.8210   1.8311   1.9124   1.9178
     2.1779   2.1950   2.2275   2.2333   2.2544   2.2791   2.6438   2.6494
     3.7925   3.8212   4.3514   4.3691   4.4757   4.4924   4.5723   4.5972
     5.1211   5.1440   5.2003   5.2175   5.2511   5.2751   5.3721   5.3817
     5.4043   5.4318   5.6829   5.6923   5.7211   5.7389   5.7726   5.7838
     6.4807   6.4874   6.7949   6.8034   7.1607   7.1859   7.2794   7.2935
     7.3682   7.3814   7.4737   7.4805   7.5442   7.5572   7.6639   7.6674
     7.6969   7.7066   7.7425   7.7605   7.8197   7.8358   7.8569   7.8835
     7.9206   7.9410   7.9601   7.9738   8.0482   8.0603   8.1275   8.1435
     8.1785   8.1980   8.2074   8.2292   8.2694   8.3008   8.3112   8.3277
     8.3427   8.3536   8.3849   8.3935   8.4170   8.4279   8.4527   8.4742
     8.4880   8.5009   8.5134   8.5283   8.5482   8.5565   8.5675   8.5778
     8.5882   8.6080   8.6280   8.6356   8.6576   8.6688   8.7080   8.7205
     8.7491   8.7601   8.7727   8.7976   8.8372   8.8541   8.8570   8.8632
     8.8700   8.8769   8.9388   8.9504   8.9629   8.9842   8.9893   9.0020
     9.0320   9.0413   9.1295   9.1474   9.1573   9.1795   9.2117   9.2217
     9.2388   9.2571   9.2754   9.2903   9.3105   9.3193   9.3615   9.3675
     9.3996   9.4079   9.4479   9.4534   9.4915   9.5067   9.5214   9.5314
     9.5513   9.5626   9.5736   9.5819   9.6157   9.6245   9.6292   9.6440
     9.6637   9.6712   9.6994   9.7109   9.7288   9.7371   9.7607   9.7710
     9.8025   9.8138   9.8621   9.8664

     occupation numbers 
     1.0000   1.0000   1.0000   1.0000   1.0000   1.0000   1.0000   1.0000
     1.0000   1.0000   1.0000   1.0000   1.0000   1.0000   1.0000   1.0000
     1.0000   1.0000   1.0000   1.0000   1.0000   1.0000   1.0000   1.0000
     1.0000   1.0000   1.0000   1.0000   1.0000   1.0000   1.0000   1.0000
     1.0000   1.0000   1.0000   1.0000   1.0000   1.0000   1.0000   1.0000
     1.0000   1.0000   1.0000   1.0000   1.0000   1.0000   1.0000   1.0000
     1.0000   1.0000   1.0000   1.0000   1.0000   1.0000   1.0000   1.0000
     1.0000   1.0000   1.0000   1.0000   1.0000   1.0000   1.0000   1.0000
     1.0000   1.0000   1.0000   1.0000   1.0000   1.0000   1.0000   1.0000
     1.0000   1.0000   1.0000   1.0000   1.0000   1.0000   1.0000   1.0000
     1.0000   1.0000   1.0000   1.0000   1.0000   1.0000   1.0000   1.0000
     1.0000   1.0000   1.0000   1.0000   1.0000   1.0000   1.0000   1.0000
     1.0000   1.0000   1.0000   1.0000   1.0000   1.0000   1.0000   1.0000
     1.0000   1.0000   1.0000   1.0000   1.0000   1.0000   1.0000   1.0000
     1.0000   1.0000   1.0000   1.0000   1.0000   1.0000   1.0000   1.0000
     1.0000   1.0000   1.0000   1.0000   1.0000   1.0000   1.0000   1.0000
     1.0000   1.0000   1.0000   1.0000   1.0000   1.0000   1.0000   1.0000
     1.0000   1.0000   1.0000   1.0000   1.0000   1.0000   1.0000   1.0000
     1.0000   1.0000   1.0000   1.0000   1.0000   1.0000   1.0000   1.0000
     1.0000   1.0000   1.0000   1.0000   1.0000   1.0000   1.0000   1.0000
     1.0000   1.0000   1.0000   1.0000   1.0000   1.0000   1.0000   1.0000
     1.0000   1.0000   1.0000   1.0000   1.0000   1.0000   1.0000   1.0000
     1.0000   1.0000   1.0000   1.0000   1.0000   1.0000   1.0000   1.0000
     1.0000   1.0000   1.0000   1.0000   1.0000   1.0000   1.0000   1.0000
     1.0000   1.0000   1.0000   1.0000   1.0000   1.0000   1.0000   1.0000
     1.0000   1.0000   1.0000   1.0000   1.0000   1.0000   1.0000   1.0000
     1.0000   1.0000   1.0000   1.0000   1.0000   1.0000   1.0000   1.0000
     1.0000   1.0000   1.0000   1.0000   1.0000   1.0000   1.0000   1.0000
     1.0000   1.0000   1.0000   1.0000   1.0000   1.0000   1.0000   1.0000
     1.0000   1.0000   1.0000   1.0000   1.0000   1.0000   1.0000   1.0000
     1.0000   1.0000   1.0000   1.0000   1.0000   1.0000   1.0000   1.0000
     1.0000   1.0000   1.0000   1.0000   1.0000   1.0000   1.0000   1.0000
     1.0000   1.0000   1.0000   1.0000   1.0000   1.0000   1.0000   1.0000
     1.0000   1.0000   1.0000   1.0000   1.0000   1.0000   1.0000   1.0000
     1.0000   1.0000   1.0000   1.0000   1.0000   1.0000   1.0000   1.0000
     1.0000   1.0000   1.0000   1.0000   1.0000   1.0000   1.0000   1.0000
     1.0000   1.0000   1.0000   1.0000   1.0000   1.0000   1.0000   1.0000
     1.0000   1.0000   1.0000   1.0000   1.0000   1.0000   1.0000   1.0000
     1.0000   1.0000   1.0000   1.0000   1.0000   1.0000   1.0000   1.0000
     1.0000   1.0000   1.0000   1.0000   1.0000   1.0000   1.0000   1.0000
     1.0000   1.0000   1.0000   1.0000   1.0000   1.0000   1.0000   1.0000
     1.0000   1.0000   1.0000   1.0000   1.0000   1.0000   1.0000   1.0000
     1.0000   1.0000   1.0000   1.0000   1.0000   1.0000   1.0000   1.0000
     1.0000   1.0000   1.0000   1.0000   1.0000   1.0000   1.0000   1.0000
     0.0000   0.0000   0.0000   0.0000   0.0000   0.0000   0.0000   0.0000
     0.0000   0.0000   0.0000   0.0000   0.0000   0.0000   0.0000   0.0000
     0.0000   0.0000   0.0000   0.0000   0.0000   0.0000   0.0000   0.0000
     0.0000   0.0000   0.0000   0.0000   0.0000   0.0000   0.0000   0.0000
     0.0000   0.0000   0.0000   0.0000   0.0000   0.0000   0.0000   0.0000
     0.0000   0.0000   0.0000   0.0000   0.0000   0.0000   0.0000   0.0000
     0.0000   0.0000   0.0000   0.0000   0.0000   0.0000   0.0000   0.0000
     0.0000   0.0000   0.0000   0.0000   0.0000   0.0000   0.0000   0.0000
     0.0000   0.0000   0.0000   0.0000   0.0000   0.0000   0.0000   0.0000
     0.0000   0.0000   0.0000   0.0000   0.0000   0.0000   0.0000   0.0000
     0.0000   0.0000   0.0000   0.0000   0.0000   0.0000   0.0000   0.0000
     0.0000   0.0000   0.0000   0.0000   0.0000   0.0000   0.0000   0.0000
     0.0000   0.0000   0.0000   0.0000   0.0000   0.0000   0.0000   0.0000
     0.0000   0.0000   0.0000   0.0000   0.0000   0.0000   0.0000   0.0000
     0.0000   0.0000   0.0000   0.0000   0.0000   0.0000   0.0000   0.0000
     0.0000   0.0000   0.0000   0.0000   0.0000   0.0000   0.0000   0.0000
     0.0000   0.0000   0.0000   0.0000   0.0000   0.0000   0.0000   0.0000
     0.0000   0.0000   0.0000   0.0000   0.0000   0.0000   0.0000   0.0000
     0.0000   0.0000   0.0000   0.0000

          k = 0.0500 0.0000 0.0000 ( 73876 PWs)   bands (ev):

   -18.1281 -18.1281 -18.0397 -18.0397 -17.9993 -17.9993 -17.9954 -17.9954
   -17.9651 -17.9651 -17.9608 -17.9608 -17.8047 -17.8047 -17.7796 -17.7796
   -15.3216 -15.3216 -15.3009 -15.3009 -15.2537 -15.2537 -15.2487 -15.2486
   -15.2402 -15.2401 -15.2350 -15.2350 -15.2229 -15.2229 -15.2149 -15.2149
   -15.1847 -15.1847 -15.1674 -15.1674 -15.0949 -15.0949 -15.0876 -15.0876
   -15.0735 -15.0734 -15.0685 -15.0685 -15.0092 -15.0092 -15.0005 -15.0005
   -12.7951 -12.7946 -12.7768 -12.7768 -12.7706 -12.7706 -12.7312 -12.7308
   -12.7275 -12.7273 -12.7189 -12.7189 -12.7131 -12.7125 -12.6990 -12.6990
   -12.6849 -12.6848 -12.6573 -12.6573 -12.6561 -12.6560 -12.6446 -12.6441
   -12.6406 -12.6405 -12.6336 -12.6335 -12.5940 -12.5937 -12.5900 -12.5899
   -12.5692 -12.5691 -12.5639 -12.5638 -12.5363 -12.5360 -12.5049 -12.5048
   -12.4982 -12.4981 -12.4910 -12.4909 -12.4877 -12.4876 -12.4173 -12.4172
   -11.4156 -11.4155 -11.3307 -11.3306 -11.2611 -11.2601 -11.2423 -11.2412
   -11.1886 -11.1877 -11.1553 -11.1550 -11.0946 -11.0942 -11.0757 -11.0748
   -11.0614 -11.0599 -11.0250 -11.0241 -11.0117 -11.0113 -10.9888 -10.9885
   -10.9765 -10.9760 -10.9128 -10.9123 -10.8939 -10.8935 -10.8706 -10.8694
   -10.8263 -10.8262 -10.7858 -10.7854 -10.7558 -10.7555 -10.6851 -10.6849
   -10.6403 -10.6402 -10.6285 -10.6282 -10.5724 -10.5722 -10.5355 -10.5355
    -6.0981  -6.0981  -6.0136  -6.0135  -5.9779  -5.9778  -5.9715  -5.9714
    -5.9413  -5.9412  -5.9350  -5.9349  -5.7958  -5.7957  -5.7734  -5.7734
    -5.3467  -5.3465  -4.9464  -4.9461  -4.8967  -4.8966  -4.8631  -4.8629
    -4.5069  -4.5060  -4.4945  -4.4938  -4.4735  -4.4698  -4.4654  -4.4620
    -4.4348  -4.4339  -4.4118  -4.4099  -4.3964  -4.3955  -4.3829  -4.3821
    -4.3761  -4.3754  -4.3657  -4.3649  -4.3547  -4.3542  -4.3467  -4.3462
    -4.3408  -4.3406  -4.3188  -4.3183  -4.3131  -4.3125  -4.2149  -4.2146
    -4.1897  -4.1893  -4.1865  -4.1862  -4.1751  -4.1747  -3.9553  -3.9547
    -1.0193  -1.0033  -0.8441  -0.8292  -0.7788  -0.7724  -0.7395  -0.7327
    -0.6970  -0.6935  -0.6473  -0.6430  -0.6004  -0.5973  -0.5419  -0.5383
    -0.5017  -0.4980  -0.4644  -0.4555  -0.3792  -0.3661  -0.3269  -0.3243
     0.2286   0.2338   0.2888   0.2960   0.3027   0.3045   0.4256   0.4280
     0.4593   0.4641   0.4951   0.5031   0.5191   0.5236   0.5307   0.5358
     0.6008   0.6071   0.6411   0.6460   0.6716   0.6812   0.7133   0.7234
     0.7604   0.7744   0.7865   0.7961   0.8080   0.8166   0.8271   0.8321
     0.8526   0.8636   0.8761   0.8830   0.8904   0.9011   0.9185   0.9281
     0.9432   0.9481   0.9519   0.9634   0.9761   0.9820   0.9967   1.0045
     1.0176   1.0302   1.0438   1.0482   1.0587   1.0653   1.0775   1.0848
     1.0997   1.1007   1.1095   1.1170   1.1291   1.1335   1.1477   1.1575
     1.1712   1.1819   1.1832   1.1936   1.2084   1.2178   1.2249   1.2304
     1.2536   1.2594   1.2820   1.2887   1.3008   1.3064   1.3210   1.3316
     1.3584   1.3662   1.3737   1.3841   1.4014   1.4107   1.4178   1.4245
     1.4587   1.4653   1.4817   1.4868   1.5241   1.5295   1.5461   1.5512
     1.5772   1.5832   1.6136   1.6200   1.6396   1.6454   1.6731   1.6830
     1.7113   1.7134   1.7895   1.7955   1.8230   1.8298   1.9142   1.9179
     2.1851   2.1973   2.2356   2.2396   2.2620   2.2788   2.6555   2.6595
     3.7851   3.8047   4.3471   4.3590   4.4712   4.4824   4.5683   4.5851
     5.1149   5.1298   5.2024   5.2147   5.2530   5.2675   5.3666   5.3723
     5.4013   5.4190   5.6805   5.6876   5.7189   5.7296   5.7645   5.7717
     6.4756   6.4799   6.8021   6.8078   7.1682   7.1850   7.2875   7.2972
     7.3768   7.3858   7.4873   7.4905   7.5505   7.5582   7.6641   7.6664
     7.6985   7.7055   7.7453   7.7577   7.8245   7.8347   7.8620   7.8805
     7.9276   7.9416   7.9658   7.9742   8.0512   8.0600   8.1341   8.1449
     8.1865   8.2010   8.2070   8.2246   8.2762   8.2997   8.3147   8.3267
     8.3466   8.3541   8.3860   8.3936   8.4180   8.4271   8.4556   8.4721
     8.4891   8.5000   8.5125   8.5259   8.5501   8.5566   8.5686   8.5758
     8.5907   8.6060   8.6298   8.6350   8.6603   8.6684   8.7139   8.7237
     8.7500   8.7604   8.7777   8.7959   8.8408   8.8534   8.8600   8.8647
     8.8694   8.8761   8.9426   8.9517   8.9691   8.9840   8.9925   8.9993
     9.0325   9.0390   9.1346   9.1462   9.1672   9.1849   9.2194   9.2257
     9.2407   9.2600   9.2864   9.2988   9.3123   9.3209   9.3600   9.3652
     9.4040   9.4099   9.4471   9.4503   9.4971   9.5074   9.5226   9.5291
     9.5555   9.5654   9.5782   9.5843   9.6152   9.6242   9.6347   9.6471
     9.6698   9.6786   9.7013   9.7088   9.7337   9.7387   9.7657   9.7776
     9.8091   9.8206   9.8465   9.8556

     occupation numbers 
     1.0000   1.0000   1.0000   1.0000   1.0000   1.0000   1.0000   1.0000
     1.0000   1.0000   1.0000   1.0000   1.0000   1.0000   1.0000   1.0000
     1.0000   1.0000   1.0000   1.0000   1.0000   1.0000   1.0000   1.0000
     1.0000   1.0000   1.0000   1.0000   1.0000   1.0000   1.0000   1.0000
     1.0000   1.0000   1.0000   1.0000   1.0000   1.0000   1.0000   1.0000
     1.0000   1.0000   1.0000   1.0000   1.0000   1.0000   1.0000   1.0000
     1.0000   1.0000   1.0000   1.0000   1.0000   1.0000   1.0000   1.0000
     1.0000   1.0000   1.0000   1.0000   1.0000   1.0000   1.0000   1.0000
     1.0000   1.0000   1.0000   1.0000   1.0000   1.0000   1.0000   1.0000
     1.0000   1.0000   1.0000   1.0000   1.0000   1.0000   1.0000   1.0000
     1.0000   1.0000   1.0000   1.0000   1.0000   1.0000   1.0000   1.0000
     1.0000   1.0000   1.0000   1.0000   1.0000   1.0000   1.0000   1.0000
     1.0000   1.0000   1.0000   1.0000   1.0000   1.0000   1.0000   1.0000
     1.0000   1.0000   1.0000   1.0000   1.0000   1.0000   1.0000   1.0000
     1.0000   1.0000   1.0000   1.0000   1.0000   1.0000   1.0000   1.0000
     1.0000   1.0000   1.0000   1.0000   1.0000   1.0000   1.0000   1.0000
     1.0000   1.0000   1.0000   1.0000   1.0000   1.0000   1.0000   1.0000
     1.0000   1.0000   1.0000   1.0000   1.0000   1.0000   1.0000   1.0000
     1.0000   1.0000   1.0000   1.0000   1.0000   1.0000   1.0000   1.0000
     1.0000   1.0000   1.0000   1.0000   1.0000   1.0000   1.0000   1.0000
     1.0000   1.0000   1.0000   1.0000   1.0000   1.0000   1.0000   1.0000
     1.0000   1.0000   1.0000   1.0000   1.0000   1.0000   1.0000   1.0000
     1.0000   1.0000   1.0000   1.0000   1.0000   1.0000   1.0000   1.0000
     1.0000   1.0000   1.0000   1.0000   1.0000   1.0000   1.0000   1.0000
     1.0000   1.0000   1.0000   1.0000   1.0000   1.0000   1.0000   1.0000
     1.0000   1.0000   1.0000   1.0000   1.0000   1.0000   1.0000   1.0000
     1.0000   1.0000   1.0000   1.0000   1.0000   1.0000   1.0000   1.0000
     1.0000   1.0000   1.0000   1.0000   1.0000   1.0000   1.0000   1.0000
     1.0000   1.0000   1.0000   1.0000   1.0000   1.0000   1.0000   1.0000
     1.0000   1.0000   1.0000   1.0000   1.0000   1.0000   1.0000   1.0000
     1.0000   1.0000   1.0000   1.0000   1.0000   1.0000   1.0000   1.0000
     1.0000   1.0000   1.0000   1.0000   1.0000   1.0000   1.0000   1.0000
     1.0000   1.0000   1.0000   1.0000   1.0000   1.0000   1.0000   1.0000
     1.0000   1.0000   1.0000   1.0000   1.0000   1.0000   1.0000   1.0000
     1.0000   1.0000   1.0000   1.0000   1.0000   1.0000   1.0000   1.0000
     1.0000   1.0000   1.0000   1.0000   1.0000   1.0000   1.0000   1.0000
     1.0000   1.0000   1.0000   1.0000   1.0000   1.0000   1.0000   1.0000
     1.0000   1.0000   1.0000   1.0000   1.0000   1.0000   1.0000   1.0000
     1.0000   1.0000   1.0000   1.0000   1.0000   1.0000   1.0000   1.0000
     1.0000   1.0000   1.0000   1.0000   1.0000   1.0000   1.0000   1.0000
     1.0000   1.0000   1.0000   1.0000   1.0000   1.0000   1.0000   1.0000
     1.0000   1.0000   1.0000   1.0000   1.0000   1.0000   1.0000   1.0000
     1.0000   1.0000   1.0000   1.0000   1.0000   1.0000   1.0000   1.0000
     1.0000   1.0000   1.0000   1.0000   1.0000   1.0000   1.0000   1.0000
     0.0000   0.0000   0.0000   0.0000   0.0000   0.0000   0.0000   0.0000
     0.0000   0.0000   0.0000   0.0000   0.0000   0.0000   0.0000   0.0000
     0.0000   0.0000   0.0000   0.0000   0.0000   0.0000   0.0000   0.0000
     0.0000   0.0000   0.0000   0.0000   0.0000   0.0000   0.0000   0.0000
     0.0000   0.0000   0.0000   0.0000   0.0000   0.0000   0.0000   0.0000
     0.0000   0.0000   0.0000   0.0000   0.0000   0.0000   0.0000   0.0000
     0.0000   0.0000   0.0000   0.0000   0.0000   0.0000   0.0000   0.0000
     0.0000   0.0000   0.0000   0.0000   0.0000   0.0000   0.0000   0.0000
     0.0000   0.0000   0.0000   0.0000   0.0000   0.0000   0.0000   0.0000
     0.0000   0.0000   0.0000   0.0000   0.0000   0.0000   0.0000   0.0000
     0.0000   0.0000   0.0000   0.0000   0.0000   0.0000   0.0000   0.0000
     0.0000   0.0000   0.0000   0.0000   0.0000   0.0000   0.0000   0.0000
     0.0000   0.0000   0.0000   0.0000   0.0000   0.0000   0.0000   0.0000
     0.0000   0.0000   0.0000   0.0000   0.0000   0.0000   0.0000   0.0000
     0.0000   0.0000   0.0000   0.0000   0.0000   0.0000   0.0000   0.0000
     0.0000   0.0000   0.0000   0.0000   0.0000   0.0000   0.0000   0.0000
     0.0000   0.0000   0.0000   0.0000   0.0000   0.0000   0.0000   0.0000
     0.0000   0.0000   0.0000   0.0000   0.0000   0.0000   0.0000   0.0000
     0.0000   0.0000   0.0000   0.0000

          k = 0.0250 0.0000 0.0000 ( 73929 PWs)   bands (ev):

   -18.1281 -18.1281 -18.0397 -18.0397 -17.9993 -17.9993 -17.9954 -17.9954
   -17.9651 -17.9651 -17.9608 -17.9608 -17.8047 -17.8047 -17.7796 -17.7796
   -15.3216 -15.3216 -15.3009 -15.3009 -15.2537 -15.2537 -15.2487 -15.2486
   -15.2402 -15.2402 -15.2350 -15.2350 -15.2229 -15.2229 -15.2149 -15.2149
   -15.1847 -15.1847 -15.1674 -15.1674 -15.0949 -15.0949 -15.0876 -15.0876
   -15.0735 -15.0735 -15.0685 -15.0685 -15.0092 -15.0092 -15.0005 -15.0005
   -12.7950 -12.7948 -12.7768 -12.7768 -12.7706 -12.7706 -12.7312 -12.7310
   -12.7274 -12.7274 -12.7189 -12.7189 -12.7129 -12.7126 -12.6990 -12.6990
   -12.6849 -12.6848 -12.6573 -12.6573 -12.6561 -12.6560 -12.6445 -12.6442
   -12.6406 -12.6405 -12.6336 -12.6336 -12.5940 -12.5938 -12.5900 -12.5900
   -12.5692 -12.5692 -12.5639 -12.5639 -12.5361 -12.5360 -12.5049 -12.5049
   -12.4982 -12.4981 -12.4910 -12.4909 -12.4877 -12.4876 -12.4173 -12.4173
   -11.4157 -11.4157 -11.3305 -11.3305 -11.2601 -11.2596 -11.2426 -11.2420
   -11.1881 -11.1876 -11.1551 -11.1550 -11.0947 -11.0945 -11.0748 -11.0743
   -11.0620 -11.0612 -11.0249 -11.0245 -11.0117 -11.0115 -10.9887 -10.9886
   -10.9764 -10.9762 -10.9125 -10.9123 -10.8937 -10.8935 -10.8709 -10.8702
   -10.8263 -10.8262 -10.7856 -10.7854 -10.7557 -10.7556 -10.6850 -10.6849
   -10.6403 -10.6402 -10.6284 -10.6282 -10.5720 -10.5720 -10.5355 -10.5355
    -6.0981  -6.0981  -6.0136  -6.0135  -5.9779  -5.9778  -5.9714  -5.9714
    -5.9413  -5.9412  -5.9350  -5.9349  -5.7957  -5.7957  -5.7734  -5.7734
    -5.3483  -5.3482  -4.9452  -4.9451  -4.8978  -4.8977  -4.8641  -4.8640
    -4.5065  -4.5061  -4.4937  -4.4934  -4.4718  -4.4700  -4.4628  -4.4611
    -4.4349  -4.4344  -4.4112  -4.4102  -4.3964  -4.3960  -4.3827  -4.3823
    -4.3759  -4.3756  -4.3655  -4.3651  -4.3545  -4.3543  -4.3466  -4.3464
    -4.3407  -4.3406  -4.3187  -4.3184  -4.3130  -4.3127  -4.2148  -4.2147
    -4.1896  -4.1894  -4.1864  -4.1863  -4.1749  -4.1747  -3.9524  -3.9521
    -1.0160  -1.0077  -0.8431  -0.8354  -0.7799  -0.7767  -0.7406  -0.7373
    -0.6968  -0.6951  -0.6489  -0.6469  -0.6009  -0.5994  -0.5422  -0.5404
    -0.5024  -0.5007  -0.4637  -0.4592  -0.3784  -0.3719  -0.3282  -0.3270
     0.2296   0.2322   0.2903   0.2940   0.3026   0.3035   0.4269   0.4281
     0.4615   0.4638   0.4980   0.5021   0.5211   0.5233   0.5334   0.5360
     0.6035   0.6067   0.6441   0.6466   0.6751   0.6801   0.7173   0.7225
     0.7654   0.7728   0.7889   0.7941   0.8133   0.8181   0.8268   0.8300
     0.8559   0.8617   0.8789   0.8823   0.8937   0.8994   0.9207   0.9257
     0.9444   0.9469   0.9562   0.9626   0.9770   0.9810   0.9982   1.0028
     1.0214   1.0291   1.0450   1.0477   1.0600   1.0632   1.0796   1.0836
     1.1003   1.1008   1.1113   1.1154   1.1301   1.1326   1.1505   1.1559
     1.1730   1.1795   1.1845   1.1901   1.2104   1.2154   1.2263   1.2290
     1.2551   1.2582   1.2835   1.2869   1.3023   1.3051   1.3235   1.3289
     1.3608   1.3653   1.3751   1.3809   1.4041   1.4088   1.4193   1.4227
     1.4605   1.4639   1.4829   1.4855   1.5258   1.5286   1.5477   1.5503
     1.5789   1.5820   1.6155   1.6188   1.6414   1.6444   1.6767   1.6817
     1.7128   1.7139   1.7925   1.7955   1.8249   1.8283   1.9157   1.9176
     2.1907   2.1969   2.2410   2.2431   2.2687   2.2772   2.6632   2.6653
     3.7825   3.7925   4.3453   4.3512   4.4696   4.4752   4.5678   4.5762
     5.1122   5.1195   5.2051   5.2115   5.2553   5.2622   5.3630   5.3656
     5.4020   5.4104   5.6793   5.6831   5.7190   5.7237   5.7606   5.7641
     6.4729   6.4750   6.8071   6.8099   7.1742   7.1827   7.2934   7.2983
     7.3828   7.3874   7.4950   7.4964   7.5550   7.5587   7.6643   7.6654
     7.7003   7.7040   7.7485   7.7548   7.8281   7.8330   7.8672   7.8766
     7.9331   7.9403   7.9702   7.9743   8.0541   8.0588   8.1393   8.1447
     8.1936   8.2018   8.2081   8.2187   8.2836   8.2961   8.3185   8.3246
     8.3502   8.3540   8.3872   8.3919   8.4198   8.4250   8.4598   8.4686
     8.4914   8.4978   8.5140   8.5219   8.5524   8.5561   8.5697   8.5735
     8.5944   8.6026   8.6317   8.6344   8.6629   8.6671   8.7192   8.7248
     8.7518   8.7583   8.7833   8.7928   8.8446   8.8512   8.8623   8.8651
     8.8704   8.8746   8.9462   8.9512   8.9746   8.9822   8.9947   8.9974
     9.0334   9.0368   9.1385   9.1443   9.1758   9.1856   9.2241   9.2284
     9.2452   9.2577   9.2960   9.3035   9.3152   9.3213   9.3594   9.3626
     9.4061   9.4093   9.4462   9.4480   9.5025   9.5078   9.5223   9.5264
     9.5596   9.5654   9.5815   9.5855   9.6162   9.6220   9.6415   9.6483
     9.6767   9.6836   9.7014   9.7055   9.7358   9.7389   9.7728   9.7816
     9.8186   9.8260   9.8388   9.8445

     occupation numbers 
     1.0000   1.0000   1.0000   1.0000   1.0000   1.0000   1.0000   1.0000
     1.0000   1.0000   1.0000   1.0000   1.0000   1.0000   1.0000   1.0000
     1.0000   1.0000   1.0000   1.0000   1.0000   1.0000   1.0000   1.0000
     1.0000   1.0000   1.0000   1.0000   1.0000   1.0000   1.0000   1.0000
     1.0000   1.0000   1.0000   1.0000   1.0000   1.0000   1.0000   1.0000
     1.0000   1.0000   1.0000   1.0000   1.0000   1.0000   1.0000   1.0000
     1.0000   1.0000   1.0000   1.0000   1.0000   1.0000   1.0000   1.0000
     1.0000   1.0000   1.0000   1.0000   1.0000   1.0000   1.0000   1.0000
     1.0000   1.0000   1.0000   1.0000   1.0000   1.0000   1.0000   1.0000
     1.0000   1.0000   1.0000   1.0000   1.0000   1.0000   1.0000   1.0000
     1.0000   1.0000   1.0000   1.0000   1.0000   1.0000   1.0000   1.0000
     1.0000   1.0000   1.0000   1.0000   1.0000   1.0000   1.0000   1.0000
     1.0000   1.0000   1.0000   1.0000   1.0000   1.0000   1.0000   1.0000
     1.0000   1.0000   1.0000   1.0000   1.0000   1.0000   1.0000   1.0000
     1.0000   1.0000   1.0000   1.0000   1.0000   1.0000   1.0000   1.0000
     1.0000   1.0000   1.0000   1.0000   1.0000   1.0000   1.0000   1.0000
     1.0000   1.0000   1.0000   1.0000   1.0000   1.0000   1.0000   1.0000
     1.0000   1.0000   1.0000   1.0000   1.0000   1.0000   1.0000   1.0000
     1.0000   1.0000   1.0000   1.0000   1.0000   1.0000   1.0000   1.0000
     1.0000   1.0000   1.0000   1.0000   1.0000   1.0000   1.0000   1.0000
     1.0000   1.0000   1.0000   1.0000   1.0000   1.0000   1.0000   1.0000
     1.0000   1.0000   1.0000   1.0000   1.0000   1.0000   1.0000   1.0000
     1.0000   1.0000   1.0000   1.0000   1.0000   1.0000   1.0000   1.0000
     1.0000   1.0000   1.0000   1.0000   1.0000   1.0000   1.0000   1.0000
     1.0000   1.0000   1.0000   1.0000   1.0000   1.0000   1.0000   1.0000
     1.0000   1.0000   1.0000   1.0000   1.0000   1.0000   1.0000   1.0000
     1.0000   1.0000   1.0000   1.0000   1.0000   1.0000   1.0000   1.0000
     1.0000   1.0000   1.0000   1.0000   1.0000   1.0000   1.0000   1.0000
     1.0000   1.0000   1.0000   1.0000   1.0000   1.0000   1.0000   1.0000
     1.0000   1.0000   1.0000   1.0000   1.0000   1.0000   1.0000   1.0000
     1.0000   1.0000   1.0000   1.0000   1.0000   1.0000   1.0000   1.0000
     1.0000   1.0000   1.0000   1.0000   1.0000   1.0000   1.0000   1.0000
     1.0000   1.0000   1.0000   1.0000   1.0000   1.0000   1.0000   1.0000
     1.0000   1.0000   1.0000   1.0000   1.0000   1.0000   1.0000   1.0000
     1.0000   1.0000   1.0000   1.0000   1.0000   1.0000   1.0000   1.0000
     1.0000   1.0000   1.0000   1.0000   1.0000   1.0000   1.0000   1.0000
     1.0000   1.0000   1.0000   1.0000   1.0000   1.0000   1.0000   1.0000
     1.0000   1.0000   1.0000   1.0000   1.0000   1.0000   1.0000   1.0000
     1.0000   1.0000   1.0000   1.0000   1.0000   1.0000   1.0000   1.0000
     1.0000   1.0000   1.0000   1.0000   1.0000   1.0000   1.0000   1.0000
     1.0000   1.0000   1.0000   1.0000   1.0000   1.0000   1.0000   1.0000
     1.0000   1.0000   1.0000   1.0000   1.0000   1.0000   1.0000   1.0000
     1.0000   1.0000   1.0000   1.0000   1.0000   1.0000   1.0000   1.0000
     1.0000   1.0000   1.0000   1.0000   1.0000   1.0000   1.0000   1.0000
     0.0000   0.0000   0.0000   0.0000   0.0000   0.0000   0.0000   0.0000
     0.0000   0.0000   0.0000   0.0000   0.0000   0.0000   0.0000   0.0000
     0.0000   0.0000   0.0000   0.0000   0.0000   0.0000   0.0000   0.0000
     0.0000   0.0000   0.0000   0.0000   0.0000   0.0000   0.0000   0.0000
     0.0000   0.0000   0.0000   0.0000   0.0000   0.0000   0.0000   0.0000
     0.0000   0.0000   0.0000   0.0000   0.0000   0.0000   0.0000   0.0000
     0.0000   0.0000   0.0000   0.0000   0.0000   0.0000   0.0000   0.0000
     0.0000   0.0000   0.0000   0.0000   0.0000   0.0000   0.0000   0.0000
     0.0000   0.0000   0.0000   0.0000   0.0000   0.0000   0.0000   0.0000
     0.0000   0.0000   0.0000   0.0000   0.0000   0.0000   0.0000   0.0000
     0.0000   0.0000   0.0000   0.0000   0.0000   0.0000   0.0000   0.0000
     0.0000   0.0000   0.0000   0.0000   0.0000   0.0000   0.0000   0.0000
     0.0000   0.0000   0.0000   0.0000   0.0000   0.0000   0.0000   0.0000
     0.0000   0.0000   0.0000   0.0000   0.0000   0.0000   0.0000   0.0000
     0.0000   0.0000   0.0000   0.0000   0.0000   0.0000   0.0000   0.0000
     0.0000   0.0000   0.0000   0.0000   0.0000   0.0000   0.0000   0.0000
     0.0000   0.0000   0.0000   0.0000   0.0000   0.0000   0.0000   0.0000
     0.0000   0.0000   0.0000   0.0000   0.0000   0.0000   0.0000   0.0000
     0.0000   0.0000   0.0000   0.0000

     the Fermi energy is     3.2252 ev
     (compare with:     2.6665 eV, computed in scf)

     Writing output data file ./temp/cspbbr3.save/
 
     init_run     :      0.45s CPU      0.66s WALL (       1 calls)
     electrons    :   2003.37s CPU   2021.70s WALL (       1 calls)

     Called by init_run:
     wfcinit      :      0.00s CPU      0.01s WALL (       1 calls)
     wfcinit:atom :      0.31s CPU      0.37s WALL (      15 calls)
     wfcinit:wfcr :     23.46s CPU     24.14s WALL (      15 calls)
     potinit      :      0.03s CPU      0.18s WALL (       1 calls)
     hinit0       :      0.04s CPU      0.06s WALL (       1 calls)

     Called by electrons:
     c_bands      :   2003.33s CPU   2021.59s WALL (       1 calls)
     v_of_rho     :      0.02s CPU      0.03s WALL (       1 calls)
     v_h          :      0.00s CPU      0.00s WALL (       1 calls)
     v_xc         :      0.02s CPU      0.02s WALL (       1 calls)

     Called by c_bands:
     init_us_2    :      0.08s CPU      0.09s WALL (      15 calls)
     cegterg      :   1971.13s CPU   1987.45s WALL (      90 calls)

     Called by sum_band:

     Called by *egterg:
     cdiaghg      :    167.73s CPU    168.68s WALL (    1815 calls)
     cegterg:over :    338.40s CPU    339.57s WALL (    1800 calls)
     cegterg:upda :    256.44s CPU    258.27s WALL (    1800 calls)
     cegterg:last :    439.63s CPU    441.09s WALL (     699 calls)
     cdiaghg:chol :     10.56s CPU     10.75s WALL (    1815 calls)
     cdiaghg:inve :      1.03s CPU      1.07s WALL (    1815 calls)
     cdiaghg:para :     30.79s CPU     30.92s WALL (    3630 calls)
     h_psi        :    748.90s CPU    759.11s WALL (    1905 calls)
     g_psi        :      6.70s CPU      6.73s WALL (    1800 calls)

     Called by h_psi:
     h_psi:calbec :     91.72s CPU     92.10s WALL (    1905 calls)
     vloc_psi     :    550.03s CPU    557.88s WALL (    1905 calls)
     add_vuspsi   :     96.35s CPU     96.73s WALL (    1905 calls)

     General routines
     calbec       :     91.71s CPU     92.09s WALL (    1905 calls)
     fft          :      0.01s CPU      0.03s WALL (      13 calls)
     fftw         :    467.01s CPU    473.75s WALL ( 1359088 calls)
     davcio       :      0.00s CPU      1.19s WALL (      30 calls)
 
     Parallel routines
     fft_scatt_xy :     58.34s CPU     59.06s WALL ( 1359101 calls)
     fft_scatt_yz :    202.67s CPU    205.73s WALL ( 1359101 calls)
 
     PWSCF        :  33m45.35s CPU  34m20.75s WALL

 
   This run was terminated on:  10:11:26  28Sep2021            

=------------------------------------------------------------------------------=
   JOB DONE.
=------------------------------------------------------------------------------=
