
     Program PWSCF v.6.6 starts on 27Sep2021 at 17:54:46 

     This program is part of the open-source Quantum ESPRESSO suite
     for quantum simulation of materials; please cite
         "P. Giannozzi et al., J. Phys.:Condens. Matter 21 395502 (2009);
         "P. Giannozzi et al., J. Phys.:Condens. Matter 29 465901 (2017);
          URL http://www.quantum-espresso.org", 
     in publications or presentations arising from this work. More details at
     http://www.quantum-espresso.org/quote

     Parallel version (MPI), running on   160 processors

     MPI processes distributed on     4 nodes
     K-points division:     npool     =       4
     R & G space division:  proc/nbgrp/npool/nimage =      40
     Fft bands division:     nmany     =       1
     Reading input from nscf.in

     Current dimensions of program PWSCF are:
     Max number of different atomic species (ntypx) = 10
     Max number of k-points (npk) =  40000
     Max angular momentum in pseudopotentials (lmaxx) =  3

     Atomic positions and unit cell read from directory:
     ./temp/cspbbr3.save/
 
     Message from routine scan_end:
     No INFO block end statement, possibly corrupted file
     Message from routine scan_end:
     No INFO block end statement, possibly corrupted file
     Message from routine scan_end:
     No INFO block end statement, possibly corrupted file

     Subspace diagonalization in iterative solution of the eigenvalue problem:
     one sub-group per band group will be used
     scalapack distributed-memory algorithm (size of sub-group:  6*  6 procs)

 
     Parallelization info
     --------------------
     sticks:   dense  smooth     PW     G-vecs:    dense   smooth      PW
     Min         213     213     59                14783    14783    2141
     Max         214     214     60                14786    14786    2145
     Sum        8521    8521   2361               591361   591361   85687
 


     bravais-lattice index     =            0
     lattice parameter (alat)  =      22.6851  a.u.
     unit-cell volume          =   11674.1042 (a.u.)^3
     number of atoms/cell      =           40
     number of atomic types    =            3
     number of electrons       =       352.00
     number of Kohn-Sham states=          500
     kinetic-energy cutoff     =      52.0000  Ry
     charge density cutoff     =     208.0000  Ry
     Exchange-correlation= SLA  PW   PBE  PBE
                           (   1   4   3   4   0   0   0)
     Non magnetic calculation with spin-orbit


     celldm(1)=  22.685126  celldm(2)=   0.000000  celldm(3)=   0.000000
     celldm(4)=   0.000000  celldm(5)=   0.000000  celldm(6)=   0.000000

     crystal axes: (cart. coord. in units of alat)
               a(1) = (   1.000000   0.000000   0.000000 )  
               a(2) = (   0.000000   1.000000   0.000000 )  
               a(3) = (   0.000000   0.000000   1.000000 )  

     reciprocal axes: (cart. coord. in units 2 pi/alat)
               b(1) = (  1.000000  0.000000  0.000000 )  
               b(2) = (  0.000000  1.000000  0.000000 )  
               b(3) = (  0.000000  0.000000  1.000000 )  


     PseudoPot. # 1 for Cs read from file:
     ../cs_frl_gga.upf
     MD5 check sum: a448e0e7e3712c417dccd39c3bf63eee
     Pseudo is Norm-conserving, Zval =  9.0
     Generated by new atomic code, or converted to UPF format
     Using radial grid of 1179 points,  5 beta functions with: 
                l(1) =   0
                l(2) =   1
                l(3) =   1
                l(4) =   2
                l(5) =   2

     PseudoPot. # 2 for Pb read from file:
     ../pb_frl_gga.upf
     MD5 check sum: 00b12db5c119af3e4e38a6ffd441034c
     Pseudo is Norm-conserving, Zval = 14.0
     Generated by new atomic code, or converted to UPF format
     Using radial grid of 1189 points,  4 beta functions with: 
                l(1) =   1
                l(2) =   1
                l(3) =   2
                l(4) =   2

     PseudoPot. # 3 for Br read from file:
     ../br_frl_gga.upf
     MD5 check sum: f268a9c02328c3f23b9552d0430e2dda
     Pseudo is Norm-conserving, Zval =  7.0
     Generated by new atomic code, or converted to UPF format
     Using radial grid of 1167 points,  3 beta functions with: 
                l(1) =   0
                l(2) =   1
                l(3) =   1

     atomic species   valence    mass     pseudopotential
        Cs             9.00   132.90543     Cs( 1.00)
        Pb            14.00   207.20000     Pb( 1.00)
        Br             7.00    79.90400     Br( 1.00)

     No symmetry found


                                    s                        frac. trans.

      isym =  1     identity                                     

 cryst.   s( 1) = (     1          0          0      )
                  (     0          1          0      )
                  (     0          0          1      )

 cart.    s( 1) = (  1.0000000  0.0000000  0.0000000 )
                  (  0.0000000  1.0000000  0.0000000 )
                  (  0.0000000  0.0000000  1.0000000 )


   Cartesian axes

     site n.     atom                  positions (alat units)
         1           Cs  tau(   1) = (  -0.0255019   0.0129532  -0.0575515  )
         2           Cs  tau(   2) = (   0.4682932  -0.0280124   0.0013057  )
         3           Cs  tau(   3) = (   0.0086076   0.5359597   0.0213044  )
         4           Cs  tau(   4) = (   0.4751891   0.4829223   0.0147193  )
         5           Cs  tau(   5) = (   0.0040965   0.0258684   0.5102410  )
         6           Cs  tau(   6) = (   0.5136276   0.0223618   0.4779807  )
         7           Cs  tau(   7) = (   0.0264235   0.4980255   0.5360775  )
         8           Cs  tau(   8) = (   0.4934026   0.4725697   0.4716722  )
         9           Pb  tau(   9) = (   0.2624849   0.2592746   0.2268015  )
        10           Pb  tau(  10) = (   0.7658932   0.2386641   0.2401206  )
        11           Pb  tau(  11) = (   0.2536680   0.7584242   0.2838265  )
        12           Pb  tau(  12) = (   0.7461377   0.7441417   0.2369775  )
        13           Pb  tau(  13) = (   0.2599326   0.2459401   0.7326391  )
        14           Pb  tau(  14) = (   0.7565955   0.2596147   0.7354963  )
        15           Pb  tau(  15) = (   0.2282025   0.7496233   0.7649346  )
        16           Pb  tau(  16) = (   0.7224040   0.7297152   0.7521453  )
        17           Br  tau(  17) = (   0.2868046   0.2426520  -0.0067901  )
        18           Br  tau(  18) = (   0.7195286   0.2291042  -0.0038923  )
        19           Br  tau(  19) = (   0.2073945   0.8062282   0.0142374  )
        20           Br  tau(  20) = (   0.7739158   0.7769607  -0.0018249  )
        21           Br  tau(  21) = (   0.2618889   0.2517064   0.4982934  )
        22           Br  tau(  22) = (   0.7731697   0.2950279   0.4880423  )
        23           Br  tau(  23) = (   0.2691160   0.7020953   0.5153195  )
        24           Br  tau(  24) = (   0.7023406   0.7264009   0.5084958  )
        25           Br  tau(  25) = (   0.2591840  -0.0046063   0.3158409  )
        26           Br  tau(  26) = (   0.7519944  -0.0032558   0.2739056  )
        27           Br  tau(  27) = (   0.2468129   0.5051899   0.2553011  )
        28           Br  tau(  28) = (   0.7538971   0.4872057   0.1912342  )
        29           Br  tau(  29) = (   0.2862655  -0.0082670   0.7320405  )
        30           Br  tau(  30) = (   0.7156357   0.0066251   0.7667314  )
        31           Br  tau(  31) = (   0.2341555   0.4974444   0.7681019  )
        32           Br  tau(  32) = (   0.8150235   0.5178107   0.7730110  )
        33           Br  tau(  33) = (   0.0296413   0.2113840   0.2286431  )
        34           Br  tau(  34) = (   0.5129058   0.2576917   0.2864968  )
        35           Br  tau(  35) = (  -0.0008473   0.7156222   0.2843603  )
        36           Br  tau(  36) = (   0.4879062   0.7428467   0.2140072  )
        37           Br  tau(  37) = (   0.0085350   0.2309381   0.7426121  )
        38           Br  tau(  38) = (   0.5100428   0.3114961   0.7323320  )
        39           Br  tau(  39) = (  -0.0110398   0.7980742   0.7309277  )
        40           Br  tau(  40) = (   0.4770795   0.7080835   0.7937877  )

   Crystallographic axes

     site n.     atom                  positions (cryst. coord.)
         1           Cs  tau(   1) = ( -0.0255019  0.0129532 -0.0575515  )
         2           Cs  tau(   2) = (  0.4682932 -0.0280124  0.0013057  )
         3           Cs  tau(   3) = (  0.0086076  0.5359597  0.0213044  )
         4           Cs  tau(   4) = (  0.4751891  0.4829223  0.0147193  )
         5           Cs  tau(   5) = (  0.0040965  0.0258684  0.5102410  )
         6           Cs  tau(   6) = (  0.5136276  0.0223618  0.4779807  )
         7           Cs  tau(   7) = (  0.0264235  0.4980255  0.5360775  )
         8           Cs  tau(   8) = (  0.4934026  0.4725697  0.4716722  )
         9           Pb  tau(   9) = (  0.2624849  0.2592746  0.2268015  )
        10           Pb  tau(  10) = (  0.7658932  0.2386641  0.2401206  )
        11           Pb  tau(  11) = (  0.2536680  0.7584242  0.2838265  )
        12           Pb  tau(  12) = (  0.7461377  0.7441417  0.2369775  )
        13           Pb  tau(  13) = (  0.2599326  0.2459401  0.7326391  )
        14           Pb  tau(  14) = (  0.7565955  0.2596147  0.7354963  )
        15           Pb  tau(  15) = (  0.2282025  0.7496233  0.7649346  )
        16           Pb  tau(  16) = (  0.7224040  0.7297152  0.7521453  )
        17           Br  tau(  17) = (  0.2868046  0.2426520 -0.0067901  )
        18           Br  tau(  18) = (  0.7195286  0.2291042 -0.0038923  )
        19           Br  tau(  19) = (  0.2073945  0.8062282  0.0142374  )
        20           Br  tau(  20) = (  0.7739158  0.7769607 -0.0018249  )
        21           Br  tau(  21) = (  0.2618889  0.2517064  0.4982934  )
        22           Br  tau(  22) = (  0.7731697  0.2950279  0.4880423  )
        23           Br  tau(  23) = (  0.2691160  0.7020953  0.5153195  )
        24           Br  tau(  24) = (  0.7023406  0.7264009  0.5084958  )
        25           Br  tau(  25) = (  0.2591840 -0.0046063  0.3158409  )
        26           Br  tau(  26) = (  0.7519944 -0.0032558  0.2739056  )
        27           Br  tau(  27) = (  0.2468129  0.5051899  0.2553011  )
        28           Br  tau(  28) = (  0.7538971  0.4872057  0.1912342  )
        29           Br  tau(  29) = (  0.2862655 -0.0082670  0.7320405  )
        30           Br  tau(  30) = (  0.7156357  0.0066251  0.7667314  )
        31           Br  tau(  31) = (  0.2341555  0.4974444  0.7681019  )
        32           Br  tau(  32) = (  0.8150235  0.5178107  0.7730110  )
        33           Br  tau(  33) = (  0.0296413  0.2113840  0.2286431  )
        34           Br  tau(  34) = (  0.5129058  0.2576917  0.2864968  )
        35           Br  tau(  35) = ( -0.0008473  0.7156222  0.2843603  )
        36           Br  tau(  36) = (  0.4879062  0.7428467  0.2140072  )
        37           Br  tau(  37) = (  0.0085350  0.2309381  0.7426121  )
        38           Br  tau(  38) = (  0.5100428  0.3114961  0.7323320  )
        39           Br  tau(  39) = ( -0.0110398  0.7980742  0.7309277  )
        40           Br  tau(  40) = (  0.4770795  0.7080835  0.7937877  )

     number of k points=    64
                       cart. coord. in units 2pi/alat
        k(    1) = (   0.0000000   0.0000000   0.0000000), wk =   0.0156250
        k(    2) = (   0.0000000   0.0000000   0.2500000), wk =   0.0156250
        k(    3) = (   0.0000000   0.0000000   0.5000000), wk =   0.0156250
        k(    4) = (   0.0000000   0.0000000   0.7500000), wk =   0.0156250
        k(    5) = (   0.0000000   0.2500000   0.0000000), wk =   0.0156250
        k(    6) = (   0.0000000   0.2500000   0.2500000), wk =   0.0156250
        k(    7) = (   0.0000000   0.2500000   0.5000000), wk =   0.0156250
        k(    8) = (   0.0000000   0.2500000   0.7500000), wk =   0.0156250
        k(    9) = (   0.0000000   0.5000000   0.0000000), wk =   0.0156250
        k(   10) = (   0.0000000   0.5000000   0.2500000), wk =   0.0156250
        k(   11) = (   0.0000000   0.5000000   0.5000000), wk =   0.0156250
        k(   12) = (   0.0000000   0.5000000   0.7500000), wk =   0.0156250
        k(   13) = (   0.0000000   0.7500000   0.0000000), wk =   0.0156250
        k(   14) = (   0.0000000   0.7500000   0.2500000), wk =   0.0156250
        k(   15) = (   0.0000000   0.7500000   0.5000000), wk =   0.0156250
        k(   16) = (   0.0000000   0.7500000   0.7500000), wk =   0.0156250
        k(   17) = (   0.2500000   0.0000000   0.0000000), wk =   0.0156250
        k(   18) = (   0.2500000   0.0000000   0.2500000), wk =   0.0156250
        k(   19) = (   0.2500000   0.0000000   0.5000000), wk =   0.0156250
        k(   20) = (   0.2500000   0.0000000   0.7500000), wk =   0.0156250
        k(   21) = (   0.2500000   0.2500000   0.0000000), wk =   0.0156250
        k(   22) = (   0.2500000   0.2500000   0.2500000), wk =   0.0156250
        k(   23) = (   0.2500000   0.2500000   0.5000000), wk =   0.0156250
        k(   24) = (   0.2500000   0.2500000   0.7500000), wk =   0.0156250
        k(   25) = (   0.2500000   0.5000000   0.0000000), wk =   0.0156250
        k(   26) = (   0.2500000   0.5000000   0.2500000), wk =   0.0156250
        k(   27) = (   0.2500000   0.5000000   0.5000000), wk =   0.0156250
        k(   28) = (   0.2500000   0.5000000   0.7500000), wk =   0.0156250
        k(   29) = (   0.2500000   0.7500000   0.0000000), wk =   0.0156250
        k(   30) = (   0.2500000   0.7500000   0.2500000), wk =   0.0156250
        k(   31) = (   0.2500000   0.7500000   0.5000000), wk =   0.0156250
        k(   32) = (   0.2500000   0.7500000   0.7500000), wk =   0.0156250
        k(   33) = (   0.5000000   0.0000000   0.0000000), wk =   0.0156250
        k(   34) = (   0.5000000   0.0000000   0.2500000), wk =   0.0156250
        k(   35) = (   0.5000000   0.0000000   0.5000000), wk =   0.0156250
        k(   36) = (   0.5000000   0.0000000   0.7500000), wk =   0.0156250
        k(   37) = (   0.5000000   0.2500000   0.0000000), wk =   0.0156250
        k(   38) = (   0.5000000   0.2500000   0.2500000), wk =   0.0156250
        k(   39) = (   0.5000000   0.2500000   0.5000000), wk =   0.0156250
        k(   40) = (   0.5000000   0.2500000   0.7500000), wk =   0.0156250
        k(   41) = (   0.5000000   0.5000000   0.0000000), wk =   0.0156250
        k(   42) = (   0.5000000   0.5000000   0.2500000), wk =   0.0156250
        k(   43) = (   0.5000000   0.5000000   0.5000000), wk =   0.0156250
        k(   44) = (   0.5000000   0.5000000   0.7500000), wk =   0.0156250
        k(   45) = (   0.5000000   0.7500000   0.0000000), wk =   0.0156250
        k(   46) = (   0.5000000   0.7500000   0.2500000), wk =   0.0156250
        k(   47) = (   0.5000000   0.7500000   0.5000000), wk =   0.0156250
        k(   48) = (   0.5000000   0.7500000   0.7500000), wk =   0.0156250
        k(   49) = (   0.7500000   0.0000000   0.0000000), wk =   0.0156250
        k(   50) = (   0.7500000   0.0000000   0.2500000), wk =   0.0156250
        k(   51) = (   0.7500000   0.0000000   0.5000000), wk =   0.0156250
        k(   52) = (   0.7500000   0.0000000   0.7500000), wk =   0.0156250
        k(   53) = (   0.7500000   0.2500000   0.0000000), wk =   0.0156250
        k(   54) = (   0.7500000   0.2500000   0.2500000), wk =   0.0156250
        k(   55) = (   0.7500000   0.2500000   0.5000000), wk =   0.0156250
        k(   56) = (   0.7500000   0.2500000   0.7500000), wk =   0.0156250
        k(   57) = (   0.7500000   0.5000000   0.0000000), wk =   0.0156250
        k(   58) = (   0.7500000   0.5000000   0.2500000), wk =   0.0156250
        k(   59) = (   0.7500000   0.5000000   0.5000000), wk =   0.0156250
        k(   60) = (   0.7500000   0.5000000   0.7500000), wk =   0.0156250
        k(   61) = (   0.7500000   0.7500000   0.0000000), wk =   0.0156250
        k(   62) = (   0.7500000   0.7500000   0.2500000), wk =   0.0156250
        k(   63) = (   0.7500000   0.7500000   0.5000000), wk =   0.0156250
        k(   64) = (   0.7500000   0.7500000   0.7500000), wk =   0.0156250

                       cryst. coord.
        k(    1) = (   0.0000000   0.0000000   0.0000000), wk =   0.0156250
        k(    2) = (   0.0000000   0.0000000   0.2500000), wk =   0.0156250
        k(    3) = (   0.0000000   0.0000000   0.5000000), wk =   0.0156250
        k(    4) = (   0.0000000   0.0000000   0.7500000), wk =   0.0156250
        k(    5) = (   0.0000000   0.2500000   0.0000000), wk =   0.0156250
        k(    6) = (   0.0000000   0.2500000   0.2500000), wk =   0.0156250
        k(    7) = (   0.0000000   0.2500000   0.5000000), wk =   0.0156250
        k(    8) = (   0.0000000   0.2500000   0.7500000), wk =   0.0156250
        k(    9) = (   0.0000000   0.5000000   0.0000000), wk =   0.0156250
        k(   10) = (   0.0000000   0.5000000   0.2500000), wk =   0.0156250
        k(   11) = (   0.0000000   0.5000000   0.5000000), wk =   0.0156250
        k(   12) = (   0.0000000   0.5000000   0.7500000), wk =   0.0156250
        k(   13) = (   0.0000000   0.7500000   0.0000000), wk =   0.0156250
        k(   14) = (   0.0000000   0.7500000   0.2500000), wk =   0.0156250
        k(   15) = (   0.0000000   0.7500000   0.5000000), wk =   0.0156250
        k(   16) = (   0.0000000   0.7500000   0.7500000), wk =   0.0156250
        k(   17) = (   0.2500000   0.0000000   0.0000000), wk =   0.0156250
        k(   18) = (   0.2500000   0.0000000   0.2500000), wk =   0.0156250
        k(   19) = (   0.2500000   0.0000000   0.5000000), wk =   0.0156250
        k(   20) = (   0.2500000   0.0000000   0.7500000), wk =   0.0156250
        k(   21) = (   0.2500000   0.2500000   0.0000000), wk =   0.0156250
        k(   22) = (   0.2500000   0.2500000   0.2500000), wk =   0.0156250
        k(   23) = (   0.2500000   0.2500000   0.5000000), wk =   0.0156250
        k(   24) = (   0.2500000   0.2500000   0.7500000), wk =   0.0156250
        k(   25) = (   0.2500000   0.5000000   0.0000000), wk =   0.0156250
        k(   26) = (   0.2500000   0.5000000   0.2500000), wk =   0.0156250
        k(   27) = (   0.2500000   0.5000000   0.5000000), wk =   0.0156250
        k(   28) = (   0.2500000   0.5000000   0.7500000), wk =   0.0156250
        k(   29) = (   0.2500000   0.7500000   0.0000000), wk =   0.0156250
        k(   30) = (   0.2500000   0.7500000   0.2500000), wk =   0.0156250
        k(   31) = (   0.2500000   0.7500000   0.5000000), wk =   0.0156250
        k(   32) = (   0.2500000   0.7500000   0.7500000), wk =   0.0156250
        k(   33) = (   0.5000000   0.0000000   0.0000000), wk =   0.0156250
        k(   34) = (   0.5000000   0.0000000   0.2500000), wk =   0.0156250
        k(   35) = (   0.5000000   0.0000000   0.5000000), wk =   0.0156250
        k(   36) = (   0.5000000   0.0000000   0.7500000), wk =   0.0156250
        k(   37) = (   0.5000000   0.2500000   0.0000000), wk =   0.0156250
        k(   38) = (   0.5000000   0.2500000   0.2500000), wk =   0.0156250
        k(   39) = (   0.5000000   0.2500000   0.5000000), wk =   0.0156250
        k(   40) = (   0.5000000   0.2500000   0.7500000), wk =   0.0156250
        k(   41) = (   0.5000000   0.5000000   0.0000000), wk =   0.0156250
        k(   42) = (   0.5000000   0.5000000   0.2500000), wk =   0.0156250
        k(   43) = (   0.5000000   0.5000000   0.5000000), wk =   0.0156250
        k(   44) = (   0.5000000   0.5000000   0.7500000), wk =   0.0156250
        k(   45) = (   0.5000000   0.7500000   0.0000000), wk =   0.0156250
        k(   46) = (   0.5000000   0.7500000   0.2500000), wk =   0.0156250
        k(   47) = (   0.5000000   0.7500000   0.5000000), wk =   0.0156250
        k(   48) = (   0.5000000   0.7500000   0.7500000), wk =   0.0156250
        k(   49) = (   0.7500000   0.0000000   0.0000000), wk =   0.0156250
        k(   50) = (   0.7500000   0.0000000   0.2500000), wk =   0.0156250
        k(   51) = (   0.7500000   0.0000000   0.5000000), wk =   0.0156250
        k(   52) = (   0.7500000   0.0000000   0.7500000), wk =   0.0156250
        k(   53) = (   0.7500000   0.2500000   0.0000000), wk =   0.0156250
        k(   54) = (   0.7500000   0.2500000   0.2500000), wk =   0.0156250
        k(   55) = (   0.7500000   0.2500000   0.5000000), wk =   0.0156250
        k(   56) = (   0.7500000   0.2500000   0.7500000), wk =   0.0156250
        k(   57) = (   0.7500000   0.5000000   0.0000000), wk =   0.0156250
        k(   58) = (   0.7500000   0.5000000   0.2500000), wk =   0.0156250
        k(   59) = (   0.7500000   0.5000000   0.5000000), wk =   0.0156250
        k(   60) = (   0.7500000   0.5000000   0.7500000), wk =   0.0156250
        k(   61) = (   0.7500000   0.7500000   0.0000000), wk =   0.0156250
        k(   62) = (   0.7500000   0.7500000   0.2500000), wk =   0.0156250
        k(   63) = (   0.7500000   0.7500000   0.5000000), wk =   0.0156250
        k(   64) = (   0.7500000   0.7500000   0.7500000), wk =   0.0156250

     Dense  grid:   591361 G-vectors     FFT dimensions: ( 108, 108, 108)

     Dynamical RAM for                 wfc:      28.20 MB

     Dynamical RAM for     wfc (w. buffer):      28.20 MB

     Dynamical RAM for           str. fact:       0.68 MB

     Dynamical RAM for           local pot:       0.00 MB

     Dynamical RAM for          nlocal pot:      12.18 MB

     Dynamical RAM for                qrad:       2.48 MB

     Dynamical RAM for          rho,v,vnew:       5.91 MB

     Dynamical RAM for           G-vectors:       0.96 MB

     Dynamical RAM for          h,s,v(r/c):       1.26 MB

     Dynamical RAM for          <psi|beta>:       6.59 MB

     Dynamical RAM for                 psi:      56.40 MB

     Dynamical RAM for                hpsi:      56.40 MB

     Dynamical RAM for      wfcinit/wfcrot:      48.02 MB

     Estimated static dynamical RAM per process >      53.45 MB

     Estimated max dynamical RAM per process >     174.09 MB

     Estimated total dynamical RAM >      27.20 GB

     The potential is recalculated from file :
     ./temp/cspbbr3.save/charge-density

     Starting wfcs are  480 randomized atomic wfcs +   20 random wfcs

     Band Structure Calculation
     Davidson diagonalization with overlap

     Computing kpt #:     1  of    16 on this pool
     total cpu time spent up to now is       41.7 secs

     Computing kpt #:     2  of    16 on this pool
     total cpu time spent up to now is       86.0 secs

     Computing kpt #:     3  of    16 on this pool
     total cpu time spent up to now is      134.5 secs

     Computing kpt #:     4  of    16 on this pool
     total cpu time spent up to now is      177.9 secs

     Computing kpt #:     5  of    16 on this pool
     total cpu time spent up to now is      221.8 secs

     Computing kpt #:     6  of    16 on this pool
     total cpu time spent up to now is      270.6 secs

     Computing kpt #:     7  of    16 on this pool
     total cpu time spent up to now is      319.7 secs

     Computing kpt #:     8  of    16 on this pool
     total cpu time spent up to now is      382.0 secs

     Computing kpt #:     9  of    16 on this pool
     total cpu time spent up to now is      436.9 secs

     Computing kpt #:    10  of    16 on this pool
     total cpu time spent up to now is      485.3 secs

     Computing kpt #:    11  of    16 on this pool
     total cpu time spent up to now is      545.9 secs

     Computing kpt #:    12  of    16 on this pool
     total cpu time spent up to now is      590.3 secs

     Computing kpt #:    13  of    16 on this pool
     total cpu time spent up to now is      633.6 secs

     Computing kpt #:    14  of    16 on this pool
     total cpu time spent up to now is      690.2 secs

     Computing kpt #:    15  of    16 on this pool
     total cpu time spent up to now is      745.5 secs

     Computing kpt #:    16  of    16 on this pool
     total cpu time spent up to now is      800.3 secs

     ethr =  2.84E-06,  avg # of iterations = 52.7

     total cpu time spent up to now is      800.3 secs

     End of band structure calculation

          k = 0.0000 0.0000 0.0000 ( 73885 PWs)   bands (ev):

   -18.1281 -18.1281 -18.0397 -18.0397 -17.9993 -17.9993 -17.9954 -17.9954
   -17.9651 -17.9651 -17.9608 -17.9608 -17.8047 -17.8047 -17.7796 -17.7796
   -15.3216 -15.3216 -15.3009 -15.3009 -15.2537 -15.2537 -15.2486 -15.2486
   -15.2401 -15.2401 -15.2350 -15.2350 -15.2229 -15.2229 -15.2149 -15.2149
   -15.1847 -15.1847 -15.1674 -15.1674 -15.0949 -15.0949 -15.0876 -15.0876
   -15.0735 -15.0735 -15.0685 -15.0685 -15.0092 -15.0092 -15.0005 -15.0005
   -12.7950 -12.7950 -12.7768 -12.7768 -12.7706 -12.7706 -12.7311 -12.7311
   -12.7274 -12.7274 -12.7189 -12.7189 -12.7127 -12.7127 -12.6990 -12.6990
   -12.6849 -12.6849 -12.6573 -12.6573 -12.6560 -12.6560 -12.6443 -12.6443
   -12.6406 -12.6406 -12.6336 -12.6336 -12.5939 -12.5939 -12.5900 -12.5900
   -12.5692 -12.5692 -12.5639 -12.5639 -12.5360 -12.5360 -12.5049 -12.5049
   -12.4982 -12.4982 -12.4909 -12.4909 -12.4876 -12.4876 -12.4173 -12.4173
   -11.4157 -11.4157 -11.3305 -11.3305 -11.2596 -11.2596 -11.2425 -11.2425
   -11.1877 -11.1877 -11.1550 -11.1550 -11.0946 -11.0946 -11.0742 -11.0742
   -11.0620 -11.0620 -11.0248 -11.0248 -11.0117 -11.0117 -10.9887 -10.9887
   -10.9763 -10.9763 -10.9123 -10.9123 -10.8936 -10.8936 -10.8707 -10.8707
   -10.8263 -10.8263 -10.7855 -10.7855 -10.7557 -10.7557 -10.6850 -10.6850
   -10.6403 -10.6403 -10.6283 -10.6283 -10.5719 -10.5719 -10.5355 -10.5355
    -6.0981  -6.0981  -6.0136  -6.0136  -5.9779  -5.9779  -5.9714  -5.9714
    -5.9413  -5.9413  -5.9349  -5.9349  -5.7957  -5.7957  -5.7734  -5.7734
    -5.3488  -5.3488  -4.9448  -4.9448  -4.8981  -4.8981  -4.8644  -4.8644
    -4.5063  -4.5063  -4.4934  -4.4934  -4.4707  -4.4707  -4.4613  -4.4613
    -4.4347  -4.4347  -4.4107  -4.4107  -4.3963  -4.3963  -4.3825  -4.3825
    -4.3757  -4.3757  -4.3653  -4.3653  -4.3544  -4.3544  -4.3465  -4.3465
    -4.3406  -4.3406  -4.3185  -4.3185  -4.3128  -4.3128  -4.2147  -4.2147
    -4.1895  -4.1895  -4.1864  -4.1864  -4.1748  -4.1748  -3.9513  -3.9513
    -1.0120  -1.0120  -0.8401  -0.8401  -0.7792  -0.7792  -0.7400  -0.7400
    -0.6962  -0.6962  -0.6488  -0.6488  -0.6006  -0.6006  -0.5417  -0.5417
    -0.5021  -0.5021  -0.4620  -0.4620  -0.3760  -0.3760  -0.3282  -0.3282
     0.2308   0.2308   0.2920   0.2920   0.3029   0.3029   0.4277   0.4277
     0.4630   0.4630   0.5003   0.5003   0.5225   0.5225   0.5352   0.5352
     0.6055   0.6055   0.6459   0.6459   0.6780   0.6780   0.7204   0.7204
     0.7697   0.7697   0.7915   0.7915   0.8169   0.8169   0.8279   0.8279
     0.8591   0.8591   0.8810   0.8810   0.8968   0.8968   0.9231   0.9231
     0.9456   0.9456   0.9601   0.9601   0.9789   0.9789   1.0004   1.0004
     1.0256   1.0256   1.0466   1.0466   1.0614   1.0614   1.0817   1.0817
     1.1007   1.1007   1.1135   1.1135   1.1313   1.1313   1.1534   1.1534
     1.1761   1.1761   1.1870   1.1870   1.2128   1.2128   1.2276   1.2276
     1.2567   1.2567   1.2852   1.2852   1.3037   1.3037   1.3261   1.3261
     1.3633   1.3633   1.3778   1.3778   1.4066   1.4066   1.4210   1.4210
     1.4623   1.4623   1.4842   1.4842   1.5274   1.5274   1.5492   1.5492
     1.5805   1.5805   1.6173   1.6173   1.6430   1.6430   1.6796   1.6796
     1.7137   1.7137   1.7945   1.7945   1.8267   1.8267   1.9168   1.9168
     2.1946   2.1946   2.2436   2.2436   2.2739   2.2739   2.6665   2.6665
     3.7850   3.7850   4.3466   4.3466   4.4709   4.4709   4.5705   4.5705
     5.1136   5.1136   5.2081   5.2081   5.2583   5.2583   5.3625   5.3625
     5.4050   5.4050   5.6801   5.6801   5.7205   5.7205   5.7605   5.7605
     6.4726   6.4726   6.8096   6.8096   7.1790   7.1790   7.2970   7.2970
     7.3864   7.3864   7.4980   7.4980   7.5577   7.5577   7.6647   7.6647
     7.7022   7.7022   7.7517   7.7517   7.8309   7.8309   7.8721   7.8721
     7.9374   7.9374   7.9731   7.9731   8.0568   8.0568   8.1428   8.1428
     8.1990   8.1990   8.2126   8.2126   8.2905   8.2905   8.3218   8.3218
     8.3528   8.3528   8.3893   8.3893   8.4224   8.4224   8.4643   8.4643
     8.4946   8.4946   8.5176   8.5176   8.5546   8.5546   8.5713   8.5713
     8.5986   8.5986   8.6334   8.6334   8.6652   8.6652   8.7231   8.7231
     8.7550   8.7550   8.7885   8.7885   8.8481   8.8481   8.8641   8.8641
     8.8726   8.8726   8.9493   8.9493   8.9791   8.9791   8.9962   8.9962
     9.0349   9.0349   9.1417   9.1417   9.1822   9.1822   9.2273   9.2273
     9.2520   9.2520   9.3020   9.3020   9.3193   9.3193   9.3604   9.3604
     9.4076   9.4076   9.4466   9.4466   9.5064   9.5064   9.5236   9.5236
     9.5633   9.5633   9.5842   9.5842   9.6189   9.6189   9.6465   9.6465
     9.6826   9.6826   9.7024   9.7024   9.7375   9.7375   9.7795   9.7795
     9.8262   9.8262   9.8387   9.8387

     occupation numbers 
     1.0000   1.0000   1.0000   1.0000   1.0000   1.0000   1.0000   1.0000
     1.0000   1.0000   1.0000   1.0000   1.0000   1.0000   1.0000   1.0000
     1.0000   1.0000   1.0000   1.0000   1.0000   1.0000   1.0000   1.0000
     1.0000   1.0000   1.0000   1.0000   1.0000   1.0000   1.0000   1.0000
     1.0000   1.0000   1.0000   1.0000   1.0000   1.0000   1.0000   1.0000
     1.0000   1.0000   1.0000   1.0000   1.0000   1.0000   1.0000   1.0000
     1.0000   1.0000   1.0000   1.0000   1.0000   1.0000   1.0000   1.0000
     1.0000   1.0000   1.0000   1.0000   1.0000   1.0000   1.0000   1.0000
     1.0000   1.0000   1.0000   1.0000   1.0000   1.0000   1.0000   1.0000
     1.0000   1.0000   1.0000   1.0000   1.0000   1.0000   1.0000   1.0000
     1.0000   1.0000   1.0000   1.0000   1.0000   1.0000   1.0000   1.0000
     1.0000   1.0000   1.0000   1.0000   1.0000   1.0000   1.0000   1.0000
     1.0000   1.0000   1.0000   1.0000   1.0000   1.0000   1.0000   1.0000
     1.0000   1.0000   1.0000   1.0000   1.0000   1.0000   1.0000   1.0000
     1.0000   1.0000   1.0000   1.0000   1.0000   1.0000   1.0000   1.0000
     1.0000   1.0000   1.0000   1.0000   1.0000   1.0000   1.0000   1.0000
     1.0000   1.0000   1.0000   1.0000   1.0000   1.0000   1.0000   1.0000
     1.0000   1.0000   1.0000   1.0000   1.0000   1.0000   1.0000   1.0000
     1.0000   1.0000   1.0000   1.0000   1.0000   1.0000   1.0000   1.0000
     1.0000   1.0000   1.0000   1.0000   1.0000   1.0000   1.0000   1.0000
     1.0000   1.0000   1.0000   1.0000   1.0000   1.0000   1.0000   1.0000
     1.0000   1.0000   1.0000   1.0000   1.0000   1.0000   1.0000   1.0000
     1.0000   1.0000   1.0000   1.0000   1.0000   1.0000   1.0000   1.0000
     1.0000   1.0000   1.0000   1.0000   1.0000   1.0000   1.0000   1.0000
     1.0000   1.0000   1.0000   1.0000   1.0000   1.0000   1.0000   1.0000
     1.0000   1.0000   1.0000   1.0000   1.0000   1.0000   1.0000   1.0000
     1.0000   1.0000   1.0000   1.0000   1.0000   1.0000   1.0000   1.0000
     1.0000   1.0000   1.0000   1.0000   1.0000   1.0000   1.0000   1.0000
     1.0000   1.0000   1.0000   1.0000   1.0000   1.0000   1.0000   1.0000
     1.0000   1.0000   1.0000   1.0000   1.0000   1.0000   1.0000   1.0000
     1.0000   1.0000   1.0000   1.0000   1.0000   1.0000   1.0000   1.0000
     1.0000   1.0000   1.0000   1.0000   1.0000   1.0000   1.0000   1.0000
     1.0000   1.0000   1.0000   1.0000   1.0000   1.0000   1.0000   1.0000
     1.0000   1.0000   1.0000   1.0000   1.0000   1.0000   1.0000   1.0000
     1.0000   1.0000   1.0000   1.0000   1.0000   1.0000   1.0000   1.0000
     1.0000   1.0000   1.0000   1.0000   1.0000   1.0000   1.0000   1.0000
     1.0000   1.0000   1.0000   1.0000   1.0000   1.0000   1.0000   1.0000
     1.0000   1.0000   1.0000   1.0000   1.0000   1.0000   1.0000   1.0000
     1.0000   1.0000   1.0000   1.0000   1.0000   1.0000   1.0000   1.0000
     1.0000   1.0000   1.0000   1.0000   1.0000   1.0000   1.0000   1.0000
     1.0000   1.0000   1.0000   1.0000   1.0000   1.0000   1.0000   1.0000
     1.0000   1.0000   1.0000   1.0000   1.0000   1.0000   1.0000   1.0000
     1.0000   1.0000   1.0000   1.0000   1.0000   1.0000   1.0000   1.0000
     1.0000   1.0000   1.0000   1.0000   1.0000   1.0000   1.0000   1.0000
     0.0000   0.0000   0.0000   0.0000   0.0000   0.0000   0.0000   0.0000
     0.0000   0.0000   0.0000   0.0000   0.0000   0.0000   0.0000   0.0000
     0.0000   0.0000   0.0000   0.0000   0.0000   0.0000   0.0000   0.0000
     0.0000   0.0000   0.0000   0.0000   0.0000   0.0000   0.0000   0.0000
     0.0000   0.0000   0.0000   0.0000   0.0000   0.0000   0.0000   0.0000
     0.0000   0.0000   0.0000   0.0000   0.0000   0.0000   0.0000   0.0000
     0.0000   0.0000   0.0000   0.0000   0.0000   0.0000   0.0000   0.0000
     0.0000   0.0000   0.0000   0.0000   0.0000   0.0000   0.0000   0.0000
     0.0000   0.0000   0.0000   0.0000   0.0000   0.0000   0.0000   0.0000
     0.0000   0.0000   0.0000   0.0000   0.0000   0.0000   0.0000   0.0000
     0.0000   0.0000   0.0000   0.0000   0.0000   0.0000   0.0000   0.0000
     0.0000   0.0000   0.0000   0.0000   0.0000   0.0000   0.0000   0.0000
     0.0000   0.0000   0.0000   0.0000   0.0000   0.0000   0.0000   0.0000
     0.0000   0.0000   0.0000   0.0000   0.0000   0.0000   0.0000   0.0000
     0.0000   0.0000   0.0000   0.0000   0.0000   0.0000   0.0000   0.0000
     0.0000   0.0000   0.0000   0.0000   0.0000   0.0000   0.0000   0.0000
     0.0000   0.0000   0.0000   0.0000   0.0000   0.0000   0.0000   0.0000
     0.0000   0.0000   0.0000   0.0000   0.0000   0.0000   0.0000   0.0000
     0.0000   0.0000   0.0000   0.0000

          k = 0.0000 0.0000 0.2500 ( 73920 PWs)   bands (ev):

   -18.1281 -18.1281 -18.0397 -18.0397 -17.9993 -17.9993 -17.9954 -17.9954
   -17.9651 -17.9651 -17.9608 -17.9608 -17.8047 -17.8047 -17.7796 -17.7796
   -15.3216 -15.3216 -15.3009 -15.3009 -15.2532 -15.2525 -15.2495 -15.2489
   -15.2402 -15.2401 -15.2354 -15.2352 -15.2229 -15.2229 -15.2149 -15.2149
   -15.1847 -15.1847 -15.1674 -15.1674 -15.0949 -15.0949 -15.0876 -15.0876
   -15.0734 -15.0734 -15.0685 -15.0685 -15.0092 -15.0092 -15.0005 -15.0005
   -12.7941 -12.7939 -12.7724 -12.7704 -12.7695 -12.7677 -12.7354 -12.7323
   -12.7274 -12.7273 -12.7247 -12.7229 -12.7128 -12.7127 -12.6986 -12.6983
   -12.6845 -12.6843 -12.6574 -12.6571 -12.6562 -12.6560 -12.6454 -12.6448
   -12.6412 -12.6410 -12.6336 -12.6335 -12.5943 -12.5941 -12.5900 -12.5899
   -12.5693 -12.5692 -12.5629 -12.5626 -12.5365 -12.5361 -12.5059 -12.5056
   -12.4982 -12.4982 -12.4912 -12.4910 -12.4893 -12.4888 -12.4173 -12.4172
   -11.4081 -11.4069 -11.3490 -11.3475 -11.2614 -11.2598 -11.2336 -11.2315
   -11.1926 -11.1916 -11.1605 -11.1600 -11.0901 -11.0895 -11.0675 -11.0666
   -11.0610 -11.0582 -11.0341 -11.0315 -11.0093 -11.0086 -10.9882 -10.9879
   -10.9715 -10.9712 -10.9200 -10.9192 -10.8910 -10.8893 -10.8710 -10.8709
   -10.8158 -10.8153 -10.7853 -10.7849 -10.7577 -10.7574 -10.6852 -10.6845
   -10.6412 -10.6409 -10.6239 -10.6230 -10.5806 -10.5802 -10.5391 -10.5385
    -6.0981  -6.0980  -6.0136  -6.0133  -5.9778  -5.9773  -5.9715  -5.9714
    -5.9416  -5.9415  -5.9351  -5.9350  -5.7958  -5.7957  -5.7736  -5.7732
    -5.2923  -5.2919  -4.9791  -4.9787  -4.8833  -4.8824  -4.8196  -4.8181
    -4.5469  -4.5439  -4.5236  -4.5184  -4.4991  -4.4957  -4.4825  -4.4774
    -4.4201  -4.4187  -4.4101  -4.4027  -4.3986  -4.3963  -4.3822  -4.3780
    -4.3754  -4.3715  -4.3660  -4.3632  -4.3555  -4.3549  -4.3490  -4.3460
    -4.3399  -4.3383  -4.3201  -4.3180  -4.3130  -4.3121  -4.2155  -4.2148
    -4.1901  -4.1890  -4.1874  -4.1854  -4.1760  -4.1752  -4.0380  -4.0365
    -0.9249  -0.8740  -0.8082  -0.7949  -0.7668  -0.7267  -0.7206  -0.6960
    -0.6743  -0.6516  -0.6120  -0.5760  -0.5528  -0.5331  -0.5024  -0.4964
    -0.4576  -0.4408  -0.3885  -0.3712  -0.2987  -0.2810  -0.2310  -0.2157
     0.2085   0.2454   0.2930   0.3007   0.3115   0.3256   0.3696   0.4036
     0.4178   0.4272   0.4323   0.4585   0.4729   0.4859   0.5059   0.5214
     0.5341   0.5569   0.5699   0.5860   0.6186   0.6454   0.6767   0.6855
     0.7076   0.7283   0.7453   0.7599   0.7913   0.8048   0.8110   0.8224
     0.8297   0.8498   0.8585   0.8731   0.8830   0.8937   0.9071   0.9148
     0.9251   0.9345   0.9416   0.9479   0.9622   0.9666   0.9874   0.9938
     1.0060   1.0238   1.0284   1.0428   1.0451   1.0543   1.0711   1.0803
     1.0813   1.0960   1.1056   1.1123   1.1230   1.1372   1.1479   1.1561
     1.1707   1.1804   1.1847   1.2022   1.2063   1.2112   1.2223   1.2325
     1.2482   1.2634   1.2751   1.2943   1.3046   1.3119   1.3219   1.3263
     1.3434   1.3713   1.3757   1.3907   1.3998   1.4104   1.4237   1.4390
     1.4442   1.4668   1.4791   1.4854   1.4964   1.5225   1.5314   1.5505
     1.5609   1.5673   1.5828   1.6243   1.6303   1.6397   1.6570   1.6766
     1.6924   1.7211   1.7651   1.7870   1.8146   1.8391   1.8612   1.9125
     2.0547   2.0931   2.1051   2.1308   2.2675   2.2791   2.5106   2.5165
     3.9657   3.9796   4.3620   4.3816   4.5934   4.6656   4.6846   4.7434
     5.0737   5.1240   5.1871   5.2079   5.3612   5.3846   5.4961   5.5345
     5.6258   5.6722   5.7315   5.7514   5.9119   5.9548   5.9735   6.0162
     6.5616   6.5904   6.6862   6.7598   7.0431   7.0703   7.1430   7.1863
     7.2693   7.3033   7.3533   7.3852   7.4936   7.5326   7.5861   7.6114
     7.6712   7.6749   7.7194   7.7372   7.7706   7.7909   7.8230   7.8617
     7.9006   7.9526   7.9751   7.9782   8.0223   8.0283   8.0575   8.0678
     8.1140   8.1504   8.1617   8.1840   8.2283   8.2635   8.2829   8.3099
     8.3224   8.3489   8.3622   8.3824   8.3984   8.4167   8.4372   8.4574
     8.4652   8.4793   8.4931   8.5016   8.5226   8.5274   8.5427   8.5715
     8.5887   8.6145   8.6268   8.6374   8.6476   8.6683   8.6817   8.7217
     8.7380   8.7530   8.7691   8.7840   8.8026   8.8165   8.8278   8.8580
     8.8602   8.8931   8.9085   8.9219   8.9392   8.9506   8.9769   8.9825
     9.0106   9.0280   9.0682   9.0807   9.1107   9.1190   9.1367   9.1395
     9.1783   9.1980   9.2313   9.2382   9.2537   9.2732   9.3215   9.3381
     9.3602   9.3732   9.4072   9.4220   9.4512   9.4591   9.4699   9.4939
     9.5237   9.5311   9.5628   9.5674   9.5915   9.6062   9.6285   9.6403
     9.6485   9.6597   9.6743   9.6829   9.7272   9.7406   9.7607   9.7701
     9.8012   9.8041   9.8209   9.8326

     occupation numbers 
     1.0000   1.0000   1.0000   1.0000   1.0000   1.0000   1.0000   1.0000
     1.0000   1.0000   1.0000   1.0000   1.0000   1.0000   1.0000   1.0000
     1.0000   1.0000   1.0000   1.0000   1.0000   1.0000   1.0000   1.0000
     1.0000   1.0000   1.0000   1.0000   1.0000   1.0000   1.0000   1.0000
     1.0000   1.0000   1.0000   1.0000   1.0000   1.0000   1.0000   1.0000
     1.0000   1.0000   1.0000   1.0000   1.0000   1.0000   1.0000   1.0000
     1.0000   1.0000   1.0000   1.0000   1.0000   1.0000   1.0000   1.0000
     1.0000   1.0000   1.0000   1.0000   1.0000   1.0000   1.0000   1.0000
     1.0000   1.0000   1.0000   1.0000   1.0000   1.0000   1.0000   1.0000
     1.0000   1.0000   1.0000   1.0000   1.0000   1.0000   1.0000   1.0000
     1.0000   1.0000   1.0000   1.0000   1.0000   1.0000   1.0000   1.0000
     1.0000   1.0000   1.0000   1.0000   1.0000   1.0000   1.0000   1.0000
     1.0000   1.0000   1.0000   1.0000   1.0000   1.0000   1.0000   1.0000
     1.0000   1.0000   1.0000   1.0000   1.0000   1.0000   1.0000   1.0000
     1.0000   1.0000   1.0000   1.0000   1.0000   1.0000   1.0000   1.0000
     1.0000   1.0000   1.0000   1.0000   1.0000   1.0000   1.0000   1.0000
     1.0000   1.0000   1.0000   1.0000   1.0000   1.0000   1.0000   1.0000
     1.0000   1.0000   1.0000   1.0000   1.0000   1.0000   1.0000   1.0000
     1.0000   1.0000   1.0000   1.0000   1.0000   1.0000   1.0000   1.0000
     1.0000   1.0000   1.0000   1.0000   1.0000   1.0000   1.0000   1.0000
     1.0000   1.0000   1.0000   1.0000   1.0000   1.0000   1.0000   1.0000
     1.0000   1.0000   1.0000   1.0000   1.0000   1.0000   1.0000   1.0000
     1.0000   1.0000   1.0000   1.0000   1.0000   1.0000   1.0000   1.0000
     1.0000   1.0000   1.0000   1.0000   1.0000   1.0000   1.0000   1.0000
     1.0000   1.0000   1.0000   1.0000   1.0000   1.0000   1.0000   1.0000
     1.0000   1.0000   1.0000   1.0000   1.0000   1.0000   1.0000   1.0000
     1.0000   1.0000   1.0000   1.0000   1.0000   1.0000   1.0000   1.0000
     1.0000   1.0000   1.0000   1.0000   1.0000   1.0000   1.0000   1.0000
     1.0000   1.0000   1.0000   1.0000   1.0000   1.0000   1.0000   1.0000
     1.0000   1.0000   1.0000   1.0000   1.0000   1.0000   1.0000   1.0000
     1.0000   1.0000   1.0000   1.0000   1.0000   1.0000   1.0000   1.0000
     1.0000   1.0000   1.0000   1.0000   1.0000   1.0000   1.0000   1.0000
     1.0000   1.0000   1.0000   1.0000   1.0000   1.0000   1.0000   1.0000
     1.0000   1.0000   1.0000   1.0000   1.0000   1.0000   1.0000   1.0000
     1.0000   1.0000   1.0000   1.0000   1.0000   1.0000   1.0000   1.0000
     1.0000   1.0000   1.0000   1.0000   1.0000   1.0000   1.0000   1.0000
     1.0000   1.0000   1.0000   1.0000   1.0000   1.0000   1.0000   1.0000
     1.0000   1.0000   1.0000   1.0000   1.0000   1.0000   1.0000   1.0000
     1.0000   1.0000   1.0000   1.0000   1.0000   1.0000   1.0000   1.0000
     1.0000   1.0000   1.0000   1.0000   1.0000   1.0000   1.0000   1.0000
     1.0000   1.0000   1.0000   1.0000   1.0000   1.0000   1.0000   1.0000
     1.0000   1.0000   1.0000   1.0000   1.0000   1.0000   1.0000   1.0000
     1.0000   1.0000   1.0000   1.0000   1.0000   1.0000   1.0000   1.0000
     1.0000   1.0000   1.0000   1.0000   1.0000   1.0000   1.0000   1.0000
     0.0000   0.0000   0.0000   0.0000   0.0000   0.0000   0.0000   0.0000
     0.0000   0.0000   0.0000   0.0000   0.0000   0.0000   0.0000   0.0000
     0.0000   0.0000   0.0000   0.0000   0.0000   0.0000   0.0000   0.0000
     0.0000   0.0000   0.0000   0.0000   0.0000   0.0000   0.0000   0.0000
     0.0000   0.0000   0.0000   0.0000   0.0000   0.0000   0.0000   0.0000
     0.0000   0.0000   0.0000   0.0000   0.0000   0.0000   0.0000   0.0000
     0.0000   0.0000   0.0000   0.0000   0.0000   0.0000   0.0000   0.0000
     0.0000   0.0000   0.0000   0.0000   0.0000   0.0000   0.0000   0.0000
     0.0000   0.0000   0.0000   0.0000   0.0000   0.0000   0.0000   0.0000
     0.0000   0.0000   0.0000   0.0000   0.0000   0.0000   0.0000   0.0000
     0.0000   0.0000   0.0000   0.0000   0.0000   0.0000   0.0000   0.0000
     0.0000   0.0000   0.0000   0.0000   0.0000   0.0000   0.0000   0.0000
     0.0000   0.0000   0.0000   0.0000   0.0000   0.0000   0.0000   0.0000
     0.0000   0.0000   0.0000   0.0000   0.0000   0.0000   0.0000   0.0000
     0.0000   0.0000   0.0000   0.0000   0.0000   0.0000   0.0000   0.0000
     0.0000   0.0000   0.0000   0.0000   0.0000   0.0000   0.0000   0.0000
     0.0000   0.0000   0.0000   0.0000   0.0000   0.0000   0.0000   0.0000
     0.0000   0.0000   0.0000   0.0000   0.0000   0.0000   0.0000   0.0000
     0.0000   0.0000   0.0000   0.0000

          k = 0.0000 0.0000 0.5000 ( 73956 PWs)   bands (ev):

   -18.1281 -18.1281 -18.0397 -18.0397 -17.9993 -17.9993 -17.9954 -17.9954
   -17.9651 -17.9651 -17.9608 -17.9608 -17.8047 -17.8047 -17.7796 -17.7796
   -15.3216 -15.3216 -15.3009 -15.3009 -15.2515 -15.2515 -15.2502 -15.2502
   -15.2402 -15.2402 -15.2356 -15.2356 -15.2229 -15.2229 -15.2149 -15.2149
   -15.1847 -15.1847 -15.1674 -15.1674 -15.0949 -15.0949 -15.0876 -15.0876
   -15.0734 -15.0734 -15.0685 -15.0685 -15.0092 -15.0092 -15.0005 -15.0005
   -12.7931 -12.7931 -12.7692 -12.7692 -12.7585 -12.7585 -12.7434 -12.7434
   -12.7272 -12.7272 -12.7269 -12.7269 -12.7127 -12.7127 -12.6980 -12.6980
   -12.6839 -12.6839 -12.6572 -12.6572 -12.6561 -12.6561 -12.6460 -12.6460
   -12.6415 -12.6415 -12.6335 -12.6335 -12.5945 -12.5945 -12.5899 -12.5899
   -12.5694 -12.5694 -12.5614 -12.5614 -12.5364 -12.5364 -12.5069 -12.5069
   -12.4982 -12.4982 -12.4916 -12.4916 -12.4900 -12.4900 -12.4173 -12.4173
   -11.3907 -11.3907 -11.3732 -11.3732 -11.2597 -11.2597 -11.2246 -11.2246
   -11.1985 -11.1985 -11.1636 -11.1636 -11.0863 -11.0863 -11.0630 -11.0630
   -11.0524 -11.0524 -11.0423 -11.0423 -11.0045 -11.0045 -10.9879 -10.9879
   -10.9672 -10.9672 -10.9257 -10.9257 -10.8881 -10.8881 -10.8711 -10.8711
   -10.8053 -10.8053 -10.7838 -10.7838 -10.7605 -10.7605 -10.6849 -10.6849
   -10.6424 -10.6424 -10.6123 -10.6123 -10.5947 -10.5947 -10.5422 -10.5422
    -6.0980  -6.0980  -6.0134  -6.0134  -5.9773  -5.9773  -5.9715  -5.9715
    -5.9418  -5.9418  -5.9351  -5.9351  -5.7958  -5.7958  -5.7734  -5.7734
    -5.1524  -5.1524  -5.1366  -5.1366  -4.7691  -4.7691  -4.7376  -4.7376
    -4.6763  -4.6763  -4.6152  -4.6152  -4.5015  -4.5015  -4.4807  -4.4807
    -4.4190  -4.4190  -4.3998  -4.3998  -4.3902  -4.3902  -4.3778  -4.3778
    -4.3677  -4.3677  -4.3592  -4.3592  -4.3527  -4.3527  -4.3454  -4.3454
    -4.3221  -4.3221  -4.3152  -4.3152  -4.2454  -4.2454  -4.2177  -4.2177
    -4.2078  -4.2078  -4.1862  -4.1862  -4.1821  -4.1821  -4.1670  -4.1670
    -0.8471  -0.8471  -0.8103  -0.8103  -0.7159  -0.7159  -0.6922  -0.6922
    -0.6167  -0.6167  -0.5315  -0.5315  -0.5158  -0.5158  -0.4272  -0.4272
    -0.2226  -0.2226  -0.1129  -0.1129  -0.0473  -0.0473  -0.0160  -0.0160
     0.0331   0.0331   0.1762   0.1762   0.2458   0.2458   0.2990   0.2990
     0.3378   0.3378   0.3607   0.3607   0.3950   0.3950   0.4259   0.4259
     0.4460   0.4460   0.5138   0.5138   0.5854   0.5854   0.6369   0.6369
     0.6929   0.6929   0.7313   0.7313   0.7789   0.7789   0.7983   0.7983
     0.8122   0.8122   0.8580   0.8580   0.8750   0.8750   0.8909   0.8909
     0.9242   0.9242   0.9326   0.9326   0.9559   0.9559   0.9970   0.9970
     1.0125   1.0125   1.0359   1.0359   1.0522   1.0522   1.0705   1.0705
     1.0887   1.0887   1.1038   1.1038   1.1384   1.1384   1.1532   1.1532
     1.1651   1.1651   1.1884   1.1884   1.2190   1.2190   1.2357   1.2357
     1.2518   1.2518   1.2694   1.2694   1.3038   1.3038   1.3290   1.3290
     1.3633   1.3633   1.3755   1.3755   1.4056   1.4056   1.4350   1.4350
     1.4596   1.4596   1.4759   1.4759   1.5054   1.5054   1.5244   1.5244
     1.5459   1.5459   1.5947   1.5947   1.6391   1.6391   1.6709   1.6709
     1.6974   1.6974   1.7634   1.7634   1.8306   1.8306   1.8845   1.8845
     1.9464   1.9464   2.0163   2.0163   2.3221   2.3221   2.3715   2.3715
     4.2043   4.2043   4.2450   4.2450   4.8120   4.8120   4.8828   4.8828
     5.0244   5.0244   5.1310   5.1310   5.4759   5.4759   5.4992   5.4992
     6.0778   6.0778   6.2396   6.2396   6.3822   6.3822   6.4822   6.4822
     6.5142   6.5142   6.6058   6.6058   6.6720   6.6720   6.7810   6.7810
     7.0133   7.0133   7.0566   7.0566   7.4906   7.4906   7.5611   7.5611
     7.6163   7.6163   7.7250   7.7250   7.7945   7.7945   7.8575   7.8575
     7.9149   7.9149   7.9640   7.9640   7.9874   7.9874   8.0699   8.0699
     8.1003   8.1003   8.1441   8.1441   8.2224   8.2224   8.2531   8.2531
     8.2841   8.2841   8.3293   8.3293   8.3811   8.3811   8.4148   8.4148
     8.4537   8.4537   8.4830   8.4830   8.5026   8.5026   8.5396   8.5396
     8.5833   8.5833   8.6214   8.6214   8.6336   8.6336   8.6996   8.6996
     8.7225   8.7225   8.7622   8.7622   8.8011   8.8011   8.8271   8.8271
     8.8502   8.8502   8.9102   8.9102   8.9292   8.9292   8.9738   8.9738
     9.0190   9.0190   9.0526   9.0526   9.0764   9.0764   9.1055   9.1055
     9.1421   9.1422   9.2065   9.2065   9.2306   9.2306   9.2810   9.2810
     9.3039   9.3039   9.3238   9.3238   9.4206   9.4206   9.4407   9.4407
     9.4616   9.4616   9.5567   9.5567   9.6072   9.6072   9.6186   9.6186
     9.6398   9.6398   9.6508   9.6508   9.6916   9.6916   9.7415   9.7415
     9.7815   9.7815   9.8196   9.8196

     occupation numbers 
     1.0000   1.0000   1.0000   1.0000   1.0000   1.0000   1.0000   1.0000
     1.0000   1.0000   1.0000   1.0000   1.0000   1.0000   1.0000   1.0000
     1.0000   1.0000   1.0000   1.0000   1.0000   1.0000   1.0000   1.0000
     1.0000   1.0000   1.0000   1.0000   1.0000   1.0000   1.0000   1.0000
     1.0000   1.0000   1.0000   1.0000   1.0000   1.0000   1.0000   1.0000
     1.0000   1.0000   1.0000   1.0000   1.0000   1.0000   1.0000   1.0000
     1.0000   1.0000   1.0000   1.0000   1.0000   1.0000   1.0000   1.0000
     1.0000   1.0000   1.0000   1.0000   1.0000   1.0000   1.0000   1.0000
     1.0000   1.0000   1.0000   1.0000   1.0000   1.0000   1.0000   1.0000
     1.0000   1.0000   1.0000   1.0000   1.0000   1.0000   1.0000   1.0000
     1.0000   1.0000   1.0000   1.0000   1.0000   1.0000   1.0000   1.0000
     1.0000   1.0000   1.0000   1.0000   1.0000   1.0000   1.0000   1.0000
     1.0000   1.0000   1.0000   1.0000   1.0000   1.0000   1.0000   1.0000
     1.0000   1.0000   1.0000   1.0000   1.0000   1.0000   1.0000   1.0000
     1.0000   1.0000   1.0000   1.0000   1.0000   1.0000   1.0000   1.0000
     1.0000   1.0000   1.0000   1.0000   1.0000   1.0000   1.0000   1.0000
     1.0000   1.0000   1.0000   1.0000   1.0000   1.0000   1.0000   1.0000
     1.0000   1.0000   1.0000   1.0000   1.0000   1.0000   1.0000   1.0000
     1.0000   1.0000   1.0000   1.0000   1.0000   1.0000   1.0000   1.0000
     1.0000   1.0000   1.0000   1.0000   1.0000   1.0000   1.0000   1.0000
     1.0000   1.0000   1.0000   1.0000   1.0000   1.0000   1.0000   1.0000
     1.0000   1.0000   1.0000   1.0000   1.0000   1.0000   1.0000   1.0000
     1.0000   1.0000   1.0000   1.0000   1.0000   1.0000   1.0000   1.0000
     1.0000   1.0000   1.0000   1.0000   1.0000   1.0000   1.0000   1.0000
     1.0000   1.0000   1.0000   1.0000   1.0000   1.0000   1.0000   1.0000
     1.0000   1.0000   1.0000   1.0000   1.0000   1.0000   1.0000   1.0000
     1.0000   1.0000   1.0000   1.0000   1.0000   1.0000   1.0000   1.0000
     1.0000   1.0000   1.0000   1.0000   1.0000   1.0000   1.0000   1.0000
     1.0000   1.0000   1.0000   1.0000   1.0000   1.0000   1.0000   1.0000
     1.0000   1.0000   1.0000   1.0000   1.0000   1.0000   1.0000   1.0000
     1.0000   1.0000   1.0000   1.0000   1.0000   1.0000   1.0000   1.0000
     1.0000   1.0000   1.0000   1.0000   1.0000   1.0000   1.0000   1.0000
     1.0000   1.0000   1.0000   1.0000   1.0000   1.0000   1.0000   1.0000
     1.0000   1.0000   1.0000   1.0000   1.0000   1.0000   1.0000   1.0000
     1.0000   1.0000   1.0000   1.0000   1.0000   1.0000   1.0000   1.0000
     1.0000   1.0000   1.0000   1.0000   1.0000   1.0000   1.0000   1.0000
     1.0000   1.0000   1.0000   1.0000   1.0000   1.0000   1.0000   1.0000
     1.0000   1.0000   1.0000   1.0000   1.0000   1.0000   1.0000   1.0000
     1.0000   1.0000   1.0000   1.0000   1.0000   1.0000   1.0000   1.0000
     1.0000   1.0000   1.0000   1.0000   1.0000   1.0000   1.0000   1.0000
     1.0000   1.0000   1.0000   1.0000   1.0000   1.0000   1.0000   1.0000
     1.0000   1.0000   1.0000   1.0000   1.0000   1.0000   1.0000   1.0000
     1.0000   1.0000   1.0000   1.0000   1.0000   1.0000   1.0000   1.0000
     1.0000   1.0000   1.0000   1.0000   1.0000   1.0000   1.0000   1.0000
     0.0000   0.0000   0.0000   0.0000   0.0000   0.0000   0.0000   0.0000
     0.0000   0.0000   0.0000   0.0000   0.0000   0.0000   0.0000   0.0000
     0.0000   0.0000   0.0000   0.0000   0.0000   0.0000   0.0000   0.0000
     0.0000   0.0000   0.0000   0.0000   0.0000   0.0000   0.0000   0.0000
     0.0000   0.0000   0.0000   0.0000   0.0000   0.0000   0.0000   0.0000
     0.0000   0.0000   0.0000   0.0000   0.0000   0.0000   0.0000   0.0000
     0.0000   0.0000   0.0000   0.0000   0.0000   0.0000   0.0000   0.0000
     0.0000   0.0000   0.0000   0.0000   0.0000   0.0000   0.0000   0.0000
     0.0000   0.0000   0.0000   0.0000   0.0000   0.0000   0.0000   0.0000
     0.0000   0.0000   0.0000   0.0000   0.0000   0.0000   0.0000   0.0000
     0.0000   0.0000   0.0000   0.0000   0.0000   0.0000   0.0000   0.0000
     0.0000   0.0000   0.0000   0.0000   0.0000   0.0000   0.0000   0.0000
     0.0000   0.0000   0.0000   0.0000   0.0000   0.0000   0.0000   0.0000
     0.0000   0.0000   0.0000   0.0000   0.0000   0.0000   0.0000   0.0000
     0.0000   0.0000   0.0000   0.0000   0.0000   0.0000   0.0000   0.0000
     0.0000   0.0000   0.0000   0.0000   0.0000   0.0000   0.0000   0.0000
     0.0000   0.0000   0.0000   0.0000   0.0000   0.0000   0.0000   0.0000
     0.0000   0.0000   0.0000   0.0000   0.0000   0.0000   0.0000   0.0000
     0.0000   0.0000   0.0000   0.0000

          k = 0.0000 0.0000 0.7500 ( 73920 PWs)   bands (ev):

   -18.1281 -18.1281 -18.0397 -18.0397 -17.9993 -17.9993 -17.9954 -17.9954
   -17.9651 -17.9651 -17.9608 -17.9608 -17.8047 -17.8047 -17.7796 -17.7796
   -15.3216 -15.3216 -15.3009 -15.3009 -15.2532 -15.2525 -15.2495 -15.2489
   -15.2402 -15.2401 -15.2354 -15.2352 -15.2229 -15.2229 -15.2149 -15.2149
   -15.1847 -15.1847 -15.1674 -15.1674 -15.0949 -15.0949 -15.0876 -15.0876
   -15.0734 -15.0734 -15.0685 -15.0685 -15.0092 -15.0092 -15.0005 -15.0005
   -12.7941 -12.7939 -12.7724 -12.7704 -12.7695 -12.7677 -12.7354 -12.7323
   -12.7274 -12.7273 -12.7247 -12.7229 -12.7128 -12.7127 -12.6986 -12.6983
   -12.6845 -12.6843 -12.6574 -12.6571 -12.6562 -12.6560 -12.6454 -12.6448
   -12.6412 -12.6410 -12.6336 -12.6335 -12.5943 -12.5941 -12.5900 -12.5899
   -12.5693 -12.5692 -12.5629 -12.5626 -12.5365 -12.5361 -12.5059 -12.5056
   -12.4982 -12.4982 -12.4912 -12.4910 -12.4893 -12.4888 -12.4173 -12.4172
   -11.4081 -11.4069 -11.3490 -11.3475 -11.2614 -11.2598 -11.2336 -11.2315
   -11.1926 -11.1916 -11.1605 -11.1600 -11.0901 -11.0895 -11.0675 -11.0666
   -11.0610 -11.0582 -11.0341 -11.0315 -11.0093 -11.0086 -10.9882 -10.9879
   -10.9715 -10.9712 -10.9200 -10.9192 -10.8910 -10.8893 -10.8710 -10.8709
   -10.8158 -10.8153 -10.7853 -10.7849 -10.7577 -10.7574 -10.6852 -10.6845
   -10.6412 -10.6409 -10.6239 -10.6230 -10.5806 -10.5802 -10.5391 -10.5385
    -6.0981  -6.0980  -6.0136  -6.0133  -5.9778  -5.9773  -5.9715  -5.9714
    -5.9416  -5.9415  -5.9351  -5.9350  -5.7958  -5.7957  -5.7736  -5.7732
    -5.2923  -5.2919  -4.9791  -4.9787  -4.8833  -4.8824  -4.8196  -4.8181
    -4.5469  -4.5439  -4.5236  -4.5184  -4.4991  -4.4957  -4.4825  -4.4774
    -4.4201  -4.4187  -4.4101  -4.4027  -4.3986  -4.3963  -4.3822  -4.3780
    -4.3754  -4.3715  -4.3660  -4.3632  -4.3555  -4.3549  -4.3490  -4.3460
    -4.3399  -4.3383  -4.3201  -4.3180  -4.3130  -4.3121  -4.2155  -4.2148
    -4.1901  -4.1890  -4.1874  -4.1854  -4.1760  -4.1752  -4.0380  -4.0365
    -0.9249  -0.8740  -0.8082  -0.7949  -0.7668  -0.7267  -0.7206  -0.6960
    -0.6743  -0.6516  -0.6120  -0.5760  -0.5528  -0.5331  -0.5024  -0.4964
    -0.4576  -0.4408  -0.3885  -0.3712  -0.2987  -0.2810  -0.2310  -0.2157
     0.2085   0.2454   0.2930   0.3007   0.3115   0.3256   0.3696   0.4036
     0.4178   0.4272   0.4323   0.4585   0.4729   0.4859   0.5059   0.5214
     0.5341   0.5569   0.5699   0.5860   0.6186   0.6454   0.6767   0.6855
     0.7076   0.7283   0.7453   0.7599   0.7913   0.8048   0.8110   0.8224
     0.8297   0.8498   0.8585   0.8731   0.8830   0.8937   0.9071   0.9148
     0.9251   0.9345   0.9416   0.9479   0.9622   0.9666   0.9874   0.9938
     1.0060   1.0238   1.0284   1.0428   1.0451   1.0543   1.0711   1.0803
     1.0813   1.0960   1.1056   1.1123   1.1230   1.1372   1.1479   1.1561
     1.1707   1.1804   1.1847   1.2022   1.2063   1.2112   1.2223   1.2325
     1.2482   1.2634   1.2751   1.2943   1.3046   1.3119   1.3219   1.3263
     1.3434   1.3713   1.3757   1.3907   1.3998   1.4104   1.4237   1.4390
     1.4442   1.4668   1.4791   1.4854   1.4964   1.5225   1.5314   1.5505
     1.5609   1.5673   1.5828   1.6243   1.6303   1.6397   1.6570   1.6766
     1.6924   1.7211   1.7651   1.7870   1.8146   1.8391   1.8612   1.9125
     2.0547   2.0931   2.1051   2.1308   2.2675   2.2791   2.5106   2.5165
     3.9657   3.9796   4.3620   4.3816   4.5934   4.6656   4.6846   4.7434
     5.0737   5.1240   5.1871   5.2079   5.3612   5.3846   5.4961   5.5345
     5.6258   5.6722   5.7315   5.7514   5.9119   5.9548   5.9735   6.0162
     6.5616   6.5904   6.6862   6.7598   7.0431   7.0703   7.1430   7.1863
     7.2693   7.3033   7.3533   7.3852   7.4936   7.5326   7.5861   7.6114
     7.6712   7.6749   7.7194   7.7372   7.7706   7.7909   7.8230   7.8617
     7.9006   7.9526   7.9751   7.9782   8.0223   8.0283   8.0575   8.0678
     8.1140   8.1504   8.1617   8.1840   8.2283   8.2635   8.2829   8.3099
     8.3224   8.3489   8.3622   8.3824   8.3984   8.4167   8.4372   8.4574
     8.4652   8.4793   8.4931   8.5016   8.5226   8.5274   8.5427   8.5715
     8.5887   8.6145   8.6268   8.6374   8.6476   8.6683   8.6817   8.7217
     8.7380   8.7530   8.7691   8.7840   8.8026   8.8165   8.8278   8.8580
     8.8602   8.8931   8.9085   8.9219   8.9392   8.9506   8.9769   8.9825
     9.0106   9.0280   9.0682   9.0807   9.1107   9.1190   9.1367   9.1395
     9.1783   9.1980   9.2313   9.2382   9.2537   9.2732   9.3215   9.3381
     9.3602   9.3732   9.4072   9.4220   9.4512   9.4591   9.4699   9.4939
     9.5237   9.5311   9.5628   9.5674   9.5915   9.6062   9.6285   9.6403
     9.6485   9.6597   9.6743   9.6829   9.7272   9.7406   9.7607   9.7701
     9.8012   9.8041   9.8209   9.8326

     occupation numbers 
     1.0000   1.0000   1.0000   1.0000   1.0000   1.0000   1.0000   1.0000
     1.0000   1.0000   1.0000   1.0000   1.0000   1.0000   1.0000   1.0000
     1.0000   1.0000   1.0000   1.0000   1.0000   1.0000   1.0000   1.0000
     1.0000   1.0000   1.0000   1.0000   1.0000   1.0000   1.0000   1.0000
     1.0000   1.0000   1.0000   1.0000   1.0000   1.0000   1.0000   1.0000
     1.0000   1.0000   1.0000   1.0000   1.0000   1.0000   1.0000   1.0000
     1.0000   1.0000   1.0000   1.0000   1.0000   1.0000   1.0000   1.0000
     1.0000   1.0000   1.0000   1.0000   1.0000   1.0000   1.0000   1.0000
     1.0000   1.0000   1.0000   1.0000   1.0000   1.0000   1.0000   1.0000
     1.0000   1.0000   1.0000   1.0000   1.0000   1.0000   1.0000   1.0000
     1.0000   1.0000   1.0000   1.0000   1.0000   1.0000   1.0000   1.0000
     1.0000   1.0000   1.0000   1.0000   1.0000   1.0000   1.0000   1.0000
     1.0000   1.0000   1.0000   1.0000   1.0000   1.0000   1.0000   1.0000
     1.0000   1.0000   1.0000   1.0000   1.0000   1.0000   1.0000   1.0000
     1.0000   1.0000   1.0000   1.0000   1.0000   1.0000   1.0000   1.0000
     1.0000   1.0000   1.0000   1.0000   1.0000   1.0000   1.0000   1.0000
     1.0000   1.0000   1.0000   1.0000   1.0000   1.0000   1.0000   1.0000
     1.0000   1.0000   1.0000   1.0000   1.0000   1.0000   1.0000   1.0000
     1.0000   1.0000   1.0000   1.0000   1.0000   1.0000   1.0000   1.0000
     1.0000   1.0000   1.0000   1.0000   1.0000   1.0000   1.0000   1.0000
     1.0000   1.0000   1.0000   1.0000   1.0000   1.0000   1.0000   1.0000
     1.0000   1.0000   1.0000   1.0000   1.0000   1.0000   1.0000   1.0000
     1.0000   1.0000   1.0000   1.0000   1.0000   1.0000   1.0000   1.0000
     1.0000   1.0000   1.0000   1.0000   1.0000   1.0000   1.0000   1.0000
     1.0000   1.0000   1.0000   1.0000   1.0000   1.0000   1.0000   1.0000
     1.0000   1.0000   1.0000   1.0000   1.0000   1.0000   1.0000   1.0000
     1.0000   1.0000   1.0000   1.0000   1.0000   1.0000   1.0000   1.0000
     1.0000   1.0000   1.0000   1.0000   1.0000   1.0000   1.0000   1.0000
     1.0000   1.0000   1.0000   1.0000   1.0000   1.0000   1.0000   1.0000
     1.0000   1.0000   1.0000   1.0000   1.0000   1.0000   1.0000   1.0000
     1.0000   1.0000   1.0000   1.0000   1.0000   1.0000   1.0000   1.0000
     1.0000   1.0000   1.0000   1.0000   1.0000   1.0000   1.0000   1.0000
     1.0000   1.0000   1.0000   1.0000   1.0000   1.0000   1.0000   1.0000
     1.0000   1.0000   1.0000   1.0000   1.0000   1.0000   1.0000   1.0000
     1.0000   1.0000   1.0000   1.0000   1.0000   1.0000   1.0000   1.0000
     1.0000   1.0000   1.0000   1.0000   1.0000   1.0000   1.0000   1.0000
     1.0000   1.0000   1.0000   1.0000   1.0000   1.0000   1.0000   1.0000
     1.0000   1.0000   1.0000   1.0000   1.0000   1.0000   1.0000   1.0000
     1.0000   1.0000   1.0000   1.0000   1.0000   1.0000   1.0000   1.0000
     1.0000   1.0000   1.0000   1.0000   1.0000   1.0000   1.0000   1.0000
     1.0000   1.0000   1.0000   1.0000   1.0000   1.0000   1.0000   1.0000
     1.0000   1.0000   1.0000   1.0000   1.0000   1.0000   1.0000   1.0000
     1.0000   1.0000   1.0000   1.0000   1.0000   1.0000   1.0000   1.0000
     1.0000   1.0000   1.0000   1.0000   1.0000   1.0000   1.0000   1.0000
     0.0000   0.0000   0.0000   0.0000   0.0000   0.0000   0.0000   0.0000
     0.0000   0.0000   0.0000   0.0000   0.0000   0.0000   0.0000   0.0000
     0.0000   0.0000   0.0000   0.0000   0.0000   0.0000   0.0000   0.0000
     0.0000   0.0000   0.0000   0.0000   0.0000   0.0000   0.0000   0.0000
     0.0000   0.0000   0.0000   0.0000   0.0000   0.0000   0.0000   0.0000
     0.0000   0.0000   0.0000   0.0000   0.0000   0.0000   0.0000   0.0000
     0.0000   0.0000   0.0000   0.0000   0.0000   0.0000   0.0000   0.0000
     0.0000   0.0000   0.0000   0.0000   0.0000   0.0000   0.0000   0.0000
     0.0000   0.0000   0.0000   0.0000   0.0000   0.0000   0.0000   0.0000
     0.0000   0.0000   0.0000   0.0000   0.0000   0.0000   0.0000   0.0000
     0.0000   0.0000   0.0000   0.0000   0.0000   0.0000   0.0000   0.0000
     0.0000   0.0000   0.0000   0.0000   0.0000   0.0000   0.0000   0.0000
     0.0000   0.0000   0.0000   0.0000   0.0000   0.0000   0.0000   0.0000
     0.0000   0.0000   0.0000   0.0000   0.0000   0.0000   0.0000   0.0000
     0.0000   0.0000   0.0000   0.0000   0.0000   0.0000   0.0000   0.0000
     0.0000   0.0000   0.0000   0.0000   0.0000   0.0000   0.0000   0.0000
     0.0000   0.0000   0.0000   0.0000   0.0000   0.0000   0.0000   0.0000
     0.0000   0.0000   0.0000   0.0000   0.0000   0.0000   0.0000   0.0000
     0.0000   0.0000   0.0000   0.0000

          k = 0.0000 0.2500 0.0000 ( 73920 PWs)   bands (ev):

   -18.1281 -18.1281 -18.0397 -18.0397 -17.9993 -17.9993 -17.9954 -17.9954
   -17.9651 -17.9651 -17.9608 -17.9608 -17.8047 -17.8047 -17.7796 -17.7796
   -15.3216 -15.3216 -15.3009 -15.3009 -15.2537 -15.2537 -15.2486 -15.2486
   -15.2401 -15.2401 -15.2350 -15.2350 -15.2229 -15.2228 -15.2149 -15.2149
   -15.1848 -15.1848 -15.1675 -15.1674 -15.0950 -15.0949 -15.0877 -15.0876
   -15.0735 -15.0735 -15.0685 -15.0685 -15.0092 -15.0092 -15.0005 -15.0005
   -12.7950 -12.7949 -12.7767 -12.7766 -12.7706 -12.7700 -12.7309 -12.7308
   -12.7273 -12.7273 -12.7187 -12.7183 -12.7120 -12.7114 -12.6966 -12.6958
   -12.6838 -12.6836 -12.6574 -12.6573 -12.6562 -12.6560 -12.6472 -12.6463
   -12.6423 -12.6421 -12.6338 -12.6336 -12.5947 -12.5940 -12.5900 -12.5899
   -12.5709 -12.5701 -12.5641 -12.5640 -12.5362 -12.5361 -12.5057 -12.5051
   -12.4983 -12.4982 -12.4910 -12.4909 -12.4877 -12.4877 -12.4173 -12.4173
   -11.4129 -11.4126 -11.3305 -11.3303 -11.2658 -11.2644 -11.2369 -11.2354
   -11.2006 -11.1997 -11.1666 -11.1652 -11.0973 -11.0965 -11.0768 -11.0735
   -11.0593 -11.0583 -11.0279 -11.0267 -11.0188 -11.0162 -10.9731 -10.9723
   -10.9544 -10.9516 -10.9106 -10.9097 -10.8910 -10.8889 -10.8690 -10.8682
   -10.8332 -10.8311 -10.7866 -10.7860 -10.7615 -10.7606 -10.6826 -10.6824
   -10.6442 -10.6436 -10.6283 -10.6279 -10.5731 -10.5729 -10.5397 -10.5392
    -6.0981  -6.0980  -6.0135  -6.0135  -5.9774  -5.9771  -5.9719  -5.9717
    -5.9422  -5.9393  -5.9370  -5.9341  -5.7959  -5.7958  -5.7735  -5.7734
    -5.3037  -5.3033  -4.9632  -4.9623  -4.8660  -4.8652  -4.8460  -4.8450
    -4.5384  -4.5373  -4.5197  -4.5160  -4.4986  -4.4967  -4.4769  -4.4765
    -4.4329  -4.4263  -4.4087  -4.3996  -4.3969  -4.3917  -4.3857  -4.3811
    -4.3746  -4.3728  -4.3637  -4.3627  -4.3571  -4.3540  -4.3497  -4.3450
    -4.3390  -4.3353  -4.3186  -4.3171  -4.3153  -4.3125  -4.2164  -4.2146
    -4.1906  -4.1897  -4.1870  -4.1858  -4.1762  -4.1739  -4.0333  -4.0317
    -1.0339  -0.9939  -0.8268  -0.8125  -0.7405  -0.7244  -0.6961  -0.6740
    -0.6437  -0.6282  -0.5883  -0.5724  -0.5362  -0.5108  -0.4836  -0.4667
    -0.4410  -0.4206  -0.3907  -0.3750  -0.3235  -0.3088  -0.2454  -0.2252
     0.2235   0.2435   0.2735   0.2930   0.3012   0.3279   0.3722   0.3887
     0.4125   0.4344   0.4598   0.4760   0.4785   0.5025   0.5126   0.5226
     0.5412   0.5625   0.5892   0.5976   0.6304   0.6461   0.6764   0.6816
     0.6980   0.7334   0.7518   0.7590   0.7731   0.7909   0.8123   0.8231
     0.8372   0.8467   0.8515   0.8687   0.8753   0.8885   0.8962   0.9136
     0.9224   0.9359   0.9401   0.9476   0.9586   0.9717   0.9847   0.9933
     1.0177   1.0233   1.0301   1.0392   1.0485   1.0559   1.0687   1.0827
     1.0890   1.1008   1.1083   1.1185   1.1272   1.1425   1.1571   1.1596
     1.1689   1.1808   1.1921   1.2029   1.2106   1.2224   1.2295   1.2372
     1.2498   1.2674   1.2748   1.2821   1.2972   1.3103   1.3210   1.3296
     1.3425   1.3571   1.3723   1.3811   1.3982   1.4105   1.4280   1.4335
     1.4428   1.4638   1.4708   1.4818   1.4992   1.5058   1.5241   1.5454
     1.5604   1.5775   1.5939   1.6096   1.6167   1.6416   1.6648   1.6797
     1.7066   1.7251   1.7606   1.7766   1.8028   1.8271   1.9111   1.9380
     2.0306   2.0780   2.1284   2.1644   2.2665   2.2742   2.5130   2.5230
     3.9036   4.0243   4.3607   4.4243   4.5553   4.6255   4.7112   4.7893
     5.0699   5.1261   5.2001   5.2650   5.3318   5.3888   5.4843   5.5354
     5.6068   5.6325   5.6708   5.7200   5.8493   5.9144   5.9616   6.0182
     6.5443   6.5570   6.6837   6.7804   6.9795   7.0660   7.1360   7.1606
     7.2164   7.2719   7.3908   7.4331   7.4954   7.5390   7.6200   7.6628
     7.6937   7.7112   7.7225   7.7417   7.7663   7.7941   7.8385   7.8496
     7.9091   7.9350   7.9650   7.9869   8.0422   8.0645   8.0847   8.1046
     8.1233   8.1452   8.1641   8.2096   8.2205   8.2477   8.2734   8.2921
     8.3003   8.3269   8.3371   8.3625   8.3809   8.4022   8.4129   8.4408
     8.4564   8.4833   8.5039   8.5085   8.5357   8.5604   8.5775   8.5931
     8.6069   8.6159   8.6252   8.6440   8.6638   8.6894   8.7130   8.7303
     8.7399   8.7520   8.7733   8.7812   8.7951   8.8027   8.8422   8.8579
     8.8823   8.8978   8.9148   8.9343   8.9528   8.9652   8.9733   8.9933
     9.0140   9.0210   9.0492   9.0685   9.0892   9.1027   9.1730   9.1896
     9.2130   9.2274   9.2418   9.2493   9.2810   9.3006   9.3263   9.3356
     9.3509   9.3772   9.3885   9.4080   9.4424   9.4552   9.4813   9.4950
     9.5127   9.5281   9.5439   9.5591   9.5910   9.5937   9.6155   9.6268
     9.6488   9.6759   9.7044   9.7125   9.7266   9.7397   9.7517   9.7640
     9.8046   9.8230   9.8406   9.8504

     occupation numbers 
     1.0000   1.0000   1.0000   1.0000   1.0000   1.0000   1.0000   1.0000
     1.0000   1.0000   1.0000   1.0000   1.0000   1.0000   1.0000   1.0000
     1.0000   1.0000   1.0000   1.0000   1.0000   1.0000   1.0000   1.0000
     1.0000   1.0000   1.0000   1.0000   1.0000   1.0000   1.0000   1.0000
     1.0000   1.0000   1.0000   1.0000   1.0000   1.0000   1.0000   1.0000
     1.0000   1.0000   1.0000   1.0000   1.0000   1.0000   1.0000   1.0000
     1.0000   1.0000   1.0000   1.0000   1.0000   1.0000   1.0000   1.0000
     1.0000   1.0000   1.0000   1.0000   1.0000   1.0000   1.0000   1.0000
     1.0000   1.0000   1.0000   1.0000   1.0000   1.0000   1.0000   1.0000
     1.0000   1.0000   1.0000   1.0000   1.0000   1.0000   1.0000   1.0000
     1.0000   1.0000   1.0000   1.0000   1.0000   1.0000   1.0000   1.0000
     1.0000   1.0000   1.0000   1.0000   1.0000   1.0000   1.0000   1.0000
     1.0000   1.0000   1.0000   1.0000   1.0000   1.0000   1.0000   1.0000
     1.0000   1.0000   1.0000   1.0000   1.0000   1.0000   1.0000   1.0000
     1.0000   1.0000   1.0000   1.0000   1.0000   1.0000   1.0000   1.0000
     1.0000   1.0000   1.0000   1.0000   1.0000   1.0000   1.0000   1.0000
     1.0000   1.0000   1.0000   1.0000   1.0000   1.0000   1.0000   1.0000
     1.0000   1.0000   1.0000   1.0000   1.0000   1.0000   1.0000   1.0000
     1.0000   1.0000   1.0000   1.0000   1.0000   1.0000   1.0000   1.0000
     1.0000   1.0000   1.0000   1.0000   1.0000   1.0000   1.0000   1.0000
     1.0000   1.0000   1.0000   1.0000   1.0000   1.0000   1.0000   1.0000
     1.0000   1.0000   1.0000   1.0000   1.0000   1.0000   1.0000   1.0000
     1.0000   1.0000   1.0000   1.0000   1.0000   1.0000   1.0000   1.0000
     1.0000   1.0000   1.0000   1.0000   1.0000   1.0000   1.0000   1.0000
     1.0000   1.0000   1.0000   1.0000   1.0000   1.0000   1.0000   1.0000
     1.0000   1.0000   1.0000   1.0000   1.0000   1.0000   1.0000   1.0000
     1.0000   1.0000   1.0000   1.0000   1.0000   1.0000   1.0000   1.0000
     1.0000   1.0000   1.0000   1.0000   1.0000   1.0000   1.0000   1.0000
     1.0000   1.0000   1.0000   1.0000   1.0000   1.0000   1.0000   1.0000
     1.0000   1.0000   1.0000   1.0000   1.0000   1.0000   1.0000   1.0000
     1.0000   1.0000   1.0000   1.0000   1.0000   1.0000   1.0000   1.0000
     1.0000   1.0000   1.0000   1.0000   1.0000   1.0000   1.0000   1.0000
     1.0000   1.0000   1.0000   1.0000   1.0000   1.0000   1.0000   1.0000
     1.0000   1.0000   1.0000   1.0000   1.0000   1.0000   1.0000   1.0000
     1.0000   1.0000   1.0000   1.0000   1.0000   1.0000   1.0000   1.0000
     1.0000   1.0000   1.0000   1.0000   1.0000   1.0000   1.0000   1.0000
     1.0000   1.0000   1.0000   1.0000   1.0000   1.0000   1.0000   1.0000
     1.0000   1.0000   1.0000   1.0000   1.0000   1.0000   1.0000   1.0000
     1.0000   1.0000   1.0000   1.0000   1.0000   1.0000   1.0000   1.0000
     1.0000   1.0000   1.0000   1.0000   1.0000   1.0000   1.0000   1.0000
     1.0000   1.0000   1.0000   1.0000   1.0000   1.0000   1.0000   1.0000
     1.0000   1.0000   1.0000   1.0000   1.0000   1.0000   1.0000   1.0000
     1.0000   1.0000   1.0000   1.0000   1.0000   1.0000   1.0000   1.0000
     1.0000   1.0000   1.0000   1.0000   1.0000   1.0000   1.0000   1.0000
     0.0000   0.0000   0.0000   0.0000   0.0000   0.0000   0.0000   0.0000
     0.0000   0.0000   0.0000   0.0000   0.0000   0.0000   0.0000   0.0000
     0.0000   0.0000   0.0000   0.0000   0.0000   0.0000   0.0000   0.0000
     0.0000   0.0000   0.0000   0.0000   0.0000   0.0000   0.0000   0.0000
     0.0000   0.0000   0.0000   0.0000   0.0000   0.0000   0.0000   0.0000
     0.0000   0.0000   0.0000   0.0000   0.0000   0.0000   0.0000   0.0000
     0.0000   0.0000   0.0000   0.0000   0.0000   0.0000   0.0000   0.0000
     0.0000   0.0000   0.0000   0.0000   0.0000   0.0000   0.0000   0.0000
     0.0000   0.0000   0.0000   0.0000   0.0000   0.0000   0.0000   0.0000
     0.0000   0.0000   0.0000   0.0000   0.0000   0.0000   0.0000   0.0000
     0.0000   0.0000   0.0000   0.0000   0.0000   0.0000   0.0000   0.0000
     0.0000   0.0000   0.0000   0.0000   0.0000   0.0000   0.0000   0.0000
     0.0000   0.0000   0.0000   0.0000   0.0000   0.0000   0.0000   0.0000
     0.0000   0.0000   0.0000   0.0000   0.0000   0.0000   0.0000   0.0000
     0.0000   0.0000   0.0000   0.0000   0.0000   0.0000   0.0000   0.0000
     0.0000   0.0000   0.0000   0.0000   0.0000   0.0000   0.0000   0.0000
     0.0000   0.0000   0.0000   0.0000   0.0000   0.0000   0.0000   0.0000
     0.0000   0.0000   0.0000   0.0000   0.0000   0.0000   0.0000   0.0000
     0.0000   0.0000   0.0000   0.0000

          k = 0.0000 0.2500 0.2500 ( 73903 PWs)   bands (ev):

   -18.1281 -18.1281 -18.0397 -18.0397 -17.9993 -17.9993 -17.9954 -17.9954
   -17.9651 -17.9651 -17.9608 -17.9608 -17.8047 -17.8047 -17.7796 -17.7796
   -15.3216 -15.3216 -15.3009 -15.3009 -15.2532 -15.2524 -15.2495 -15.2489
   -15.2402 -15.2401 -15.2354 -15.2352 -15.2228 -15.2228 -15.2149 -15.2149
   -15.1848 -15.1848 -15.1675 -15.1675 -15.0949 -15.0949 -15.0877 -15.0876
   -15.0734 -15.0734 -15.0685 -15.0685 -15.0092 -15.0092 -15.0005 -15.0005
   -12.7940 -12.7938 -12.7724 -12.7701 -12.7692 -12.7675 -12.7352 -12.7322
   -12.7272 -12.7272 -12.7241 -12.7225 -12.7121 -12.7115 -12.6961 -12.6949
   -12.6835 -12.6833 -12.6574 -12.6571 -12.6563 -12.6560 -12.6476 -12.6464
   -12.6435 -12.6431 -12.6337 -12.6336 -12.5950 -12.5943 -12.5901 -12.5899
   -12.5708 -12.5701 -12.5632 -12.5628 -12.5365 -12.5362 -12.5066 -12.5060
   -12.4983 -12.4982 -12.4912 -12.4910 -12.4894 -12.4888 -12.4173 -12.4173
   -11.4053 -11.4040 -11.3488 -11.3473 -11.2666 -11.2652 -11.2263 -11.2239
   -11.2017 -11.2003 -11.1762 -11.1748 -11.0956 -11.0944 -11.0649 -11.0631
   -11.0601 -11.0595 -11.0325 -11.0313 -11.0164 -11.0148 -10.9705 -10.9694
   -10.9545 -10.9515 -10.9141 -10.9125 -10.8855 -10.8845 -10.8699 -10.8694
   -10.8268 -10.8251 -10.7853 -10.7845 -10.7627 -10.7619 -10.6847 -10.6840
   -10.6440 -10.6434 -10.6225 -10.6214 -10.5825 -10.5821 -10.5427 -10.5423
    -6.0980  -6.0980  -6.0136  -6.0133  -5.9771  -5.9769  -5.9720  -5.9717
    -5.9425  -5.9396  -5.9371  -5.9341  -5.7959  -5.7958  -5.7736  -5.7732
    -5.2453  -5.2446  -4.9400  -4.9395  -4.9049  -4.9039  -4.8073  -4.8060
    -4.5972  -4.5949  -4.5037  -4.5030  -4.4895  -4.4873  -4.4794  -4.4743
    -4.4556  -4.4532  -4.4151  -4.4141  -4.3987  -4.3974  -4.3877  -4.3818
    -4.3769  -4.3738  -4.3660  -4.3631  -4.3582  -4.3559  -4.3513  -4.3471
    -4.3427  -4.3387  -4.3218  -4.3180  -4.3158  -4.3136  -4.2178  -4.2159
    -4.1932  -4.1908  -4.1879  -4.1854  -4.1796  -4.1753  -4.1119  -4.1101
    -0.9176  -0.8411  -0.8028  -0.7537  -0.7378  -0.7108  -0.6478  -0.6277
    -0.5653  -0.5482  -0.5284  -0.5082  -0.4676  -0.4460  -0.4234  -0.3935
    -0.3769  -0.3625  -0.3364  -0.3209  -0.2512  -0.2411  -0.2120  -0.2034
     0.1910   0.2467   0.2748   0.2910   0.3023   0.3366   0.3559   0.3615
     0.3701   0.3964   0.4200   0.4373   0.4450   0.4644   0.4753   0.4970
     0.5051   0.5222   0.5371   0.5593   0.5726   0.6053   0.6367   0.6646
     0.6831   0.6979   0.7080   0.7337   0.7475   0.7771   0.7895   0.8003
     0.8075   0.8153   0.8321   0.8405   0.8581   0.8734   0.8823   0.8956
     0.9034   0.9215   0.9240   0.9350   0.9427   0.9605   0.9737   0.9856
     0.9909   1.0035   1.0184   1.0281   1.0364   1.0460   1.0614   1.0668
     1.0806   1.0956   1.1066   1.1134   1.1221   1.1389   1.1502   1.1589
     1.1653   1.1760   1.1875   1.1947   1.2063   1.2110   1.2344   1.2384
     1.2467   1.2624   1.2680   1.2891   1.2950   1.3118   1.3209   1.3295
     1.3503   1.3533   1.3718   1.3869   1.4026   1.4071   1.4199   1.4454
     1.4543   1.4631   1.4760   1.4855   1.4943   1.5077   1.5182   1.5363
     1.5556   1.5717   1.5861   1.6077   1.6201   1.6424   1.6546   1.6655
     1.6795   1.6914   1.7403   1.7581   1.7866   1.8011   1.8600   1.9132
     1.9302   1.9549   2.0962   2.1328   2.1567   2.1769   2.3704   2.3779
     4.0956   4.2029   4.5155   4.5518   4.6308   4.6893   4.8645   4.9311
     5.0943   5.1298   5.3665   5.4251   5.4779   5.5106   5.5718   5.5972
     5.7509   5.8001   5.8545   5.8825   5.9008   5.9903   6.1153   6.1591
     6.5048   6.5427   6.7384   6.7966   6.9425   6.9981   7.0822   7.1087
     7.1691   7.2197   7.2956   7.3419   7.3800   7.4157   7.5248   7.5629
     7.6008   7.6366   7.6823   7.7063   7.7381   7.7588   7.8035   7.8270
     7.8565   7.8876   7.9337   7.9399   7.9636   8.0075   8.0135   8.0450
     8.0672   8.0957   8.1187   8.1469   8.1758   8.1996   8.2085   8.2523
     8.2852   8.3188   8.3285   8.3413   8.3501   8.3768   8.3942   8.4255
     8.4385   8.4503   8.4735   8.4819   8.4967   8.5055   8.5456   8.5735
     8.5865   8.6051   8.6260   8.6616   8.6665   8.6840   8.7030   8.7226
     8.7330   8.7610   8.7750   8.7907   8.8006   8.8145   8.8197   8.8383
     8.8716   8.8879   8.9020   8.9135   8.9285   8.9389   8.9547   8.9765
     8.9997   9.0090   9.0200   9.0362   9.0602   9.0716   9.1074   9.1279
     9.1933   9.2007   9.2262   9.2504   9.2709   9.2899   9.3038   9.3099
     9.3368   9.3515   9.3600   9.3688   9.3757   9.3956   9.4169   9.4303
     9.5003   9.5166   9.5254   9.5366   9.5845   9.5902   9.6055   9.6215
     9.6439   9.6562   9.6791   9.6989   9.7425   9.7615   9.7725   9.7922
     9.8142   9.8450   9.9380   9.9697

     occupation numbers 
     1.0000   1.0000   1.0000   1.0000   1.0000   1.0000   1.0000   1.0000
     1.0000   1.0000   1.0000   1.0000   1.0000   1.0000   1.0000   1.0000
     1.0000   1.0000   1.0000   1.0000   1.0000   1.0000   1.0000   1.0000
     1.0000   1.0000   1.0000   1.0000   1.0000   1.0000   1.0000   1.0000
     1.0000   1.0000   1.0000   1.0000   1.0000   1.0000   1.0000   1.0000
     1.0000   1.0000   1.0000   1.0000   1.0000   1.0000   1.0000   1.0000
     1.0000   1.0000   1.0000   1.0000   1.0000   1.0000   1.0000   1.0000
     1.0000   1.0000   1.0000   1.0000   1.0000   1.0000   1.0000   1.0000
     1.0000   1.0000   1.0000   1.0000   1.0000   1.0000   1.0000   1.0000
     1.0000   1.0000   1.0000   1.0000   1.0000   1.0000   1.0000   1.0000
     1.0000   1.0000   1.0000   1.0000   1.0000   1.0000   1.0000   1.0000
     1.0000   1.0000   1.0000   1.0000   1.0000   1.0000   1.0000   1.0000
     1.0000   1.0000   1.0000   1.0000   1.0000   1.0000   1.0000   1.0000
     1.0000   1.0000   1.0000   1.0000   1.0000   1.0000   1.0000   1.0000
     1.0000   1.0000   1.0000   1.0000   1.0000   1.0000   1.0000   1.0000
     1.0000   1.0000   1.0000   1.0000   1.0000   1.0000   1.0000   1.0000
     1.0000   1.0000   1.0000   1.0000   1.0000   1.0000   1.0000   1.0000
     1.0000   1.0000   1.0000   1.0000   1.0000   1.0000   1.0000   1.0000
     1.0000   1.0000   1.0000   1.0000   1.0000   1.0000   1.0000   1.0000
     1.0000   1.0000   1.0000   1.0000   1.0000   1.0000   1.0000   1.0000
     1.0000   1.0000   1.0000   1.0000   1.0000   1.0000   1.0000   1.0000
     1.0000   1.0000   1.0000   1.0000   1.0000   1.0000   1.0000   1.0000
     1.0000   1.0000   1.0000   1.0000   1.0000   1.0000   1.0000   1.0000
     1.0000   1.0000   1.0000   1.0000   1.0000   1.0000   1.0000   1.0000
     1.0000   1.0000   1.0000   1.0000   1.0000   1.0000   1.0000   1.0000
     1.0000   1.0000   1.0000   1.0000   1.0000   1.0000   1.0000   1.0000
     1.0000   1.0000   1.0000   1.0000   1.0000   1.0000   1.0000   1.0000
     1.0000   1.0000   1.0000   1.0000   1.0000   1.0000   1.0000   1.0000
     1.0000   1.0000   1.0000   1.0000   1.0000   1.0000   1.0000   1.0000
     1.0000   1.0000   1.0000   1.0000   1.0000   1.0000   1.0000   1.0000
     1.0000   1.0000   1.0000   1.0000   1.0000   1.0000   1.0000   1.0000
     1.0000   1.0000   1.0000   1.0000   1.0000   1.0000   1.0000   1.0000
     1.0000   1.0000   1.0000   1.0000   1.0000   1.0000   1.0000   1.0000
     1.0000   1.0000   1.0000   1.0000   1.0000   1.0000   1.0000   1.0000
     1.0000   1.0000   1.0000   1.0000   1.0000   1.0000   1.0000   1.0000
     1.0000   1.0000   1.0000   1.0000   1.0000   1.0000   1.0000   1.0000
     1.0000   1.0000   1.0000   1.0000   1.0000   1.0000   1.0000   1.0000
     1.0000   1.0000   1.0000   1.0000   1.0000   1.0000   1.0000   1.0000
     1.0000   1.0000   1.0000   1.0000   1.0000   1.0000   1.0000   1.0000
     1.0000   1.0000   1.0000   1.0000   1.0000   1.0000   1.0000   1.0000
     1.0000   1.0000   1.0000   1.0000   1.0000   1.0000   1.0000   1.0000
     1.0000   1.0000   1.0000   1.0000   1.0000   1.0000   1.0000   1.0000
     1.0000   1.0000   1.0000   1.0000   1.0000   1.0000   1.0000   1.0000
     1.0000   1.0000   1.0000   1.0000   1.0000   1.0000   1.0000   1.0000
     0.0000   0.0000   0.0000   0.0000   0.0000   0.0000   0.0000   0.0000
     0.0000   0.0000   0.0000   0.0000   0.0000   0.0000   0.0000   0.0000
     0.0000   0.0000   0.0000   0.0000   0.0000   0.0000   0.0000   0.0000
     0.0000   0.0000   0.0000   0.0000   0.0000   0.0000   0.0000   0.0000
     0.0000   0.0000   0.0000   0.0000   0.0000   0.0000   0.0000   0.0000
     0.0000   0.0000   0.0000   0.0000   0.0000   0.0000   0.0000   0.0000
     0.0000   0.0000   0.0000   0.0000   0.0000   0.0000   0.0000   0.0000
     0.0000   0.0000   0.0000   0.0000   0.0000   0.0000   0.0000   0.0000
     0.0000   0.0000   0.0000   0.0000   0.0000   0.0000   0.0000   0.0000
     0.0000   0.0000   0.0000   0.0000   0.0000   0.0000   0.0000   0.0000
     0.0000   0.0000   0.0000   0.0000   0.0000   0.0000   0.0000   0.0000
     0.0000   0.0000   0.0000   0.0000   0.0000   0.0000   0.0000   0.0000
     0.0000   0.0000   0.0000   0.0000   0.0000   0.0000   0.0000   0.0000
     0.0000   0.0000   0.0000   0.0000   0.0000   0.0000   0.0000   0.0000
     0.0000   0.0000   0.0000   0.0000   0.0000   0.0000   0.0000   0.0000
     0.0000   0.0000   0.0000   0.0000   0.0000   0.0000   0.0000   0.0000
     0.0000   0.0000   0.0000   0.0000   0.0000   0.0000   0.0000   0.0000
     0.0000   0.0000   0.0000   0.0000   0.0000   0.0000   0.0000   0.0000
     0.0000   0.0000   0.0000   0.0000

          k = 0.0000 0.2500 0.5000 ( 73986 PWs)   bands (ev):

   -18.1281 -18.1281 -18.0397 -18.0397 -17.9993 -17.9993 -17.9954 -17.9954
   -17.9651 -17.9651 -17.9608 -17.9608 -17.8047 -17.8047 -17.7796 -17.7796
   -15.3216 -15.3216 -15.3009 -15.3009 -15.2515 -15.2515 -15.2502 -15.2501
   -15.2402 -15.2402 -15.2356 -15.2356 -15.2228 -15.2228 -15.2149 -15.2149
   -15.1848 -15.1848 -15.1675 -15.1675 -15.0949 -15.0949 -15.0877 -15.0876
   -15.0734 -15.0734 -15.0685 -15.0685 -15.0092 -15.0092 -15.0005 -15.0005
   -12.7931 -12.7931 -12.7692 -12.7686 -12.7585 -12.7583 -12.7433 -12.7431
   -12.7270 -12.7269 -12.7267 -12.7263 -12.7120 -12.7115 -12.6952 -12.6943
   -12.6831 -12.6830 -12.6573 -12.6572 -12.6563 -12.6561 -12.6479 -12.6471
   -12.6444 -12.6442 -12.6337 -12.6336 -12.5952 -12.5945 -12.5900 -12.5899
   -12.5709 -12.5701 -12.5618 -12.5617 -12.5365 -12.5364 -12.5077 -12.5071
   -12.4982 -12.4982 -12.4918 -12.4917 -12.4900 -12.4900 -12.4173 -12.4173
   -11.3905 -11.3902 -11.3709 -11.3707 -11.2618 -11.2612 -11.2281 -11.2262
   -11.1968 -11.1956 -11.1767 -11.1757 -11.1043 -11.1035 -11.0659 -11.0643
   -11.0572 -11.0567 -11.0298 -11.0278 -11.0036 -11.0028 -10.9706 -10.9698
   -10.9544 -10.9510 -10.9222 -10.9200 -10.8837 -10.8833 -10.8702 -10.8699
   -10.8159 -10.8149 -10.7881 -10.7871 -10.7589 -10.7580 -10.6829 -10.6827
   -10.6497 -10.6491 -10.6130 -10.6129 -10.5943 -10.5940 -10.5453 -10.5447
    -6.0980  -6.0979  -6.0133  -6.0133  -5.9769  -5.9767  -5.9720  -5.9718
    -5.9427  -5.9398  -5.9372  -5.9343  -5.7959  -5.7958  -5.7734  -5.7733
    -5.1067  -5.1059  -5.0897  -5.0893  -4.8003  -4.7981  -4.7615  -4.7608
    -4.6609  -4.6584  -4.6073  -4.6052  -4.5019  -4.5014  -4.4820  -4.4817
    -4.4218  -4.4182  -4.4035  -4.4015  -4.3910  -4.3900  -4.3807  -4.3778
    -4.3707  -4.3684  -4.3654  -4.3610  -4.3563  -4.3514  -4.3460  -4.3434
    -4.3275  -4.3230  -4.3194  -4.3169  -4.3013  -4.2973  -4.2777  -4.2746
    -4.2137  -4.2124  -4.1880  -4.1867  -4.1851  -4.1835  -4.1745  -4.1719
    -0.8283  -0.8143  -0.7671  -0.7570  -0.6384  -0.6196  -0.5971  -0.5899
    -0.5325  -0.5063  -0.4707  -0.4541  -0.4429  -0.4221  -0.3377  -0.3132
    -0.2222  -0.1905  -0.1193  -0.0923  -0.0505  -0.0383  -0.0213  -0.0095
     0.0332   0.0357   0.1538   0.1664   0.2359   0.2420   0.2839   0.3010
     0.3196   0.3268   0.3479   0.3552   0.3682   0.3888   0.4008   0.4153
     0.4195   0.4479   0.4776   0.5106   0.5284   0.5523   0.5905   0.6028
     0.6664   0.6912   0.7060   0.7296   0.7453   0.7574   0.7669   0.7830
     0.7895   0.8024   0.8134   0.8328   0.8489   0.8573   0.8633   0.8816
     0.8920   0.9037   0.9189   0.9222   0.9334   0.9494   0.9613   0.9694
     0.9754   0.9921   0.9992   1.0180   1.0274   1.0382   1.0534   1.0671
     1.0752   1.0818   1.0939   1.1062   1.1150   1.1278   1.1398   1.1499
     1.1565   1.1730   1.1816   1.1966   1.2028   1.2275   1.2336   1.2460
     1.2598   1.2718   1.2797   1.2877   1.2971   1.3031   1.3316   1.3382
     1.3478   1.3615   1.3690   1.3928   1.3995   1.4088   1.4265   1.4485
     1.4545   1.4627   1.4747   1.4824   1.4897   1.5063   1.5190   1.5251
     1.5400   1.5589   1.5751   1.5961   1.6189   1.6255   1.6388   1.6600
     1.6727   1.6918   1.7142   1.7364   1.7822   1.7986   1.8302   1.8434
     1.8717   1.8966   2.0114   2.0285   2.1578   2.1956   2.2359   2.2553
     4.2841   4.4081   4.4669   4.5017   4.8234   4.8596   4.9055   4.9237
     5.2063   5.2620   5.3174   5.3619   5.5544   5.6759   5.7302   5.7518
     6.0400   6.0816   6.1507   6.2268   6.3719   6.4060   6.4682   6.4875
     6.5080   6.5341   6.5698   6.6233   6.6909   6.7322   6.7555   6.8608
     7.0388   7.0597   7.0819   7.1247   7.2435   7.3447   7.3860   7.4078
     7.5176   7.5752   7.6076   7.6679   7.7104   7.7442   7.7551   7.8184
     7.8547   7.8859   7.9158   7.9307   7.9463   7.9624   8.0003   8.0150
     8.0262   8.0478   8.0683   8.0887   8.1033   8.1511   8.1832   8.1921
     8.2472   8.2688   8.2960   8.3080   8.3512   8.3715   8.3939   8.4153
     8.4265   8.4454   8.4690   8.4777   8.4937   8.5178   8.5381   8.5478
     8.5886   8.6093   8.6171   8.6232   8.6320   8.6584   8.6846   8.6950
     8.7148   8.7371   8.7525   8.7655   8.7943   8.8122   8.8281   8.8463
     8.8603   8.8807   8.8977   8.9204   8.9383   8.9446   8.9911   9.0035
     9.0111   9.0235   9.0322   9.0519   9.0839   9.0919   9.1211   9.1329
     9.1448   9.1692   9.1963   9.2029   9.2235   9.2493   9.2731   9.2800
     9.3031   9.3146   9.3224   9.3330   9.3711   9.3920   9.3987   9.4097
     9.4467   9.4518   9.4662   9.4761   9.5185   9.5214   9.5363   9.5520
     9.6219   9.6346   9.6447   9.6531   9.6778   9.6893   9.7618   9.7696
     9.9032   9.9191   9.9340   9.9540

     occupation numbers 
     1.0000   1.0000   1.0000   1.0000   1.0000   1.0000   1.0000   1.0000
     1.0000   1.0000   1.0000   1.0000   1.0000   1.0000   1.0000   1.0000
     1.0000   1.0000   1.0000   1.0000   1.0000   1.0000   1.0000   1.0000
     1.0000   1.0000   1.0000   1.0000   1.0000   1.0000   1.0000   1.0000
     1.0000   1.0000   1.0000   1.0000   1.0000   1.0000   1.0000   1.0000
     1.0000   1.0000   1.0000   1.0000   1.0000   1.0000   1.0000   1.0000
     1.0000   1.0000   1.0000   1.0000   1.0000   1.0000   1.0000   1.0000
     1.0000   1.0000   1.0000   1.0000   1.0000   1.0000   1.0000   1.0000
     1.0000   1.0000   1.0000   1.0000   1.0000   1.0000   1.0000   1.0000
     1.0000   1.0000   1.0000   1.0000   1.0000   1.0000   1.0000   1.0000
     1.0000   1.0000   1.0000   1.0000   1.0000   1.0000   1.0000   1.0000
     1.0000   1.0000   1.0000   1.0000   1.0000   1.0000   1.0000   1.0000
     1.0000   1.0000   1.0000   1.0000   1.0000   1.0000   1.0000   1.0000
     1.0000   1.0000   1.0000   1.0000   1.0000   1.0000   1.0000   1.0000
     1.0000   1.0000   1.0000   1.0000   1.0000   1.0000   1.0000   1.0000
     1.0000   1.0000   1.0000   1.0000   1.0000   1.0000   1.0000   1.0000
     1.0000   1.0000   1.0000   1.0000   1.0000   1.0000   1.0000   1.0000
     1.0000   1.0000   1.0000   1.0000   1.0000   1.0000   1.0000   1.0000
     1.0000   1.0000   1.0000   1.0000   1.0000   1.0000   1.0000   1.0000
     1.0000   1.0000   1.0000   1.0000   1.0000   1.0000   1.0000   1.0000
     1.0000   1.0000   1.0000   1.0000   1.0000   1.0000   1.0000   1.0000
     1.0000   1.0000   1.0000   1.0000   1.0000   1.0000   1.0000   1.0000
     1.0000   1.0000   1.0000   1.0000   1.0000   1.0000   1.0000   1.0000
     1.0000   1.0000   1.0000   1.0000   1.0000   1.0000   1.0000   1.0000
     1.0000   1.0000   1.0000   1.0000   1.0000   1.0000   1.0000   1.0000
     1.0000   1.0000   1.0000   1.0000   1.0000   1.0000   1.0000   1.0000
     1.0000   1.0000   1.0000   1.0000   1.0000   1.0000   1.0000   1.0000
     1.0000   1.0000   1.0000   1.0000   1.0000   1.0000   1.0000   1.0000
     1.0000   1.0000   1.0000   1.0000   1.0000   1.0000   1.0000   1.0000
     1.0000   1.0000   1.0000   1.0000   1.0000   1.0000   1.0000   1.0000
     1.0000   1.0000   1.0000   1.0000   1.0000   1.0000   1.0000   1.0000
     1.0000   1.0000   1.0000   1.0000   1.0000   1.0000   1.0000   1.0000
     1.0000   1.0000   1.0000   1.0000   1.0000   1.0000   1.0000   1.0000
     1.0000   1.0000   1.0000   1.0000   1.0000   1.0000   1.0000   1.0000
     1.0000   1.0000   1.0000   1.0000   1.0000   1.0000   1.0000   1.0000
     1.0000   1.0000   1.0000   1.0000   1.0000   1.0000   1.0000   1.0000
     1.0000   1.0000   1.0000   1.0000   1.0000   1.0000   1.0000   1.0000
     1.0000   1.0000   1.0000   1.0000   1.0000   1.0000   1.0000   1.0000
     1.0000   1.0000   1.0000   1.0000   1.0000   1.0000   1.0000   1.0000
     1.0000   1.0000   1.0000   1.0000   1.0000   1.0000   1.0000   1.0000
     1.0000   1.0000   1.0000   1.0000   1.0000   1.0000   1.0000   1.0000
     1.0000   1.0000   1.0000   1.0000   1.0000   1.0000   1.0000   1.0000
     1.0000   1.0000   1.0000   1.0000   1.0000   1.0000   1.0000   1.0000
     1.0000   1.0000   1.0000   1.0000   1.0000   1.0000   1.0000   1.0000
     0.0000   0.0000   0.0000   0.0000   0.0000   0.0000   0.0000   0.0000
     0.0000   0.0000   0.0000   0.0000   0.0000   0.0000   0.0000   0.0000
     0.0000   0.0000   0.0000   0.0000   0.0000   0.0000   0.0000   0.0000
     0.0000   0.0000   0.0000   0.0000   0.0000   0.0000   0.0000   0.0000
     0.0000   0.0000   0.0000   0.0000   0.0000   0.0000   0.0000   0.0000
     0.0000   0.0000   0.0000   0.0000   0.0000   0.0000   0.0000   0.0000
     0.0000   0.0000   0.0000   0.0000   0.0000   0.0000   0.0000   0.0000
     0.0000   0.0000   0.0000   0.0000   0.0000   0.0000   0.0000   0.0000
     0.0000   0.0000   0.0000   0.0000   0.0000   0.0000   0.0000   0.0000
     0.0000   0.0000   0.0000   0.0000   0.0000   0.0000   0.0000   0.0000
     0.0000   0.0000   0.0000   0.0000   0.0000   0.0000   0.0000   0.0000
     0.0000   0.0000   0.0000   0.0000   0.0000   0.0000   0.0000   0.0000
     0.0000   0.0000   0.0000   0.0000   0.0000   0.0000   0.0000   0.0000
     0.0000   0.0000   0.0000   0.0000   0.0000   0.0000   0.0000   0.0000
     0.0000   0.0000   0.0000   0.0000   0.0000   0.0000   0.0000   0.0000
     0.0000   0.0000   0.0000   0.0000   0.0000   0.0000   0.0000   0.0000
     0.0000   0.0000   0.0000   0.0000   0.0000   0.0000   0.0000   0.0000
     0.0000   0.0000   0.0000   0.0000   0.0000   0.0000   0.0000   0.0000
     0.0000   0.0000   0.0000   0.0000

          k = 0.0000 0.2500 0.7500 ( 73903 PWs)   bands (ev):

   -18.1281 -18.1281 -18.0397 -18.0397 -17.9993 -17.9993 -17.9954 -17.9954
   -17.9651 -17.9651 -17.9608 -17.9608 -17.8047 -17.8047 -17.7796 -17.7796
   -15.3216 -15.3216 -15.3009 -15.3009 -15.2532 -15.2525 -15.2495 -15.2489
   -15.2402 -15.2401 -15.2354 -15.2352 -15.2228 -15.2228 -15.2149 -15.2149
   -15.1848 -15.1848 -15.1675 -15.1675 -15.0949 -15.0949 -15.0877 -15.0876
   -15.0734 -15.0734 -15.0685 -15.0685 -15.0092 -15.0092 -15.0005 -15.0005
   -12.7940 -12.7938 -12.7723 -12.7703 -12.7690 -12.7676 -12.7353 -12.7321
   -12.7272 -12.7272 -12.7243 -12.7223 -12.7120 -12.7115 -12.6958 -12.6952
   -12.6834 -12.6834 -12.6574 -12.6571 -12.6563 -12.6560 -12.6473 -12.6467
   -12.6437 -12.6430 -12.6337 -12.6336 -12.5950 -12.5942 -12.5900 -12.5899
   -12.5709 -12.5700 -12.5631 -12.5629 -12.5366 -12.5361 -12.5066 -12.5059
   -12.4983 -12.4982 -12.4912 -12.4910 -12.4894 -12.4888 -12.4173 -12.4173
   -11.4064 -11.4052 -11.3482 -11.3466 -11.2600 -11.2595 -11.2387 -11.2374
   -11.1939 -11.1931 -11.1680 -11.1672 -11.1071 -11.1063 -11.0737 -11.0710
   -11.0585 -11.0576 -11.0258 -11.0251 -11.0070 -11.0056 -10.9741 -10.9731
   -10.9525 -10.9492 -10.9201 -10.9182 -10.8881 -10.8862 -10.8695 -10.8690
   -10.8220 -10.8207 -10.7896 -10.7888 -10.7578 -10.7569 -10.6808 -10.6803
   -10.6504 -10.6498 -10.6241 -10.6231 -10.5802 -10.5800 -10.5425 -10.5416
    -6.0981  -6.0979  -6.0136  -6.0133  -5.9774  -5.9767  -5.9720  -5.9718
    -5.9425  -5.9396  -5.9371  -5.9342  -5.7959  -5.7958  -5.7736  -5.7732
    -5.2483  -5.2477  -4.9358  -4.9350  -4.8948  -4.8937  -4.8190  -4.8182
    -4.5830  -4.5800  -4.5128  -4.5079  -4.4990  -4.4976  -4.4812  -4.4804
    -4.4566  -4.4525  -4.4179  -4.4107  -4.3973  -4.3953  -4.3849  -4.3827
    -4.3769  -4.3750  -4.3654  -4.3630  -4.3590  -4.3542  -4.3511  -4.3487
    -4.3404  -4.3384  -4.3199  -4.3181  -4.3154  -4.3131  -4.2169  -4.2150
    -4.1921  -4.1902  -4.1875  -4.1859  -4.1767  -4.1746  -4.1147  -4.1118
    -0.9055  -0.8389  -0.7711  -0.7521  -0.7412  -0.6801  -0.6513  -0.6155
    -0.5839  -0.5536  -0.5384  -0.5114  -0.4724  -0.4591  -0.4513  -0.4296
    -0.4161  -0.3671  -0.3364  -0.3208  -0.2491  -0.2255  -0.2113  -0.1646
     0.2114   0.2371   0.2740   0.2909   0.3037   0.3312   0.3465   0.3628
     0.3833   0.3957   0.4200   0.4367   0.4576   0.4705   0.4822   0.4870
     0.4995   0.5311   0.5483   0.5640   0.5681   0.5823   0.6122   0.6611
     0.6801   0.6940   0.7264   0.7486   0.7526   0.7727   0.7867   0.8065
     0.8134   0.8275   0.8455   0.8479   0.8566   0.8771   0.8843   0.8994
     0.9086   0.9218   0.9307   0.9336   0.9468   0.9552   0.9618   0.9739
     0.9901   0.9993   1.0124   1.0200   1.0376   1.0476   1.0542   1.0697
     1.0780   1.0852   1.0940   1.1019   1.1144   1.1244   1.1505   1.1585
     1.1718   1.1804   1.1927   1.2010   1.2065   1.2221   1.2339   1.2446
     1.2645   1.2713   1.2835   1.2892   1.3001   1.3118   1.3215   1.3322
     1.3491   1.3671   1.3770   1.3904   1.4011   1.4116   1.4232   1.4358
     1.4470   1.4581   1.4644   1.4828   1.5031   1.5055   1.5140   1.5309
     1.5470   1.5527   1.5832   1.5996   1.6102   1.6299   1.6517   1.6585
     1.6879   1.7076   1.7389   1.7698   1.7828   1.8114   1.8663   1.8961
     1.9639   1.9773   2.0899   2.1201   2.1484   2.1660   2.3641   2.3730
     4.0987   4.2022   4.5196   4.5452   4.6181   4.7115   4.8374   4.9523
     5.0753   5.1570   5.3764   5.4274   5.4950   5.5226   5.5401   5.6089
     5.7227   5.8268   5.8486   5.8959   5.9075   5.9770   6.0485   6.1881
     6.5127   6.5722   6.7338   6.7954   6.8998   6.9936   7.0890   7.1158
     7.1774   7.2201   7.2916   7.3019   7.4026   7.4239   7.4973   7.5521
     7.6029   7.6549   7.6793   7.7127   7.7408   7.7575   7.7920   7.8273
     7.8426   7.8836   7.9154   7.9375   7.9415   7.9874   8.0169   8.0569
     8.0790   8.0854   8.1007   8.1528   8.1827   8.2310   8.2486   8.2559
     8.2715   8.3131   8.3276   8.3600   8.3705   8.3830   8.4092   8.4248
     8.4534   8.4672   8.4919   8.5070   8.5252   8.5364   8.5495   8.5707
     8.5904   8.6063   8.6223   8.6387   8.6706   8.6769   8.7010   8.7177
     8.7278   8.7484   8.7619   8.7761   8.8044   8.8133   8.8463   8.8610
     8.8670   8.8923   8.9080   8.9280   8.9607   8.9752   8.9870   8.9929
     9.0057   9.0185   9.0630   9.0738   9.1022   9.1181   9.1247   9.1310
     9.1577   9.1752   9.2102   9.2240   9.2359   9.2412   9.2657   9.2865
     9.3087   9.3241   9.3365   9.3513   9.3717   9.3998   9.4194   9.4287
     9.4443   9.4659   9.5067   9.5263   9.5550   9.5686   9.5949   9.6045
     9.6253   9.6367   9.6737   9.6836   9.7029   9.7162   9.7700   9.7834
     9.8286   9.8441   9.9287   9.9525

     occupation numbers 
     1.0000   1.0000   1.0000   1.0000   1.0000   1.0000   1.0000   1.0000
     1.0000   1.0000   1.0000   1.0000   1.0000   1.0000   1.0000   1.0000
     1.0000   1.0000   1.0000   1.0000   1.0000   1.0000   1.0000   1.0000
     1.0000   1.0000   1.0000   1.0000   1.0000   1.0000   1.0000   1.0000
     1.0000   1.0000   1.0000   1.0000   1.0000   1.0000   1.0000   1.0000
     1.0000   1.0000   1.0000   1.0000   1.0000   1.0000   1.0000   1.0000
     1.0000   1.0000   1.0000   1.0000   1.0000   1.0000   1.0000   1.0000
     1.0000   1.0000   1.0000   1.0000   1.0000   1.0000   1.0000   1.0000
     1.0000   1.0000   1.0000   1.0000   1.0000   1.0000   1.0000   1.0000
     1.0000   1.0000   1.0000   1.0000   1.0000   1.0000   1.0000   1.0000
     1.0000   1.0000   1.0000   1.0000   1.0000   1.0000   1.0000   1.0000
     1.0000   1.0000   1.0000   1.0000   1.0000   1.0000   1.0000   1.0000
     1.0000   1.0000   1.0000   1.0000   1.0000   1.0000   1.0000   1.0000
     1.0000   1.0000   1.0000   1.0000   1.0000   1.0000   1.0000   1.0000
     1.0000   1.0000   1.0000   1.0000   1.0000   1.0000   1.0000   1.0000
     1.0000   1.0000   1.0000   1.0000   1.0000   1.0000   1.0000   1.0000
     1.0000   1.0000   1.0000   1.0000   1.0000   1.0000   1.0000   1.0000
     1.0000   1.0000   1.0000   1.0000   1.0000   1.0000   1.0000   1.0000
     1.0000   1.0000   1.0000   1.0000   1.0000   1.0000   1.0000   1.0000
     1.0000   1.0000   1.0000   1.0000   1.0000   1.0000   1.0000   1.0000
     1.0000   1.0000   1.0000   1.0000   1.0000   1.0000   1.0000   1.0000
     1.0000   1.0000   1.0000   1.0000   1.0000   1.0000   1.0000   1.0000
     1.0000   1.0000   1.0000   1.0000   1.0000   1.0000   1.0000   1.0000
     1.0000   1.0000   1.0000   1.0000   1.0000   1.0000   1.0000   1.0000
     1.0000   1.0000   1.0000   1.0000   1.0000   1.0000   1.0000   1.0000
     1.0000   1.0000   1.0000   1.0000   1.0000   1.0000   1.0000   1.0000
     1.0000   1.0000   1.0000   1.0000   1.0000   1.0000   1.0000   1.0000
     1.0000   1.0000   1.0000   1.0000   1.0000   1.0000   1.0000   1.0000
     1.0000   1.0000   1.0000   1.0000   1.0000   1.0000   1.0000   1.0000
     1.0000   1.0000   1.0000   1.0000   1.0000   1.0000   1.0000   1.0000
     1.0000   1.0000   1.0000   1.0000   1.0000   1.0000   1.0000   1.0000
     1.0000   1.0000   1.0000   1.0000   1.0000   1.0000   1.0000   1.0000
     1.0000   1.0000   1.0000   1.0000   1.0000   1.0000   1.0000   1.0000
     1.0000   1.0000   1.0000   1.0000   1.0000   1.0000   1.0000   1.0000
     1.0000   1.0000   1.0000   1.0000   1.0000   1.0000   1.0000   1.0000
     1.0000   1.0000   1.0000   1.0000   1.0000   1.0000   1.0000   1.0000
     1.0000   1.0000   1.0000   1.0000   1.0000   1.0000   1.0000   1.0000
     1.0000   1.0000   1.0000   1.0000   1.0000   1.0000   1.0000   1.0000
     1.0000   1.0000   1.0000   1.0000   1.0000   1.0000   1.0000   1.0000
     1.0000   1.0000   1.0000   1.0000   1.0000   1.0000   1.0000   1.0000
     1.0000   1.0000   1.0000   1.0000   1.0000   1.0000   1.0000   1.0000
     1.0000   1.0000   1.0000   1.0000   1.0000   1.0000   1.0000   1.0000
     1.0000   1.0000   1.0000   1.0000   1.0000   1.0000   1.0000   1.0000
     1.0000   1.0000   1.0000   1.0000   1.0000   1.0000   1.0000   1.0000
     0.0000   0.0000   0.0000   0.0000   0.0000   0.0000   0.0000   0.0000
     0.0000   0.0000   0.0000   0.0000   0.0000   0.0000   0.0000   0.0000
     0.0000   0.0000   0.0000   0.0000   0.0000   0.0000   0.0000   0.0000
     0.0000   0.0000   0.0000   0.0000   0.0000   0.0000   0.0000   0.0000
     0.0000   0.0000   0.0000   0.0000   0.0000   0.0000   0.0000   0.0000
     0.0000   0.0000   0.0000   0.0000   0.0000   0.0000   0.0000   0.0000
     0.0000   0.0000   0.0000   0.0000   0.0000   0.0000   0.0000   0.0000
     0.0000   0.0000   0.0000   0.0000   0.0000   0.0000   0.0000   0.0000
     0.0000   0.0000   0.0000   0.0000   0.0000   0.0000   0.0000   0.0000
     0.0000   0.0000   0.0000   0.0000   0.0000   0.0000   0.0000   0.0000
     0.0000   0.0000   0.0000   0.0000   0.0000   0.0000   0.0000   0.0000
     0.0000   0.0000   0.0000   0.0000   0.0000   0.0000   0.0000   0.0000
     0.0000   0.0000   0.0000   0.0000   0.0000   0.0000   0.0000   0.0000
     0.0000   0.0000   0.0000   0.0000   0.0000   0.0000   0.0000   0.0000
     0.0000   0.0000   0.0000   0.0000   0.0000   0.0000   0.0000   0.0000
     0.0000   0.0000   0.0000   0.0000   0.0000   0.0000   0.0000   0.0000
     0.0000   0.0000   0.0000   0.0000   0.0000   0.0000   0.0000   0.0000
     0.0000   0.0000   0.0000   0.0000   0.0000   0.0000   0.0000   0.0000
     0.0000   0.0000   0.0000   0.0000

          k = 0.0000 0.5000 0.0000 ( 73956 PWs)   bands (ev):

   -18.1281 -18.1281 -18.0397 -18.0397 -17.9993 -17.9993 -17.9954 -17.9954
   -17.9650 -17.9650 -17.9608 -17.9608 -17.8047 -17.8047 -17.7796 -17.7796
   -15.3216 -15.3216 -15.3009 -15.3009 -15.2537 -15.2537 -15.2486 -15.2486
   -15.2401 -15.2401 -15.2350 -15.2350 -15.2228 -15.2228 -15.2149 -15.2149
   -15.1848 -15.1848 -15.1675 -15.1675 -15.0950 -15.0950 -15.0877 -15.0877
   -15.0735 -15.0735 -15.0685 -15.0685 -15.0092 -15.0092 -15.0005 -15.0005
   -12.7949 -12.7949 -12.7766 -12.7766 -12.7700 -12.7700 -12.7306 -12.7306
   -12.7272 -12.7272 -12.7181 -12.7181 -12.7106 -12.7106 -12.6936 -12.6936
   -12.6814 -12.6814 -12.6573 -12.6573 -12.6562 -12.6562 -12.6514 -12.6514
   -12.6426 -12.6426 -12.6338 -12.6338 -12.5949 -12.5949 -12.5900 -12.5900
   -12.5719 -12.5719 -12.5642 -12.5642 -12.5362 -12.5362 -12.5059 -12.5059
   -12.4984 -12.4984 -12.4910 -12.4910 -12.4878 -12.4878 -12.4173 -12.4173
   -11.4095 -11.4095 -11.3303 -11.3303 -11.2711 -11.2711 -11.2266 -11.2266
   -11.2146 -11.2146 -11.1740 -11.1740 -11.0992 -11.0992 -11.0774 -11.0774
   -11.0585 -11.0585 -11.0281 -11.0281 -11.0188 -11.0188 -10.9611 -10.9611
   -10.9264 -10.9264 -10.9089 -10.9089 -10.8887 -10.8887 -10.8646 -10.8646
   -10.8399 -10.8399 -10.7870 -10.7870 -10.7682 -10.7682 -10.6792 -10.6792
   -10.6490 -10.6490 -10.6266 -10.6266 -10.5744 -10.5744 -10.5437 -10.5437
    -6.0980  -6.0980  -6.0135  -6.0135  -5.9765  -5.9765  -5.9724  -5.9724
    -5.9411  -5.9411  -5.9354  -5.9354  -5.7960  -5.7960  -5.7734  -5.7734
    -5.2344  -5.2344  -5.0398  -5.0398  -4.8052  -4.8052  -4.7480  -4.7480
    -4.6459  -4.6459  -4.6034  -4.6034  -4.5016  -4.5016  -4.4789  -4.4789
    -4.4224  -4.4224  -4.4004  -4.4004  -4.3869  -4.3869  -4.3792  -4.3792
    -4.3689  -4.3689  -4.3598  -4.3598  -4.3551  -4.3551  -4.3419  -4.3419
    -4.3222  -4.3222  -4.3159  -4.3159  -4.2668  -4.2668  -4.2210  -4.2210
    -4.1964  -4.1964  -4.1861  -4.1861  -4.1720  -4.1720  -4.1568  -4.1568
    -1.0165  -1.0165  -0.8078  -0.8078  -0.7047  -0.7047  -0.6796  -0.6796
    -0.6197  -0.6197  -0.5616  -0.5616  -0.4821  -0.4821  -0.4249  -0.4249
    -0.1484  -0.1484  -0.0771  -0.0771  -0.0436  -0.0436  -0.0074  -0.0074
     0.0613   0.0613   0.1676   0.1676   0.2049   0.2049   0.2534   0.2534
     0.2925   0.2925   0.3772   0.3772   0.4291   0.4291   0.4671   0.4671
     0.4962   0.4962   0.5318   0.5318   0.5775   0.5775   0.6444   0.6444
     0.6789   0.6789   0.7329   0.7329   0.7628   0.7628   0.7896   0.7896
     0.8307   0.8307   0.8441   0.8441   0.8651   0.8651   0.8970   0.8970
     0.9270   0.9270   0.9424   0.9424   0.9604   0.9604   0.9896   0.9896
     1.0038   1.0038   1.0246   1.0246   1.0407   1.0407   1.0730   1.0730
     1.0912   1.0912   1.1149   1.1149   1.1438   1.1438   1.1642   1.1642
     1.1774   1.1774   1.1969   1.1969   1.2115   1.2115   1.2411   1.2411
     1.2554   1.2554   1.2802   1.2802   1.3010   1.3010   1.3259   1.3259
     1.3487   1.3487   1.3731   1.3731   1.3963   1.3963   1.4315   1.4315
     1.4414   1.4414   1.4814   1.4814   1.4984   1.4984   1.5320   1.5320
     1.5560   1.5560   1.5895   1.5895   1.6127   1.6127   1.6562   1.6562
     1.7324   1.7324   1.7675   1.7675   1.8291   1.8291   1.9043   1.9043
     1.9416   1.9416   2.0514   2.0514   2.2934   2.2934   2.4021   2.4021
     4.1211   4.1211   4.3353   4.3353   4.7834   4.7834   4.9113   4.9113
     5.0051   5.0051   5.2007   5.2007   5.4235   5.4235   5.5603   5.5603
     5.9470   5.9470   6.1813   6.1813   6.2497   6.2497   6.2988   6.2988
     6.4839   6.4839   6.6154   6.6154   6.7113   6.7113   6.8358   6.8358
     7.0074   7.0074   7.1019   7.1019   7.5222   7.5222   7.6041   7.6041
     7.6707   7.6707   7.7398   7.7398   7.7999   7.7999   7.8708   7.8708
     7.9238   7.9238   7.9627   7.9627   8.0188   8.0188   8.1083   8.1083
     8.1274   8.1274   8.1852   8.1852   8.2086   8.2086   8.2344   8.2344
     8.2666   8.2666   8.3099   8.3099   8.3464   8.3464   8.3784   8.3784
     8.4291   8.4291   8.4593   8.4593   8.5201   8.5201   8.5544   8.5544
     8.6029   8.6029   8.6617   8.6617   8.6886   8.6886   8.7217   8.7217
     8.7479   8.7479   8.7561   8.7561   8.7980   8.7980   8.8520   8.8520
     8.8897   8.8897   8.9240   8.9240   8.9430   8.9430   8.9736   8.9736
     9.0046   9.0046   9.0146   9.0146   9.0620   9.0620   9.1247   9.1247
     9.1914   9.1914   9.2477   9.2477   9.2694   9.2694   9.3095   9.3095
     9.3449   9.3449   9.3728   9.3728   9.3984   9.3984   9.4372   9.4372
     9.4620   9.4620   9.5119   9.5119   9.5491   9.5491   9.5766   9.5766
     9.6223   9.6223   9.6650   9.6650   9.6884   9.6884   9.7561   9.7561
     9.7835   9.7836   9.7984   9.7984

     occupation numbers 
     1.0000   1.0000   1.0000   1.0000   1.0000   1.0000   1.0000   1.0000
     1.0000   1.0000   1.0000   1.0000   1.0000   1.0000   1.0000   1.0000
     1.0000   1.0000   1.0000   1.0000   1.0000   1.0000   1.0000   1.0000
     1.0000   1.0000   1.0000   1.0000   1.0000   1.0000   1.0000   1.0000
     1.0000   1.0000   1.0000   1.0000   1.0000   1.0000   1.0000   1.0000
     1.0000   1.0000   1.0000   1.0000   1.0000   1.0000   1.0000   1.0000
     1.0000   1.0000   1.0000   1.0000   1.0000   1.0000   1.0000   1.0000
     1.0000   1.0000   1.0000   1.0000   1.0000   1.0000   1.0000   1.0000
     1.0000   1.0000   1.0000   1.0000   1.0000   1.0000   1.0000   1.0000
     1.0000   1.0000   1.0000   1.0000   1.0000   1.0000   1.0000   1.0000
     1.0000   1.0000   1.0000   1.0000   1.0000   1.0000   1.0000   1.0000
     1.0000   1.0000   1.0000   1.0000   1.0000   1.0000   1.0000   1.0000
     1.0000   1.0000   1.0000   1.0000   1.0000   1.0000   1.0000   1.0000
     1.0000   1.0000   1.0000   1.0000   1.0000   1.0000   1.0000   1.0000
     1.0000   1.0000   1.0000   1.0000   1.0000   1.0000   1.0000   1.0000
     1.0000   1.0000   1.0000   1.0000   1.0000   1.0000   1.0000   1.0000
     1.0000   1.0000   1.0000   1.0000   1.0000   1.0000   1.0000   1.0000
     1.0000   1.0000   1.0000   1.0000   1.0000   1.0000   1.0000   1.0000
     1.0000   1.0000   1.0000   1.0000   1.0000   1.0000   1.0000   1.0000
     1.0000   1.0000   1.0000   1.0000   1.0000   1.0000   1.0000   1.0000
     1.0000   1.0000   1.0000   1.0000   1.0000   1.0000   1.0000   1.0000
     1.0000   1.0000   1.0000   1.0000   1.0000   1.0000   1.0000   1.0000
     1.0000   1.0000   1.0000   1.0000   1.0000   1.0000   1.0000   1.0000
     1.0000   1.0000   1.0000   1.0000   1.0000   1.0000   1.0000   1.0000
     1.0000   1.0000   1.0000   1.0000   1.0000   1.0000   1.0000   1.0000
     1.0000   1.0000   1.0000   1.0000   1.0000   1.0000   1.0000   1.0000
     1.0000   1.0000   1.0000   1.0000   1.0000   1.0000   1.0000   1.0000
     1.0000   1.0000   1.0000   1.0000   1.0000   1.0000   1.0000   1.0000
     1.0000   1.0000   1.0000   1.0000   1.0000   1.0000   1.0000   1.0000
     1.0000   1.0000   1.0000   1.0000   1.0000   1.0000   1.0000   1.0000
     1.0000   1.0000   1.0000   1.0000   1.0000   1.0000   1.0000   1.0000
     1.0000   1.0000   1.0000   1.0000   1.0000   1.0000   1.0000   1.0000
     1.0000   1.0000   1.0000   1.0000   1.0000   1.0000   1.0000   1.0000
     1.0000   1.0000   1.0000   1.0000   1.0000   1.0000   1.0000   1.0000
     1.0000   1.0000   1.0000   1.0000   1.0000   1.0000   1.0000   1.0000
     1.0000   1.0000   1.0000   1.0000   1.0000   1.0000   1.0000   1.0000
     1.0000   1.0000   1.0000   1.0000   1.0000   1.0000   1.0000   1.0000
     1.0000   1.0000   1.0000   1.0000   1.0000   1.0000   1.0000   1.0000
     1.0000   1.0000   1.0000   1.0000   1.0000   1.0000   1.0000   1.0000
     1.0000   1.0000   1.0000   1.0000   1.0000   1.0000   1.0000   1.0000
     1.0000   1.0000   1.0000   1.0000   1.0000   1.0000   1.0000   1.0000
     1.0000   1.0000   1.0000   1.0000   1.0000   1.0000   1.0000   1.0000
     1.0000   1.0000   1.0000   1.0000   1.0000   1.0000   1.0000   1.0000
     1.0000   1.0000   1.0000   1.0000   1.0000   1.0000   1.0000   1.0000
     0.0000   0.0000   0.0000   0.0000   0.0000   0.0000   0.0000   0.0000
     0.0000   0.0000   0.0000   0.0000   0.0000   0.0000   0.0000   0.0000
     0.0000   0.0000   0.0000   0.0000   0.0000   0.0000   0.0000   0.0000
     0.0000   0.0000   0.0000   0.0000   0.0000   0.0000   0.0000   0.0000
     0.0000   0.0000   0.0000   0.0000   0.0000   0.0000   0.0000   0.0000
     0.0000   0.0000   0.0000   0.0000   0.0000   0.0000   0.0000   0.0000
     0.0000   0.0000   0.0000   0.0000   0.0000   0.0000   0.0000   0.0000
     0.0000   0.0000   0.0000   0.0000   0.0000   0.0000   0.0000   0.0000
     0.0000   0.0000   0.0000   0.0000   0.0000   0.0000   0.0000   0.0000
     0.0000   0.0000   0.0000   0.0000   0.0000   0.0000   0.0000   0.0000
     0.0000   0.0000   0.0000   0.0000   0.0000   0.0000   0.0000   0.0000
     0.0000   0.0000   0.0000   0.0000   0.0000   0.0000   0.0000   0.0000
     0.0000   0.0000   0.0000   0.0000   0.0000   0.0000   0.0000   0.0000
     0.0000   0.0000   0.0000   0.0000   0.0000   0.0000   0.0000   0.0000
     0.0000   0.0000   0.0000   0.0000   0.0000   0.0000   0.0000   0.0000
     0.0000   0.0000   0.0000   0.0000   0.0000   0.0000   0.0000   0.0000
     0.0000   0.0000   0.0000   0.0000   0.0000   0.0000   0.0000   0.0000
     0.0000   0.0000   0.0000   0.0000   0.0000   0.0000   0.0000   0.0000
     0.0000   0.0000   0.0000   0.0000

          k = 0.0000 0.5000 0.2500 ( 73986 PWs)   bands (ev):

   -18.1281 -18.1281 -18.0397 -18.0397 -17.9993 -17.9993 -17.9954 -17.9954
   -17.9650 -17.9650 -17.9608 -17.9608 -17.8047 -17.8047 -17.7796 -17.7796
   -15.3216 -15.3216 -15.3009 -15.3009 -15.2532 -15.2524 -15.2495 -15.2489
   -15.2402 -15.2401 -15.2354 -15.2352 -15.2228 -15.2228 -15.2149 -15.2148
   -15.1848 -15.1848 -15.1676 -15.1675 -15.0950 -15.0950 -15.0877 -15.0877
   -15.0735 -15.0735 -15.0685 -15.0685 -15.0092 -15.0092 -15.0005 -15.0005
   -12.7940 -12.7938 -12.7723 -12.7699 -12.7689 -12.7674 -12.7351 -12.7320
   -12.7271 -12.7270 -12.7237 -12.7219 -12.7108 -12.7107 -12.6929 -12.6923
   -12.6813 -12.6812 -12.6574 -12.6571 -12.6564 -12.6562 -12.6518 -12.6515
   -12.6442 -12.6435 -12.6338 -12.6337 -12.5952 -12.5950 -12.5901 -12.5899
   -12.5718 -12.5717 -12.5634 -12.5630 -12.5367 -12.5363 -12.5069 -12.5067
   -12.4983 -12.4983 -12.4913 -12.4910 -12.4895 -12.4889 -12.4173 -12.4173
   -11.4034 -11.4021 -11.3480 -11.3464 -11.2670 -11.2666 -11.2292 -11.2288
   -11.2077 -11.2070 -11.1744 -11.1740 -11.1120 -11.1108 -11.0717 -11.0705
   -11.0595 -11.0588 -11.0242 -11.0234 -11.0114 -11.0107 -10.9623 -10.9617
   -10.9258 -10.9244 -10.9172 -10.9155 -10.8815 -10.8807 -10.8650 -10.8647
   -10.8365 -10.8361 -10.7897 -10.7894 -10.7631 -10.7628 -10.6782 -10.6775
   -10.6549 -10.6541 -10.6224 -10.6213 -10.5820 -10.5818 -10.5461 -10.5457
    -6.0980  -6.0979  -6.0135  -6.0132  -5.9766  -5.9761  -5.9725  -5.9723
    -5.9413  -5.9412  -5.9356  -5.9354  -5.7960  -5.7959  -5.7736  -5.7732
    -5.1762  -5.1754  -4.9909  -4.9904  -4.8525  -4.8512  -4.7409  -4.7400
    -4.6862  -4.6844  -4.5628  -4.5612  -4.5025  -4.5016  -4.4788  -4.4777
    -4.4310  -4.4225  -4.4074  -4.4002  -4.3925  -4.3915  -4.3838  -4.3825
    -4.3749  -4.3704  -4.3624  -4.3609  -4.3586  -4.3558  -4.3470  -4.3440
    -4.3313  -4.3282  -4.3181  -4.3174  -4.3158  -4.3128  -4.2556  -4.2526
    -4.2122  -4.2093  -4.1877  -4.1865  -4.1848  -4.1805  -4.1743  -4.1712
    -0.8965  -0.8316  -0.7810  -0.7443  -0.7154  -0.6658  -0.6295  -0.6207
    -0.5386  -0.5290  -0.4688  -0.4501  -0.3929  -0.3902  -0.3135  -0.3040
    -0.1526  -0.1500  -0.0788  -0.0673  -0.0464  -0.0298   0.0053   0.0172
     0.0363   0.0503   0.1349   0.1558   0.1983   0.2053   0.2274   0.2526
     0.2852   0.3038   0.3497   0.3684   0.4051   0.4231   0.4291   0.4482
     0.4662   0.4808   0.5037   0.5176   0.5375   0.5581   0.5847   0.5886
     0.6617   0.6767   0.6968   0.7155   0.7360   0.7477   0.7545   0.7792
     0.7963   0.8052   0.8200   0.8249   0.8385   0.8471   0.8607   0.8893
     0.8944   0.9117   0.9196   0.9290   0.9364   0.9444   0.9538   0.9745
     0.9791   0.9924   1.0037   1.0126   1.0252   1.0352   1.0442   1.0613
     1.0753   1.0836   1.1014   1.1053   1.1176   1.1273   1.1439   1.1628
     1.1683   1.1791   1.1867   1.1950   1.2074   1.2204   1.2364   1.2426
     1.2575   1.2714   1.2796   1.2885   1.2918   1.3078   1.3163   1.3350
     1.3457   1.3658   1.3731   1.3844   1.4017   1.4079   1.4165   1.4336
     1.4452   1.4663   1.4707   1.4842   1.4927   1.5064   1.5190   1.5276
     1.5507   1.5590   1.5678   1.6003   1.6052   1.6141   1.6371   1.6505
     1.6780   1.7021   1.7294   1.7341   1.7858   1.8029   1.8239   1.8470
     1.9174   1.9253   2.0305   2.0382   2.1222   2.1515   2.2553   2.2667
     4.2925   4.3404   4.4932   4.5536   4.7867   4.8202   4.9332   4.9698
     5.1926   5.2262   5.3983   5.4398   5.6174   5.6412   5.7354   5.7855
     5.9562   5.9733   6.1488   6.2053   6.2409   6.2728   6.3089   6.3455
     6.4973   6.5232   6.6123   6.6376   6.6957   6.7300   6.8309   6.8477
     7.0496   7.0637   7.1309   7.1596   7.3429   7.3694   7.4400   7.4479
     7.5481   7.5771   7.6056   7.6550   7.6980   7.7265   7.7873   7.8186
     7.8509   7.8694   7.9051   7.9169   7.9542   7.9707   7.9764   7.9983
     8.0487   8.0797   8.0934   8.1361   8.1541   8.1671   8.2080   8.2212
     8.2379   8.2685   8.2801   8.2947   8.3332   8.3536   8.3677   8.3767
     8.4167   8.4355   8.4567   8.4579   8.5157   8.5324   8.5549   8.5719
     8.5931   8.6161   8.6379   8.6480   8.6692   8.6790   8.7036   8.7121
     8.7209   8.7367   8.7546   8.7818   8.7952   8.8129   8.8329   8.8511
     8.8687   8.8864   8.9041   8.9099   8.9152   8.9316   8.9609   8.9687
     8.9947   9.0169   9.0562   9.0876   9.0975   9.1051   9.1176   9.1352
     9.1450   9.1723   9.1918   9.2154   9.2470   9.2585   9.2700   9.2842
     9.3055   9.3094   9.3320   9.3498   9.3639   9.3706   9.3950   9.4060
     9.4350   9.4477   9.4694   9.4841   9.4979   9.5072   9.5544   9.5691
     9.6200   9.6210   9.6507   9.6634   9.7237   9.7365   9.7633   9.7756
     9.8866   9.8954   9.9494   9.9620

     occupation numbers 
     1.0000   1.0000   1.0000   1.0000   1.0000   1.0000   1.0000   1.0000
     1.0000   1.0000   1.0000   1.0000   1.0000   1.0000   1.0000   1.0000
     1.0000   1.0000   1.0000   1.0000   1.0000   1.0000   1.0000   1.0000
     1.0000   1.0000   1.0000   1.0000   1.0000   1.0000   1.0000   1.0000
     1.0000   1.0000   1.0000   1.0000   1.0000   1.0000   1.0000   1.0000
     1.0000   1.0000   1.0000   1.0000   1.0000   1.0000   1.0000   1.0000
     1.0000   1.0000   1.0000   1.0000   1.0000   1.0000   1.0000   1.0000
     1.0000   1.0000   1.0000   1.0000   1.0000   1.0000   1.0000   1.0000
     1.0000   1.0000   1.0000   1.0000   1.0000   1.0000   1.0000   1.0000
     1.0000   1.0000   1.0000   1.0000   1.0000   1.0000   1.0000   1.0000
     1.0000   1.0000   1.0000   1.0000   1.0000   1.0000   1.0000   1.0000
     1.0000   1.0000   1.0000   1.0000   1.0000   1.0000   1.0000   1.0000
     1.0000   1.0000   1.0000   1.0000   1.0000   1.0000   1.0000   1.0000
     1.0000   1.0000   1.0000   1.0000   1.0000   1.0000   1.0000   1.0000
     1.0000   1.0000   1.0000   1.0000   1.0000   1.0000   1.0000   1.0000
     1.0000   1.0000   1.0000   1.0000   1.0000   1.0000   1.0000   1.0000
     1.0000   1.0000   1.0000   1.0000   1.0000   1.0000   1.0000   1.0000
     1.0000   1.0000   1.0000   1.0000   1.0000   1.0000   1.0000   1.0000
     1.0000   1.0000   1.0000   1.0000   1.0000   1.0000   1.0000   1.0000
     1.0000   1.0000   1.0000   1.0000   1.0000   1.0000   1.0000   1.0000
     1.0000   1.0000   1.0000   1.0000   1.0000   1.0000   1.0000   1.0000
     1.0000   1.0000   1.0000   1.0000   1.0000   1.0000   1.0000   1.0000
     1.0000   1.0000   1.0000   1.0000   1.0000   1.0000   1.0000   1.0000
     1.0000   1.0000   1.0000   1.0000   1.0000   1.0000   1.0000   1.0000
     1.0000   1.0000   1.0000   1.0000   1.0000   1.0000   1.0000   1.0000
     1.0000   1.0000   1.0000   1.0000   1.0000   1.0000   1.0000   1.0000
     1.0000   1.0000   1.0000   1.0000   1.0000   1.0000   1.0000   1.0000
     1.0000   1.0000   1.0000   1.0000   1.0000   1.0000   1.0000   1.0000
     1.0000   1.0000   1.0000   1.0000   1.0000   1.0000   1.0000   1.0000
     1.0000   1.0000   1.0000   1.0000   1.0000   1.0000   1.0000   1.0000
     1.0000   1.0000   1.0000   1.0000   1.0000   1.0000   1.0000   1.0000
     1.0000   1.0000   1.0000   1.0000   1.0000   1.0000   1.0000   1.0000
     1.0000   1.0000   1.0000   1.0000   1.0000   1.0000   1.0000   1.0000
     1.0000   1.0000   1.0000   1.0000   1.0000   1.0000   1.0000   1.0000
     1.0000   1.0000   1.0000   1.0000   1.0000   1.0000   1.0000   1.0000
     1.0000   1.0000   1.0000   1.0000   1.0000   1.0000   1.0000   1.0000
     1.0000   1.0000   1.0000   1.0000   1.0000   1.0000   1.0000   1.0000
     1.0000   1.0000   1.0000   1.0000   1.0000   1.0000   1.0000   1.0000
     1.0000   1.0000   1.0000   1.0000   1.0000   1.0000   1.0000   1.0000
     1.0000   1.0000   1.0000   1.0000   1.0000   1.0000   1.0000   1.0000
     1.0000   1.0000   1.0000   1.0000   1.0000   1.0000   1.0000   1.0000
     1.0000   1.0000   1.0000   1.0000   1.0000   1.0000   1.0000   1.0000
     1.0000   1.0000   1.0000   1.0000   1.0000   1.0000   1.0000   1.0000
     1.0000   1.0000   1.0000   1.0000   1.0000   1.0000   1.0000   1.0000
     0.0000   0.0000   0.0000   0.0000   0.0000   0.0000   0.0000   0.0000
     0.0000   0.0000   0.0000   0.0000   0.0000   0.0000   0.0000   0.0000
     0.0000   0.0000   0.0000   0.0000   0.0000   0.0000   0.0000   0.0000
     0.0000   0.0000   0.0000   0.0000   0.0000   0.0000   0.0000   0.0000
     0.0000   0.0000   0.0000   0.0000   0.0000   0.0000   0.0000   0.0000
     0.0000   0.0000   0.0000   0.0000   0.0000   0.0000   0.0000   0.0000
     0.0000   0.0000   0.0000   0.0000   0.0000   0.0000   0.0000   0.0000
     0.0000   0.0000   0.0000   0.0000   0.0000   0.0000   0.0000   0.0000
     0.0000   0.0000   0.0000   0.0000   0.0000   0.0000   0.0000   0.0000
     0.0000   0.0000   0.0000   0.0000   0.0000   0.0000   0.0000   0.0000
     0.0000   0.0000   0.0000   0.0000   0.0000   0.0000   0.0000   0.0000
     0.0000   0.0000   0.0000   0.0000   0.0000   0.0000   0.0000   0.0000
     0.0000   0.0000   0.0000   0.0000   0.0000   0.0000   0.0000   0.0000
     0.0000   0.0000   0.0000   0.0000   0.0000   0.0000   0.0000   0.0000
     0.0000   0.0000   0.0000   0.0000   0.0000   0.0000   0.0000   0.0000
     0.0000   0.0000   0.0000   0.0000   0.0000   0.0000   0.0000   0.0000
     0.0000   0.0000   0.0000   0.0000   0.0000   0.0000   0.0000   0.0000
     0.0000   0.0000   0.0000   0.0000   0.0000   0.0000   0.0000   0.0000
     0.0000   0.0000   0.0000   0.0000

          k = 0.0000 0.5000 0.5000 ( 73872 PWs)   bands (ev):

   -18.1281 -18.1281 -18.0397 -18.0397 -17.9993 -17.9993 -17.9954 -17.9954
   -17.9650 -17.9650 -17.9608 -17.9608 -17.8047 -17.8047 -17.7796 -17.7796
   -15.3216 -15.3216 -15.3009 -15.3009 -15.2515 -15.2515 -15.2501 -15.2501
   -15.2401 -15.2401 -15.2356 -15.2356 -15.2227 -15.2227 -15.2148 -15.2148
   -15.1848 -15.1848 -15.1676 -15.1676 -15.0949 -15.0949 -15.0877 -15.0877
   -15.0734 -15.0734 -15.0685 -15.0685 -15.0092 -15.0092 -15.0005 -15.0005
   -12.7931 -12.7931 -12.7686 -12.7686 -12.7583 -12.7583 -12.7430 -12.7430
   -12.7268 -12.7268 -12.7260 -12.7260 -12.7108 -12.7108 -12.6916 -12.6916
   -12.6811 -12.6811 -12.6572 -12.6572 -12.6563 -12.6563 -12.6520 -12.6520
   -12.6450 -12.6450 -12.6337 -12.6337 -12.5953 -12.5953 -12.5900 -12.5900
   -12.5717 -12.5717 -12.5620 -12.5620 -12.5365 -12.5365 -12.5079 -12.5079
   -12.4982 -12.4982 -12.4918 -12.4918 -12.4900 -12.4900 -12.4173 -12.4173
   -11.3900 -11.3900 -11.3684 -11.3684 -11.2616 -11.2616 -11.2329 -11.2329
   -11.2018 -11.2018 -11.1742 -11.1742 -11.1211 -11.1211 -11.0665 -11.0665
   -11.0599 -11.0599 -11.0200 -11.0200 -11.0014 -11.0014 -10.9625 -10.9625
   -10.9278 -10.9278 -10.9211 -10.9211 -10.8758 -10.8758 -10.8642 -10.8642
   -10.8324 -10.8324 -10.7915 -10.7915 -10.7577 -10.7577 -10.6754 -10.6754
   -10.6614 -10.6614 -10.6134 -10.6134 -10.5933 -10.5933 -10.5480 -10.5480
    -6.0979  -6.0979  -6.0133  -6.0133  -5.9762  -5.9762  -5.9724  -5.9724
    -5.9414  -5.9414  -5.9356  -5.9356  -5.7960  -5.7960  -5.7734  -5.7734
    -5.0372  -5.0372  -5.0072  -5.0072  -4.8798  -4.8798  -4.8412  -4.8412
    -4.5747  -4.5747  -4.5485  -4.5485  -4.5011  -4.5011  -4.4886  -4.4886
    -4.4419  -4.4419  -4.4252  -4.4252  -4.4063  -4.4063  -4.3897  -4.3897
    -4.3794  -4.3794  -4.3730  -4.3730  -4.3585  -4.3585  -4.3535  -4.3535
    -4.3470  -4.3470  -4.3369  -4.3369  -4.3186  -4.3186  -4.3145  -4.3145
    -4.2141  -4.2141  -4.1879  -4.1879  -4.1852  -4.1852  -4.1746  -4.1746
    -0.8094  -0.8094  -0.7394  -0.7394  -0.5811  -0.5811  -0.5663  -0.5663
    -0.4068  -0.4068  -0.2866  -0.2866  -0.2106  -0.2106  -0.1627  -0.1627
    -0.0941  -0.0941  -0.0612  -0.0612  -0.0069  -0.0069   0.0076   0.0076
     0.0235   0.0235   0.1219   0.1219   0.1851   0.1851   0.2169   0.2169
     0.2471   0.2471   0.2848   0.2848   0.3164   0.3164   0.3710   0.3710
     0.3929   0.3929   0.4334   0.4334   0.4744   0.4744   0.5309   0.5309
     0.6703   0.6703   0.7027   0.7027   0.7177   0.7177   0.7421   0.7421
     0.7638   0.7638   0.8004   0.8004   0.8188   0.8188   0.8604   0.8604
     0.8843   0.8843   0.9123   0.9123   0.9300   0.9300   0.9458   0.9458
     0.9677   0.9677   0.9927   0.9927   1.0124   1.0124   1.0326   1.0326
     1.0713   1.0713   1.0961   1.0961   1.1182   1.1182   1.1380   1.1380
     1.1715   1.1715   1.1812   1.1812   1.2093   1.2093   1.2504   1.2504
     1.2579   1.2579   1.2852   1.2852   1.3058   1.3058   1.3383   1.3383
     1.3564   1.3564   1.3701   1.3701   1.4011   1.4011   1.4338   1.4338
     1.4617   1.4617   1.4896   1.4896   1.4962   1.4962   1.5120   1.5120
     1.5536   1.5536   1.5760   1.5760   1.5887   1.5887   1.6354   1.6354
     1.6693   1.6693   1.7049   1.7049   1.7464   1.7464   1.8192   1.8192
     1.9014   1.9014   2.0124   2.0124   2.0585   2.0585   2.1404   2.1404
     4.5029   4.5029   4.6847   4.6847   4.7767   4.7767   4.8623   4.8623
     5.5740   5.5740   5.6706   5.6706   5.8071   5.8071   5.9217   5.9217
     6.1063   6.1063   6.2778   6.2778   6.3442   6.3442   6.4252   6.4252
     6.5692   6.5692   6.6152   6.6152   6.7407   6.7407   6.8441   6.8441
     6.9570   6.9570   7.0296   7.0296   7.1016   7.1016   7.1791   7.1791
     7.4711   7.4711   7.5471   7.5471   7.6198   7.6198   7.6699   7.6699
     7.7685   7.7685   7.8611   7.8611   7.9056   7.9056   7.9627   7.9627
     8.0200   8.0200   8.0720   8.0720   8.1175   8.1175   8.1505   8.1505
     8.2368   8.2368   8.3301   8.3301   8.3674   8.3674   8.4014   8.4014
     8.4372   8.4372   8.4577   8.4577   8.4808   8.4808   8.5337   8.5337
     8.5538   8.5538   8.6306   8.6306   8.6455   8.6455   8.6644   8.6644
     8.7100   8.7100   8.7447   8.7447   8.7778   8.7778   8.8355   8.8355
     8.8569   8.8569   8.9235   8.9235   8.9498   8.9498   8.9792   8.9792
     9.0362   9.0362   9.0734   9.0734   9.0934   9.0934   9.1302   9.1302
     9.1643   9.1643   9.2182   9.2182   9.2446   9.2446   9.2759   9.2759
     9.3137   9.3137   9.3226   9.3226   9.3680   9.3680   9.3840   9.3840
     9.4234   9.4234   9.4372   9.4372   9.4775   9.4776   9.5344   9.5345
     9.6149   9.6149   9.6845   9.6846   9.7088   9.7088   9.7688   9.7688
    10.0260  10.0261  10.0944  10.0944

     occupation numbers 
     1.0000   1.0000   1.0000   1.0000   1.0000   1.0000   1.0000   1.0000
     1.0000   1.0000   1.0000   1.0000   1.0000   1.0000   1.0000   1.0000
     1.0000   1.0000   1.0000   1.0000   1.0000   1.0000   1.0000   1.0000
     1.0000   1.0000   1.0000   1.0000   1.0000   1.0000   1.0000   1.0000
     1.0000   1.0000   1.0000   1.0000   1.0000   1.0000   1.0000   1.0000
     1.0000   1.0000   1.0000   1.0000   1.0000   1.0000   1.0000   1.0000
     1.0000   1.0000   1.0000   1.0000   1.0000   1.0000   1.0000   1.0000
     1.0000   1.0000   1.0000   1.0000   1.0000   1.0000   1.0000   1.0000
     1.0000   1.0000   1.0000   1.0000   1.0000   1.0000   1.0000   1.0000
     1.0000   1.0000   1.0000   1.0000   1.0000   1.0000   1.0000   1.0000
     1.0000   1.0000   1.0000   1.0000   1.0000   1.0000   1.0000   1.0000
     1.0000   1.0000   1.0000   1.0000   1.0000   1.0000   1.0000   1.0000
     1.0000   1.0000   1.0000   1.0000   1.0000   1.0000   1.0000   1.0000
     1.0000   1.0000   1.0000   1.0000   1.0000   1.0000   1.0000   1.0000
     1.0000   1.0000   1.0000   1.0000   1.0000   1.0000   1.0000   1.0000
     1.0000   1.0000   1.0000   1.0000   1.0000   1.0000   1.0000   1.0000
     1.0000   1.0000   1.0000   1.0000   1.0000   1.0000   1.0000   1.0000
     1.0000   1.0000   1.0000   1.0000   1.0000   1.0000   1.0000   1.0000
     1.0000   1.0000   1.0000   1.0000   1.0000   1.0000   1.0000   1.0000
     1.0000   1.0000   1.0000   1.0000   1.0000   1.0000   1.0000   1.0000
     1.0000   1.0000   1.0000   1.0000   1.0000   1.0000   1.0000   1.0000
     1.0000   1.0000   1.0000   1.0000   1.0000   1.0000   1.0000   1.0000
     1.0000   1.0000   1.0000   1.0000   1.0000   1.0000   1.0000   1.0000
     1.0000   1.0000   1.0000   1.0000   1.0000   1.0000   1.0000   1.0000
     1.0000   1.0000   1.0000   1.0000   1.0000   1.0000   1.0000   1.0000
     1.0000   1.0000   1.0000   1.0000   1.0000   1.0000   1.0000   1.0000
     1.0000   1.0000   1.0000   1.0000   1.0000   1.0000   1.0000   1.0000
     1.0000   1.0000   1.0000   1.0000   1.0000   1.0000   1.0000   1.0000
     1.0000   1.0000   1.0000   1.0000   1.0000   1.0000   1.0000   1.0000
     1.0000   1.0000   1.0000   1.0000   1.0000   1.0000   1.0000   1.0000
     1.0000   1.0000   1.0000   1.0000   1.0000   1.0000   1.0000   1.0000
     1.0000   1.0000   1.0000   1.0000   1.0000   1.0000   1.0000   1.0000
     1.0000   1.0000   1.0000   1.0000   1.0000   1.0000   1.0000   1.0000
     1.0000   1.0000   1.0000   1.0000   1.0000   1.0000   1.0000   1.0000
     1.0000   1.0000   1.0000   1.0000   1.0000   1.0000   1.0000   1.0000
     1.0000   1.0000   1.0000   1.0000   1.0000   1.0000   1.0000   1.0000
     1.0000   1.0000   1.0000   1.0000   1.0000   1.0000   1.0000   1.0000
     1.0000   1.0000   1.0000   1.0000   1.0000   1.0000   1.0000   1.0000
     1.0000   1.0000   1.0000   1.0000   1.0000   1.0000   1.0000   1.0000
     1.0000   1.0000   1.0000   1.0000   1.0000   1.0000   1.0000   1.0000
     1.0000   1.0000   1.0000   1.0000   1.0000   1.0000   1.0000   1.0000
     1.0000   1.0000   1.0000   1.0000   1.0000   1.0000   1.0000   1.0000
     1.0000   1.0000   1.0000   1.0000   1.0000   1.0000   1.0000   1.0000
     1.0000   1.0000   1.0000   1.0000   1.0000   1.0000   1.0000   1.0000
     0.0000   0.0000   0.0000   0.0000   0.0000   0.0000   0.0000   0.0000
     0.0000   0.0000   0.0000   0.0000   0.0000   0.0000   0.0000   0.0000
     0.0000   0.0000   0.0000   0.0000   0.0000   0.0000   0.0000   0.0000
     0.0000   0.0000   0.0000   0.0000   0.0000   0.0000   0.0000   0.0000
     0.0000   0.0000   0.0000   0.0000   0.0000   0.0000   0.0000   0.0000
     0.0000   0.0000   0.0000   0.0000   0.0000   0.0000   0.0000   0.0000
     0.0000   0.0000   0.0000   0.0000   0.0000   0.0000   0.0000   0.0000
     0.0000   0.0000   0.0000   0.0000   0.0000   0.0000   0.0000   0.0000
     0.0000   0.0000   0.0000   0.0000   0.0000   0.0000   0.0000   0.0000
     0.0000   0.0000   0.0000   0.0000   0.0000   0.0000   0.0000   0.0000
     0.0000   0.0000   0.0000   0.0000   0.0000   0.0000   0.0000   0.0000
     0.0000   0.0000   0.0000   0.0000   0.0000   0.0000   0.0000   0.0000
     0.0000   0.0000   0.0000   0.0000   0.0000   0.0000   0.0000   0.0000
     0.0000   0.0000   0.0000   0.0000   0.0000   0.0000   0.0000   0.0000
     0.0000   0.0000   0.0000   0.0000   0.0000   0.0000   0.0000   0.0000
     0.0000   0.0000   0.0000   0.0000   0.0000   0.0000   0.0000   0.0000
     0.0000   0.0000   0.0000   0.0000   0.0000   0.0000   0.0000   0.0000
     0.0000   0.0000   0.0000   0.0000   0.0000   0.0000   0.0000   0.0000
     0.0000   0.0000   0.0000   0.0000

          k = 0.0000 0.5000 0.7500 ( 73986 PWs)   bands (ev):

   -18.1281 -18.1281 -18.0397 -18.0397 -17.9993 -17.9993 -17.9954 -17.9954
   -17.9650 -17.9650 -17.9608 -17.9608 -17.8047 -17.8047 -17.7796 -17.7796
   -15.3216 -15.3216 -15.3009 -15.3009 -15.2532 -15.2524 -15.2495 -15.2489
   -15.2402 -15.2401 -15.2354 -15.2352 -15.2228 -15.2228 -15.2149 -15.2148
   -15.1848 -15.1848 -15.1676 -15.1675 -15.0950 -15.0950 -15.0877 -15.0877
   -15.0735 -15.0735 -15.0685 -15.0685 -15.0092 -15.0092 -15.0005 -15.0005
   -12.7940 -12.7938 -12.7723 -12.7699 -12.7689 -12.7674 -12.7351 -12.7320
   -12.7271 -12.7270 -12.7237 -12.7219 -12.7108 -12.7107 -12.6929 -12.6923
   -12.6813 -12.6812 -12.6574 -12.6571 -12.6564 -12.6562 -12.6518 -12.6515
   -12.6442 -12.6435 -12.6338 -12.6337 -12.5952 -12.5950 -12.5901 -12.5899
   -12.5718 -12.5717 -12.5634 -12.5630 -12.5367 -12.5363 -12.5069 -12.5067
   -12.4983 -12.4983 -12.4913 -12.4910 -12.4895 -12.4889 -12.4173 -12.4173
   -11.4034 -11.4021 -11.3480 -11.3464 -11.2670 -11.2666 -11.2292 -11.2288
   -11.2077 -11.2070 -11.1744 -11.1740 -11.1120 -11.1108 -11.0717 -11.0705
   -11.0595 -11.0588 -11.0242 -11.0234 -11.0114 -11.0107 -10.9623 -10.9617
   -10.9258 -10.9244 -10.9172 -10.9155 -10.8815 -10.8807 -10.8650 -10.8647
   -10.8365 -10.8361 -10.7897 -10.7894 -10.7631 -10.7628 -10.6782 -10.6775
   -10.6549 -10.6541 -10.6224 -10.6213 -10.5820 -10.5818 -10.5461 -10.5457
    -6.0980  -6.0979  -6.0135  -6.0132  -5.9766  -5.9761  -5.9725  -5.9723
    -5.9413  -5.9412  -5.9356  -5.9354  -5.7960  -5.7959  -5.7736  -5.7732
    -5.1762  -5.1754  -4.9909  -4.9904  -4.8525  -4.8512  -4.7409  -4.7400
    -4.6862  -4.6844  -4.5628  -4.5612  -4.5025  -4.5016  -4.4788  -4.4777
    -4.4310  -4.4225  -4.4074  -4.4002  -4.3925  -4.3915  -4.3838  -4.3825
    -4.3749  -4.3704  -4.3624  -4.3609  -4.3586  -4.3558  -4.3470  -4.3440
    -4.3313  -4.3282  -4.3181  -4.3174  -4.3158  -4.3128  -4.2556  -4.2526
    -4.2122  -4.2093  -4.1877  -4.1865  -4.1848  -4.1805  -4.1743  -4.1712
    -0.8965  -0.8316  -0.7810  -0.7443  -0.7154  -0.6658  -0.6295  -0.6207
    -0.5386  -0.5290  -0.4688  -0.4501  -0.3929  -0.3902  -0.3135  -0.3040
    -0.1526  -0.1500  -0.0788  -0.0673  -0.0464  -0.0298   0.0053   0.0172
     0.0363   0.0503   0.1349   0.1558   0.1983   0.2053   0.2274   0.2526
     0.2852   0.3038   0.3497   0.3684   0.4051   0.4231   0.4291   0.4482
     0.4662   0.4808   0.5037   0.5176   0.5375   0.5581   0.5847   0.5886
     0.6617   0.6767   0.6968   0.7155   0.7360   0.7477   0.7545   0.7792
     0.7963   0.8052   0.8200   0.8249   0.8385   0.8471   0.8607   0.8893
     0.8944   0.9117   0.9196   0.9290   0.9364   0.9444   0.9538   0.9745
     0.9791   0.9924   1.0037   1.0126   1.0252   1.0352   1.0442   1.0613
     1.0753   1.0836   1.1014   1.1053   1.1176   1.1273   1.1439   1.1628
     1.1683   1.1791   1.1867   1.1950   1.2074   1.2204   1.2364   1.2426
     1.2575   1.2714   1.2796   1.2885   1.2918   1.3078   1.3163   1.3350
     1.3457   1.3658   1.3731   1.3844   1.4017   1.4079   1.4165   1.4336
     1.4452   1.4663   1.4707   1.4842   1.4927   1.5064   1.5190   1.5276
     1.5507   1.5590   1.5678   1.6003   1.6052   1.6141   1.6371   1.6505
     1.6780   1.7021   1.7294   1.7341   1.7858   1.8029   1.8239   1.8470
     1.9174   1.9253   2.0305   2.0382   2.1222   2.1515   2.2553   2.2667
     4.2925   4.3404   4.4932   4.5536   4.7867   4.8202   4.9332   4.9698
     5.1926   5.2262   5.3983   5.4398   5.6174   5.6412   5.7354   5.7855
     5.9562   5.9733   6.1488   6.2053   6.2409   6.2728   6.3089   6.3455
     6.4973   6.5232   6.6123   6.6376   6.6957   6.7300   6.8309   6.8477
     7.0496   7.0637   7.1309   7.1596   7.3429   7.3694   7.4400   7.4479
     7.5481   7.5771   7.6056   7.6550   7.6980   7.7265   7.7873   7.8186
     7.8509   7.8694   7.9051   7.9169   7.9542   7.9707   7.9764   7.9983
     8.0487   8.0797   8.0934   8.1361   8.1541   8.1671   8.2080   8.2212
     8.2379   8.2685   8.2801   8.2947   8.3332   8.3536   8.3677   8.3767
     8.4167   8.4355   8.4567   8.4579   8.5157   8.5324   8.5549   8.5719
     8.5931   8.6161   8.6379   8.6480   8.6692   8.6790   8.7036   8.7121
     8.7209   8.7367   8.7546   8.7818   8.7952   8.8129   8.8329   8.8511
     8.8687   8.8864   8.9041   8.9099   8.9152   8.9316   8.9609   8.9687
     8.9947   9.0169   9.0562   9.0876   9.0975   9.1051   9.1176   9.1352
     9.1450   9.1723   9.1918   9.2154   9.2470   9.2585   9.2700   9.2842
     9.3055   9.3094   9.3320   9.3498   9.3639   9.3706   9.3950   9.4060
     9.4350   9.4477   9.4694   9.4841   9.4979   9.5072   9.5544   9.5691
     9.6199   9.6210   9.6507   9.6633   9.7236   9.7365   9.7633   9.7756
     9.8866   9.8953   9.9492   9.9618

     occupation numbers 
     1.0000   1.0000   1.0000   1.0000   1.0000   1.0000   1.0000   1.0000
     1.0000   1.0000   1.0000   1.0000   1.0000   1.0000   1.0000   1.0000
     1.0000   1.0000   1.0000   1.0000   1.0000   1.0000   1.0000   1.0000
     1.0000   1.0000   1.0000   1.0000   1.0000   1.0000   1.0000   1.0000
     1.0000   1.0000   1.0000   1.0000   1.0000   1.0000   1.0000   1.0000
     1.0000   1.0000   1.0000   1.0000   1.0000   1.0000   1.0000   1.0000
     1.0000   1.0000   1.0000   1.0000   1.0000   1.0000   1.0000   1.0000
     1.0000   1.0000   1.0000   1.0000   1.0000   1.0000   1.0000   1.0000
     1.0000   1.0000   1.0000   1.0000   1.0000   1.0000   1.0000   1.0000
     1.0000   1.0000   1.0000   1.0000   1.0000   1.0000   1.0000   1.0000
     1.0000   1.0000   1.0000   1.0000   1.0000   1.0000   1.0000   1.0000
     1.0000   1.0000   1.0000   1.0000   1.0000   1.0000   1.0000   1.0000
     1.0000   1.0000   1.0000   1.0000   1.0000   1.0000   1.0000   1.0000
     1.0000   1.0000   1.0000   1.0000   1.0000   1.0000   1.0000   1.0000
     1.0000   1.0000   1.0000   1.0000   1.0000   1.0000   1.0000   1.0000
     1.0000   1.0000   1.0000   1.0000   1.0000   1.0000   1.0000   1.0000
     1.0000   1.0000   1.0000   1.0000   1.0000   1.0000   1.0000   1.0000
     1.0000   1.0000   1.0000   1.0000   1.0000   1.0000   1.0000   1.0000
     1.0000   1.0000   1.0000   1.0000   1.0000   1.0000   1.0000   1.0000
     1.0000   1.0000   1.0000   1.0000   1.0000   1.0000   1.0000   1.0000
     1.0000   1.0000   1.0000   1.0000   1.0000   1.0000   1.0000   1.0000
     1.0000   1.0000   1.0000   1.0000   1.0000   1.0000   1.0000   1.0000
     1.0000   1.0000   1.0000   1.0000   1.0000   1.0000   1.0000   1.0000
     1.0000   1.0000   1.0000   1.0000   1.0000   1.0000   1.0000   1.0000
     1.0000   1.0000   1.0000   1.0000   1.0000   1.0000   1.0000   1.0000
     1.0000   1.0000   1.0000   1.0000   1.0000   1.0000   1.0000   1.0000
     1.0000   1.0000   1.0000   1.0000   1.0000   1.0000   1.0000   1.0000
     1.0000   1.0000   1.0000   1.0000   1.0000   1.0000   1.0000   1.0000
     1.0000   1.0000   1.0000   1.0000   1.0000   1.0000   1.0000   1.0000
     1.0000   1.0000   1.0000   1.0000   1.0000   1.0000   1.0000   1.0000
     1.0000   1.0000   1.0000   1.0000   1.0000   1.0000   1.0000   1.0000
     1.0000   1.0000   1.0000   1.0000   1.0000   1.0000   1.0000   1.0000
     1.0000   1.0000   1.0000   1.0000   1.0000   1.0000   1.0000   1.0000
     1.0000   1.0000   1.0000   1.0000   1.0000   1.0000   1.0000   1.0000
     1.0000   1.0000   1.0000   1.0000   1.0000   1.0000   1.0000   1.0000
     1.0000   1.0000   1.0000   1.0000   1.0000   1.0000   1.0000   1.0000
     1.0000   1.0000   1.0000   1.0000   1.0000   1.0000   1.0000   1.0000
     1.0000   1.0000   1.0000   1.0000   1.0000   1.0000   1.0000   1.0000
     1.0000   1.0000   1.0000   1.0000   1.0000   1.0000   1.0000   1.0000
     1.0000   1.0000   1.0000   1.0000   1.0000   1.0000   1.0000   1.0000
     1.0000   1.0000   1.0000   1.0000   1.0000   1.0000   1.0000   1.0000
     1.0000   1.0000   1.0000   1.0000   1.0000   1.0000   1.0000   1.0000
     1.0000   1.0000   1.0000   1.0000   1.0000   1.0000   1.0000   1.0000
     1.0000   1.0000   1.0000   1.0000   1.0000   1.0000   1.0000   1.0000
     0.0000   0.0000   0.0000   0.0000   0.0000   0.0000   0.0000   0.0000
     0.0000   0.0000   0.0000   0.0000   0.0000   0.0000   0.0000   0.0000
     0.0000   0.0000   0.0000   0.0000   0.0000   0.0000   0.0000   0.0000
     0.0000   0.0000   0.0000   0.0000   0.0000   0.0000   0.0000   0.0000
     0.0000   0.0000   0.0000   0.0000   0.0000   0.0000   0.0000   0.0000
     0.0000   0.0000   0.0000   0.0000   0.0000   0.0000   0.0000   0.0000
     0.0000   0.0000   0.0000   0.0000   0.0000   0.0000   0.0000   0.0000
     0.0000   0.0000   0.0000   0.0000   0.0000   0.0000   0.0000   0.0000
     0.0000   0.0000   0.0000   0.0000   0.0000   0.0000   0.0000   0.0000
     0.0000   0.0000   0.0000   0.0000   0.0000   0.0000   0.0000   0.0000
     0.0000   0.0000   0.0000   0.0000   0.0000   0.0000   0.0000   0.0000
     0.0000   0.0000   0.0000   0.0000   0.0000   0.0000   0.0000   0.0000
     0.0000   0.0000   0.0000   0.0000   0.0000   0.0000   0.0000   0.0000
     0.0000   0.0000   0.0000   0.0000   0.0000   0.0000   0.0000   0.0000
     0.0000   0.0000   0.0000   0.0000   0.0000   0.0000   0.0000   0.0000
     0.0000   0.0000   0.0000   0.0000   0.0000   0.0000   0.0000   0.0000
     0.0000   0.0000   0.0000   0.0000   0.0000   0.0000   0.0000   0.0000
     0.0000   0.0000   0.0000   0.0000   0.0000   0.0000   0.0000   0.0000
     0.0000   0.0000   0.0000   0.0000

          k = 0.0000 0.7500 0.0000 ( 73920 PWs)   bands (ev):

   -18.1281 -18.1281 -18.0397 -18.0397 -17.9993 -17.9993 -17.9954 -17.9954
   -17.9651 -17.9651 -17.9608 -17.9608 -17.8047 -17.8047 -17.7796 -17.7796
   -15.3216 -15.3216 -15.3009 -15.3009 -15.2537 -15.2537 -15.2486 -15.2486
   -15.2401 -15.2401 -15.2350 -15.2350 -15.2229 -15.2228 -15.2149 -15.2149
   -15.1848 -15.1848 -15.1675 -15.1674 -15.0950 -15.0949 -15.0877 -15.0876
   -15.0735 -15.0735 -15.0685 -15.0685 -15.0092 -15.0092 -15.0005 -15.0005
   -12.7950 -12.7949 -12.7767 -12.7766 -12.7706 -12.7700 -12.7309 -12.7308
   -12.7273 -12.7273 -12.7187 -12.7183 -12.7120 -12.7114 -12.6966 -12.6958
   -12.6838 -12.6836 -12.6574 -12.6573 -12.6562 -12.6560 -12.6472 -12.6463
   -12.6423 -12.6421 -12.6338 -12.6336 -12.5947 -12.5940 -12.5900 -12.5899
   -12.5709 -12.5701 -12.5641 -12.5640 -12.5362 -12.5361 -12.5057 -12.5051
   -12.4983 -12.4982 -12.4910 -12.4909 -12.4877 -12.4877 -12.4173 -12.4173
   -11.4129 -11.4126 -11.3305 -11.3303 -11.2658 -11.2644 -11.2369 -11.2354
   -11.2006 -11.1997 -11.1666 -11.1652 -11.0973 -11.0965 -11.0768 -11.0735
   -11.0593 -11.0583 -11.0279 -11.0267 -11.0188 -11.0162 -10.9731 -10.9723
   -10.9544 -10.9516 -10.9106 -10.9097 -10.8910 -10.8889 -10.8690 -10.8682
   -10.8332 -10.8311 -10.7866 -10.7860 -10.7615 -10.7606 -10.6826 -10.6824
   -10.6442 -10.6436 -10.6283 -10.6279 -10.5731 -10.5729 -10.5397 -10.5392
    -6.0981  -6.0980  -6.0135  -6.0135  -5.9774  -5.9771  -5.9719  -5.9717
    -5.9422  -5.9393  -5.9370  -5.9341  -5.7959  -5.7958  -5.7735  -5.7734
    -5.3037  -5.3033  -4.9632  -4.9623  -4.8660  -4.8652  -4.8460  -4.8450
    -4.5384  -4.5373  -4.5197  -4.5160  -4.4986  -4.4967  -4.4769  -4.4765
    -4.4329  -4.4263  -4.4087  -4.3996  -4.3969  -4.3917  -4.3857  -4.3811
    -4.3746  -4.3728  -4.3637  -4.3627  -4.3571  -4.3540  -4.3497  -4.3450
    -4.3390  -4.3353  -4.3186  -4.3171  -4.3153  -4.3125  -4.2164  -4.2146
    -4.1906  -4.1897  -4.1870  -4.1858  -4.1762  -4.1739  -4.0333  -4.0317
    -1.0339  -0.9939  -0.8268  -0.8125  -0.7405  -0.7244  -0.6961  -0.6740
    -0.6437  -0.6282  -0.5883  -0.5724  -0.5362  -0.5108  -0.4836  -0.4667
    -0.4410  -0.4206  -0.3907  -0.3750  -0.3235  -0.3088  -0.2454  -0.2252
     0.2235   0.2435   0.2735   0.2930   0.3012   0.3279   0.3722   0.3887
     0.4125   0.4344   0.4598   0.4760   0.4785   0.5025   0.5126   0.5226
     0.5412   0.5625   0.5892   0.5976   0.6304   0.6461   0.6764   0.6816
     0.6980   0.7334   0.7518   0.7590   0.7731   0.7909   0.8123   0.8231
     0.8372   0.8467   0.8515   0.8687   0.8753   0.8885   0.8962   0.9136
     0.9224   0.9359   0.9401   0.9476   0.9586   0.9717   0.9847   0.9933
     1.0177   1.0233   1.0301   1.0392   1.0485   1.0559   1.0687   1.0827
     1.0890   1.1008   1.1083   1.1185   1.1272   1.1425   1.1571   1.1596
     1.1689   1.1808   1.1921   1.2029   1.2106   1.2224   1.2295   1.2372
     1.2498   1.2674   1.2748   1.2821   1.2972   1.3103   1.3210   1.3296
     1.3425   1.3571   1.3723   1.3811   1.3982   1.4105   1.4280   1.4335
     1.4428   1.4638   1.4708   1.4818   1.4992   1.5058   1.5241   1.5454
     1.5604   1.5775   1.5939   1.6096   1.6167   1.6416   1.6648   1.6797
     1.7066   1.7251   1.7606   1.7766   1.8028   1.8271   1.9111   1.9380
     2.0306   2.0780   2.1284   2.1644   2.2665   2.2742   2.5130   2.5230
     3.9036   4.0243   4.3607   4.4243   4.5553   4.6255   4.7112   4.7893
     5.0699   5.1261   5.2001   5.2650   5.3318   5.3888   5.4843   5.5354
     5.6068   5.6325   5.6708   5.7200   5.8493   5.9144   5.9616   6.0182
     6.5443   6.5570   6.6837   6.7804   6.9795   7.0660   7.1360   7.1606
     7.2164   7.2719   7.3908   7.4331   7.4954   7.5390   7.6200   7.6628
     7.6937   7.7112   7.7225   7.7417   7.7663   7.7941   7.8385   7.8496
     7.9091   7.9350   7.9650   7.9869   8.0422   8.0645   8.0847   8.1046
     8.1233   8.1452   8.1641   8.2096   8.2205   8.2477   8.2734   8.2921
     8.3003   8.3269   8.3371   8.3625   8.3809   8.4022   8.4129   8.4408
     8.4564   8.4833   8.5039   8.5085   8.5357   8.5604   8.5775   8.5931
     8.6069   8.6159   8.6252   8.6440   8.6638   8.6894   8.7130   8.7303
     8.7399   8.7520   8.7733   8.7812   8.7951   8.8027   8.8422   8.8579
     8.8823   8.8978   8.9148   8.9343   8.9528   8.9652   8.9733   8.9933
     9.0140   9.0210   9.0492   9.0685   9.0892   9.1027   9.1730   9.1896
     9.2130   9.2274   9.2418   9.2493   9.2810   9.3006   9.3263   9.3356
     9.3509   9.3772   9.3885   9.4080   9.4424   9.4552   9.4813   9.4950
     9.5127   9.5281   9.5439   9.5591   9.5910   9.5937   9.6155   9.6268
     9.6488   9.6758   9.7044   9.7125   9.7266   9.7397   9.7517   9.7640
     9.8046   9.8230   9.8406   9.8504

     occupation numbers 
     1.0000   1.0000   1.0000   1.0000   1.0000   1.0000   1.0000   1.0000
     1.0000   1.0000   1.0000   1.0000   1.0000   1.0000   1.0000   1.0000
     1.0000   1.0000   1.0000   1.0000   1.0000   1.0000   1.0000   1.0000
     1.0000   1.0000   1.0000   1.0000   1.0000   1.0000   1.0000   1.0000
     1.0000   1.0000   1.0000   1.0000   1.0000   1.0000   1.0000   1.0000
     1.0000   1.0000   1.0000   1.0000   1.0000   1.0000   1.0000   1.0000
     1.0000   1.0000   1.0000   1.0000   1.0000   1.0000   1.0000   1.0000
     1.0000   1.0000   1.0000   1.0000   1.0000   1.0000   1.0000   1.0000
     1.0000   1.0000   1.0000   1.0000   1.0000   1.0000   1.0000   1.0000
     1.0000   1.0000   1.0000   1.0000   1.0000   1.0000   1.0000   1.0000
     1.0000   1.0000   1.0000   1.0000   1.0000   1.0000   1.0000   1.0000
     1.0000   1.0000   1.0000   1.0000   1.0000   1.0000   1.0000   1.0000
     1.0000   1.0000   1.0000   1.0000   1.0000   1.0000   1.0000   1.0000
     1.0000   1.0000   1.0000   1.0000   1.0000   1.0000   1.0000   1.0000
     1.0000   1.0000   1.0000   1.0000   1.0000   1.0000   1.0000   1.0000
     1.0000   1.0000   1.0000   1.0000   1.0000   1.0000   1.0000   1.0000
     1.0000   1.0000   1.0000   1.0000   1.0000   1.0000   1.0000   1.0000
     1.0000   1.0000   1.0000   1.0000   1.0000   1.0000   1.0000   1.0000
     1.0000   1.0000   1.0000   1.0000   1.0000   1.0000   1.0000   1.0000
     1.0000   1.0000   1.0000   1.0000   1.0000   1.0000   1.0000   1.0000
     1.0000   1.0000   1.0000   1.0000   1.0000   1.0000   1.0000   1.0000
     1.0000   1.0000   1.0000   1.0000   1.0000   1.0000   1.0000   1.0000
     1.0000   1.0000   1.0000   1.0000   1.0000   1.0000   1.0000   1.0000
     1.0000   1.0000   1.0000   1.0000   1.0000   1.0000   1.0000   1.0000
     1.0000   1.0000   1.0000   1.0000   1.0000   1.0000   1.0000   1.0000
     1.0000   1.0000   1.0000   1.0000   1.0000   1.0000   1.0000   1.0000
     1.0000   1.0000   1.0000   1.0000   1.0000   1.0000   1.0000   1.0000
     1.0000   1.0000   1.0000   1.0000   1.0000   1.0000   1.0000   1.0000
     1.0000   1.0000   1.0000   1.0000   1.0000   1.0000   1.0000   1.0000
     1.0000   1.0000   1.0000   1.0000   1.0000   1.0000   1.0000   1.0000
     1.0000   1.0000   1.0000   1.0000   1.0000   1.0000   1.0000   1.0000
     1.0000   1.0000   1.0000   1.0000   1.0000   1.0000   1.0000   1.0000
     1.0000   1.0000   1.0000   1.0000   1.0000   1.0000   1.0000   1.0000
     1.0000   1.0000   1.0000   1.0000   1.0000   1.0000   1.0000   1.0000
     1.0000   1.0000   1.0000   1.0000   1.0000   1.0000   1.0000   1.0000
     1.0000   1.0000   1.0000   1.0000   1.0000   1.0000   1.0000   1.0000
     1.0000   1.0000   1.0000   1.0000   1.0000   1.0000   1.0000   1.0000
     1.0000   1.0000   1.0000   1.0000   1.0000   1.0000   1.0000   1.0000
     1.0000   1.0000   1.0000   1.0000   1.0000   1.0000   1.0000   1.0000
     1.0000   1.0000   1.0000   1.0000   1.0000   1.0000   1.0000   1.0000
     1.0000   1.0000   1.0000   1.0000   1.0000   1.0000   1.0000   1.0000
     1.0000   1.0000   1.0000   1.0000   1.0000   1.0000   1.0000   1.0000
     1.0000   1.0000   1.0000   1.0000   1.0000   1.0000   1.0000   1.0000
     1.0000   1.0000   1.0000   1.0000   1.0000   1.0000   1.0000   1.0000
     0.0000   0.0000   0.0000   0.0000   0.0000   0.0000   0.0000   0.0000
     0.0000   0.0000   0.0000   0.0000   0.0000   0.0000   0.0000   0.0000
     0.0000   0.0000   0.0000   0.0000   0.0000   0.0000   0.0000   0.0000
     0.0000   0.0000   0.0000   0.0000   0.0000   0.0000   0.0000   0.0000
     0.0000   0.0000   0.0000   0.0000   0.0000   0.0000   0.0000   0.0000
     0.0000   0.0000   0.0000   0.0000   0.0000   0.0000   0.0000   0.0000
     0.0000   0.0000   0.0000   0.0000   0.0000   0.0000   0.0000   0.0000
     0.0000   0.0000   0.0000   0.0000   0.0000   0.0000   0.0000   0.0000
     0.0000   0.0000   0.0000   0.0000   0.0000   0.0000   0.0000   0.0000
     0.0000   0.0000   0.0000   0.0000   0.0000   0.0000   0.0000   0.0000
     0.0000   0.0000   0.0000   0.0000   0.0000   0.0000   0.0000   0.0000
     0.0000   0.0000   0.0000   0.0000   0.0000   0.0000   0.0000   0.0000
     0.0000   0.0000   0.0000   0.0000   0.0000   0.0000   0.0000   0.0000
     0.0000   0.0000   0.0000   0.0000   0.0000   0.0000   0.0000   0.0000
     0.0000   0.0000   0.0000   0.0000   0.0000   0.0000   0.0000   0.0000
     0.0000   0.0000   0.0000   0.0000   0.0000   0.0000   0.0000   0.0000
     0.0000   0.0000   0.0000   0.0000   0.0000   0.0000   0.0000   0.0000
     0.0000   0.0000   0.0000   0.0000   0.0000   0.0000   0.0000   0.0000
     0.0000   0.0000   0.0000   0.0000

          k = 0.0000 0.7500 0.2500 ( 73903 PWs)   bands (ev):

   -18.1281 -18.1281 -18.0397 -18.0397 -17.9993 -17.9993 -17.9954 -17.9954
   -17.9651 -17.9651 -17.9608 -17.9608 -17.8047 -17.8047 -17.7796 -17.7796
   -15.3216 -15.3216 -15.3009 -15.3009 -15.2532 -15.2525 -15.2495 -15.2489
   -15.2402 -15.2401 -15.2354 -15.2352 -15.2228 -15.2228 -15.2149 -15.2149
   -15.1848 -15.1848 -15.1675 -15.1675 -15.0949 -15.0949 -15.0877 -15.0876
   -15.0734 -15.0734 -15.0685 -15.0685 -15.0092 -15.0092 -15.0005 -15.0005
   -12.7940 -12.7938 -12.7723 -12.7703 -12.7690 -12.7676 -12.7353 -12.7321
   -12.7272 -12.7272 -12.7243 -12.7223 -12.7120 -12.7115 -12.6958 -12.6952
   -12.6834 -12.6834 -12.6574 -12.6571 -12.6563 -12.6560 -12.6473 -12.6467
   -12.6437 -12.6430 -12.6337 -12.6336 -12.5950 -12.5942 -12.5900 -12.5899
   -12.5709 -12.5700 -12.5631 -12.5629 -12.5366 -12.5361 -12.5066 -12.5059
   -12.4983 -12.4982 -12.4912 -12.4910 -12.4894 -12.4888 -12.4173 -12.4173
   -11.4064 -11.4052 -11.3482 -11.3466 -11.2600 -11.2595 -11.2387 -11.2374
   -11.1939 -11.1931 -11.1680 -11.1672 -11.1071 -11.1063 -11.0737 -11.0710
   -11.0585 -11.0576 -11.0258 -11.0251 -11.0070 -11.0056 -10.9741 -10.9731
   -10.9525 -10.9492 -10.9201 -10.9182 -10.8881 -10.8862 -10.8695 -10.8690
   -10.8220 -10.8207 -10.7896 -10.7888 -10.7578 -10.7569 -10.6808 -10.6803
   -10.6504 -10.6498 -10.6241 -10.6231 -10.5802 -10.5800 -10.5425 -10.5416
    -6.0981  -6.0979  -6.0136  -6.0133  -5.9774  -5.9767  -5.9720  -5.9718
    -5.9425  -5.9396  -5.9371  -5.9342  -5.7959  -5.7958  -5.7736  -5.7732
    -5.2483  -5.2477  -4.9358  -4.9350  -4.8948  -4.8937  -4.8190  -4.8182
    -4.5830  -4.5800  -4.5128  -4.5079  -4.4990  -4.4976  -4.4812  -4.4804
    -4.4566  -4.4525  -4.4179  -4.4107  -4.3973  -4.3953  -4.3849  -4.3827
    -4.3769  -4.3750  -4.3654  -4.3630  -4.3590  -4.3542  -4.3511  -4.3487
    -4.3404  -4.3384  -4.3199  -4.3181  -4.3154  -4.3131  -4.2169  -4.2150
    -4.1921  -4.1902  -4.1875  -4.1859  -4.1767  -4.1746  -4.1147  -4.1118
    -0.9055  -0.8389  -0.7711  -0.7521  -0.7412  -0.6801  -0.6513  -0.6155
    -0.5839  -0.5536  -0.5384  -0.5114  -0.4724  -0.4591  -0.4513  -0.4296
    -0.4161  -0.3671  -0.3364  -0.3208  -0.2491  -0.2255  -0.2113  -0.1646
     0.2114   0.2371   0.2740   0.2909   0.3037   0.3312   0.3465   0.3628
     0.3833   0.3957   0.4200   0.4367   0.4576   0.4705   0.4822   0.4870
     0.4995   0.5311   0.5483   0.5640   0.5681   0.5823   0.6122   0.6611
     0.6801   0.6940   0.7264   0.7486   0.7526   0.7727   0.7867   0.8065
     0.8134   0.8275   0.8455   0.8479   0.8566   0.8771   0.8843   0.8994
     0.9086   0.9218   0.9307   0.9336   0.9468   0.9552   0.9618   0.9739
     0.9901   0.9993   1.0124   1.0200   1.0376   1.0476   1.0542   1.0697
     1.0780   1.0852   1.0940   1.1019   1.1144   1.1244   1.1505   1.1585
     1.1718   1.1804   1.1927   1.2010   1.2065   1.2221   1.2339   1.2446
     1.2645   1.2713   1.2835   1.2892   1.3001   1.3118   1.3215   1.3322
     1.3491   1.3671   1.3770   1.3904   1.4011   1.4116   1.4232   1.4358
     1.4470   1.4581   1.4644   1.4828   1.5031   1.5055   1.5140   1.5309
     1.5470   1.5527   1.5832   1.5996   1.6102   1.6299   1.6517   1.6585
     1.6879   1.7076   1.7389   1.7698   1.7828   1.8114   1.8663   1.8961
     1.9639   1.9773   2.0899   2.1201   2.1484   2.1660   2.3641   2.3730
     4.0987   4.2022   4.5196   4.5452   4.6181   4.7115   4.8374   4.9523
     5.0753   5.1570   5.3764   5.4274   5.4950   5.5226   5.5401   5.6089
     5.7227   5.8268   5.8486   5.8959   5.9075   5.9770   6.0485   6.1881
     6.5127   6.5722   6.7338   6.7954   6.8998   6.9936   7.0890   7.1158
     7.1774   7.2201   7.2916   7.3019   7.4026   7.4239   7.4973   7.5521
     7.6029   7.6549   7.6793   7.7127   7.7408   7.7575   7.7920   7.8273
     7.8426   7.8836   7.9154   7.9375   7.9415   7.9874   8.0169   8.0569
     8.0790   8.0854   8.1007   8.1528   8.1827   8.2310   8.2486   8.2559
     8.2715   8.3131   8.3276   8.3600   8.3705   8.3830   8.4092   8.4248
     8.4534   8.4672   8.4919   8.5070   8.5252   8.5364   8.5495   8.5707
     8.5904   8.6063   8.6223   8.6387   8.6706   8.6769   8.7010   8.7177
     8.7278   8.7484   8.7619   8.7761   8.8044   8.8133   8.8463   8.8610
     8.8670   8.8923   8.9080   8.9280   8.9607   8.9752   8.9870   8.9929
     9.0057   9.0185   9.0630   9.0738   9.1022   9.1181   9.1247   9.1310
     9.1577   9.1752   9.2102   9.2240   9.2359   9.2412   9.2657   9.2865
     9.3086   9.3241   9.3365   9.3513   9.3717   9.3998   9.4194   9.4287
     9.4443   9.4659   9.5067   9.5263   9.5550   9.5686   9.5949   9.6045
     9.6253   9.6367   9.6737   9.6836   9.7029   9.7162   9.7700   9.7834
     9.8286   9.8441   9.9286   9.9524

     occupation numbers 
     1.0000   1.0000   1.0000   1.0000   1.0000   1.0000   1.0000   1.0000
     1.0000   1.0000   1.0000   1.0000   1.0000   1.0000   1.0000   1.0000
     1.0000   1.0000   1.0000   1.0000   1.0000   1.0000   1.0000   1.0000
     1.0000   1.0000   1.0000   1.0000   1.0000   1.0000   1.0000   1.0000
     1.0000   1.0000   1.0000   1.0000   1.0000   1.0000   1.0000   1.0000
     1.0000   1.0000   1.0000   1.0000   1.0000   1.0000   1.0000   1.0000
     1.0000   1.0000   1.0000   1.0000   1.0000   1.0000   1.0000   1.0000
     1.0000   1.0000   1.0000   1.0000   1.0000   1.0000   1.0000   1.0000
     1.0000   1.0000   1.0000   1.0000   1.0000   1.0000   1.0000   1.0000
     1.0000   1.0000   1.0000   1.0000   1.0000   1.0000   1.0000   1.0000
     1.0000   1.0000   1.0000   1.0000   1.0000   1.0000   1.0000   1.0000
     1.0000   1.0000   1.0000   1.0000   1.0000   1.0000   1.0000   1.0000
     1.0000   1.0000   1.0000   1.0000   1.0000   1.0000   1.0000   1.0000
     1.0000   1.0000   1.0000   1.0000   1.0000   1.0000   1.0000   1.0000
     1.0000   1.0000   1.0000   1.0000   1.0000   1.0000   1.0000   1.0000
     1.0000   1.0000   1.0000   1.0000   1.0000   1.0000   1.0000   1.0000
     1.0000   1.0000   1.0000   1.0000   1.0000   1.0000   1.0000   1.0000
     1.0000   1.0000   1.0000   1.0000   1.0000   1.0000   1.0000   1.0000
     1.0000   1.0000   1.0000   1.0000   1.0000   1.0000   1.0000   1.0000
     1.0000   1.0000   1.0000   1.0000   1.0000   1.0000   1.0000   1.0000
     1.0000   1.0000   1.0000   1.0000   1.0000   1.0000   1.0000   1.0000
     1.0000   1.0000   1.0000   1.0000   1.0000   1.0000   1.0000   1.0000
     1.0000   1.0000   1.0000   1.0000   1.0000   1.0000   1.0000   1.0000
     1.0000   1.0000   1.0000   1.0000   1.0000   1.0000   1.0000   1.0000
     1.0000   1.0000   1.0000   1.0000   1.0000   1.0000   1.0000   1.0000
     1.0000   1.0000   1.0000   1.0000   1.0000   1.0000   1.0000   1.0000
     1.0000   1.0000   1.0000   1.0000   1.0000   1.0000   1.0000   1.0000
     1.0000   1.0000   1.0000   1.0000   1.0000   1.0000   1.0000   1.0000
     1.0000   1.0000   1.0000   1.0000   1.0000   1.0000   1.0000   1.0000
     1.0000   1.0000   1.0000   1.0000   1.0000   1.0000   1.0000   1.0000
     1.0000   1.0000   1.0000   1.0000   1.0000   1.0000   1.0000   1.0000
     1.0000   1.0000   1.0000   1.0000   1.0000   1.0000   1.0000   1.0000
     1.0000   1.0000   1.0000   1.0000   1.0000   1.0000   1.0000   1.0000
     1.0000   1.0000   1.0000   1.0000   1.0000   1.0000   1.0000   1.0000
     1.0000   1.0000   1.0000   1.0000   1.0000   1.0000   1.0000   1.0000
     1.0000   1.0000   1.0000   1.0000   1.0000   1.0000   1.0000   1.0000
     1.0000   1.0000   1.0000   1.0000   1.0000   1.0000   1.0000   1.0000
     1.0000   1.0000   1.0000   1.0000   1.0000   1.0000   1.0000   1.0000
     1.0000   1.0000   1.0000   1.0000   1.0000   1.0000   1.0000   1.0000
     1.0000   1.0000   1.0000   1.0000   1.0000   1.0000   1.0000   1.0000
     1.0000   1.0000   1.0000   1.0000   1.0000   1.0000   1.0000   1.0000
     1.0000   1.0000   1.0000   1.0000   1.0000   1.0000   1.0000   1.0000
     1.0000   1.0000   1.0000   1.0000   1.0000   1.0000   1.0000   1.0000
     1.0000   1.0000   1.0000   1.0000   1.0000   1.0000   1.0000   1.0000
     0.0000   0.0000   0.0000   0.0000   0.0000   0.0000   0.0000   0.0000
     0.0000   0.0000   0.0000   0.0000   0.0000   0.0000   0.0000   0.0000
     0.0000   0.0000   0.0000   0.0000   0.0000   0.0000   0.0000   0.0000
     0.0000   0.0000   0.0000   0.0000   0.0000   0.0000   0.0000   0.0000
     0.0000   0.0000   0.0000   0.0000   0.0000   0.0000   0.0000   0.0000
     0.0000   0.0000   0.0000   0.0000   0.0000   0.0000   0.0000   0.0000
     0.0000   0.0000   0.0000   0.0000   0.0000   0.0000   0.0000   0.0000
     0.0000   0.0000   0.0000   0.0000   0.0000   0.0000   0.0000   0.0000
     0.0000   0.0000   0.0000   0.0000   0.0000   0.0000   0.0000   0.0000
     0.0000   0.0000   0.0000   0.0000   0.0000   0.0000   0.0000   0.0000
     0.0000   0.0000   0.0000   0.0000   0.0000   0.0000   0.0000   0.0000
     0.0000   0.0000   0.0000   0.0000   0.0000   0.0000   0.0000   0.0000
     0.0000   0.0000   0.0000   0.0000   0.0000   0.0000   0.0000   0.0000
     0.0000   0.0000   0.0000   0.0000   0.0000   0.0000   0.0000   0.0000
     0.0000   0.0000   0.0000   0.0000   0.0000   0.0000   0.0000   0.0000
     0.0000   0.0000   0.0000   0.0000   0.0000   0.0000   0.0000   0.0000
     0.0000   0.0000   0.0000   0.0000   0.0000   0.0000   0.0000   0.0000
     0.0000   0.0000   0.0000   0.0000   0.0000   0.0000   0.0000   0.0000
     0.0000   0.0000   0.0000   0.0000

          k = 0.0000 0.7500 0.5000 ( 73986 PWs)   bands (ev):

   -18.1281 -18.1281 -18.0397 -18.0397 -17.9993 -17.9993 -17.9954 -17.9954
   -17.9651 -17.9651 -17.9608 -17.9608 -17.8047 -17.8047 -17.7796 -17.7796
   -15.3216 -15.3216 -15.3009 -15.3009 -15.2515 -15.2515 -15.2502 -15.2501
   -15.2402 -15.2402 -15.2356 -15.2356 -15.2228 -15.2228 -15.2149 -15.2149
   -15.1848 -15.1848 -15.1675 -15.1675 -15.0949 -15.0949 -15.0877 -15.0876
   -15.0734 -15.0734 -15.0685 -15.0685 -15.0092 -15.0092 -15.0005 -15.0005
   -12.7931 -12.7931 -12.7692 -12.7686 -12.7585 -12.7583 -12.7433 -12.7431
   -12.7270 -12.7269 -12.7267 -12.7263 -12.7120 -12.7115 -12.6952 -12.6943
   -12.6831 -12.6830 -12.6573 -12.6572 -12.6563 -12.6561 -12.6479 -12.6471
   -12.6444 -12.6442 -12.6337 -12.6336 -12.5952 -12.5945 -12.5900 -12.5899
   -12.5709 -12.5701 -12.5618 -12.5617 -12.5365 -12.5364 -12.5077 -12.5071
   -12.4982 -12.4982 -12.4918 -12.4917 -12.4900 -12.4900 -12.4173 -12.4173
   -11.3905 -11.3902 -11.3709 -11.3707 -11.2618 -11.2612 -11.2281 -11.2262
   -11.1968 -11.1956 -11.1767 -11.1757 -11.1043 -11.1035 -11.0659 -11.0643
   -11.0572 -11.0567 -11.0298 -11.0278 -11.0036 -11.0028 -10.9706 -10.9698
   -10.9544 -10.9510 -10.9222 -10.9200 -10.8837 -10.8833 -10.8702 -10.8699
   -10.8159 -10.8149 -10.7881 -10.7871 -10.7589 -10.7580 -10.6829 -10.6827
   -10.6497 -10.6491 -10.6130 -10.6129 -10.5943 -10.5940 -10.5453 -10.5447
    -6.0980  -6.0979  -6.0133  -6.0133  -5.9769  -5.9767  -5.9720  -5.9718
    -5.9427  -5.9398  -5.9372  -5.9343  -5.7959  -5.7958  -5.7734  -5.7733
    -5.1067  -5.1059  -5.0897  -5.0893  -4.8003  -4.7981  -4.7615  -4.7608
    -4.6609  -4.6584  -4.6073  -4.6052  -4.5019  -4.5014  -4.4820  -4.4817
    -4.4218  -4.4182  -4.4035  -4.4015  -4.3910  -4.3900  -4.3807  -4.3778
    -4.3707  -4.3684  -4.3654  -4.3610  -4.3563  -4.3514  -4.3460  -4.3434
    -4.3275  -4.3230  -4.3194  -4.3169  -4.3013  -4.2973  -4.2777  -4.2746
    -4.2137  -4.2124  -4.1880  -4.1867  -4.1851  -4.1835  -4.1745  -4.1719
    -0.8283  -0.8143  -0.7671  -0.7570  -0.6384  -0.6196  -0.5971  -0.5899
    -0.5325  -0.5063  -0.4707  -0.4541  -0.4429  -0.4221  -0.3377  -0.3132
    -0.2222  -0.1905  -0.1193  -0.0923  -0.0505  -0.0383  -0.0213  -0.0095
     0.0332   0.0357   0.1538   0.1664   0.2359   0.2420   0.2839   0.3010
     0.3196   0.3268   0.3479   0.3552   0.3682   0.3888   0.4008   0.4153
     0.4195   0.4479   0.4776   0.5106   0.5284   0.5523   0.5905   0.6028
     0.6664   0.6912   0.7060   0.7296   0.7453   0.7574   0.7669   0.7830
     0.7895   0.8024   0.8134   0.8328   0.8489   0.8573   0.8633   0.8816
     0.8920   0.9037   0.9189   0.9222   0.9334   0.9494   0.9613   0.9694
     0.9754   0.9921   0.9992   1.0180   1.0274   1.0382   1.0534   1.0671
     1.0752   1.0818   1.0939   1.1062   1.1150   1.1278   1.1398   1.1499
     1.1565   1.1730   1.1816   1.1966   1.2028   1.2275   1.2336   1.2460
     1.2598   1.2718   1.2797   1.2877   1.2971   1.3031   1.3316   1.3382
     1.3478   1.3615   1.3690   1.3928   1.3995   1.4088   1.4265   1.4485
     1.4545   1.4627   1.4747   1.4824   1.4897   1.5063   1.5190   1.5251
     1.5400   1.5589   1.5751   1.5961   1.6189   1.6255   1.6388   1.6600
     1.6727   1.6918   1.7142   1.7364   1.7822   1.7986   1.8302   1.8434
     1.8717   1.8966   2.0114   2.0285   2.1578   2.1956   2.2359   2.2553
     4.2841   4.4081   4.4669   4.5017   4.8234   4.8596   4.9055   4.9237
     5.2063   5.2620   5.3174   5.3619   5.5544   5.6759   5.7302   5.7518
     6.0400   6.0816   6.1507   6.2268   6.3719   6.4060   6.4682   6.4875
     6.5080   6.5341   6.5698   6.6233   6.6909   6.7322   6.7555   6.8608
     7.0388   7.0597   7.0819   7.1247   7.2435   7.3447   7.3860   7.4078
     7.5176   7.5752   7.6076   7.6679   7.7104   7.7442   7.7551   7.8184
     7.8547   7.8859   7.9158   7.9307   7.9463   7.9624   8.0003   8.0150
     8.0262   8.0478   8.0683   8.0887   8.1033   8.1511   8.1832   8.1921
     8.2472   8.2688   8.2960   8.3080   8.3512   8.3715   8.3939   8.4153
     8.4265   8.4454   8.4690   8.4777   8.4937   8.5178   8.5381   8.5478
     8.5886   8.6093   8.6171   8.6232   8.6320   8.6584   8.6846   8.6950
     8.7148   8.7371   8.7525   8.7655   8.7943   8.8122   8.8281   8.8463
     8.8603   8.8807   8.8977   8.9204   8.9383   8.9446   8.9911   9.0035
     9.0111   9.0235   9.0322   9.0519   9.0839   9.0919   9.1211   9.1329
     9.1448   9.1692   9.1963   9.2029   9.2235   9.2493   9.2731   9.2800
     9.3031   9.3146   9.3224   9.3330   9.3711   9.3920   9.3987   9.4097
     9.4467   9.4518   9.4662   9.4761   9.5184   9.5214   9.5363   9.5520
     9.6219   9.6346   9.6447   9.6530   9.6778   9.6893   9.7618   9.7696
     9.9033   9.9191   9.9339   9.9539

     occupation numbers 
     1.0000   1.0000   1.0000   1.0000   1.0000   1.0000   1.0000   1.0000
     1.0000   1.0000   1.0000   1.0000   1.0000   1.0000   1.0000   1.0000
     1.0000   1.0000   1.0000   1.0000   1.0000   1.0000   1.0000   1.0000
     1.0000   1.0000   1.0000   1.0000   1.0000   1.0000   1.0000   1.0000
     1.0000   1.0000   1.0000   1.0000   1.0000   1.0000   1.0000   1.0000
     1.0000   1.0000   1.0000   1.0000   1.0000   1.0000   1.0000   1.0000
     1.0000   1.0000   1.0000   1.0000   1.0000   1.0000   1.0000   1.0000
     1.0000   1.0000   1.0000   1.0000   1.0000   1.0000   1.0000   1.0000
     1.0000   1.0000   1.0000   1.0000   1.0000   1.0000   1.0000   1.0000
     1.0000   1.0000   1.0000   1.0000   1.0000   1.0000   1.0000   1.0000
     1.0000   1.0000   1.0000   1.0000   1.0000   1.0000   1.0000   1.0000
     1.0000   1.0000   1.0000   1.0000   1.0000   1.0000   1.0000   1.0000
     1.0000   1.0000   1.0000   1.0000   1.0000   1.0000   1.0000   1.0000
     1.0000   1.0000   1.0000   1.0000   1.0000   1.0000   1.0000   1.0000
     1.0000   1.0000   1.0000   1.0000   1.0000   1.0000   1.0000   1.0000
     1.0000   1.0000   1.0000   1.0000   1.0000   1.0000   1.0000   1.0000
     1.0000   1.0000   1.0000   1.0000   1.0000   1.0000   1.0000   1.0000
     1.0000   1.0000   1.0000   1.0000   1.0000   1.0000   1.0000   1.0000
     1.0000   1.0000   1.0000   1.0000   1.0000   1.0000   1.0000   1.0000
     1.0000   1.0000   1.0000   1.0000   1.0000   1.0000   1.0000   1.0000
     1.0000   1.0000   1.0000   1.0000   1.0000   1.0000   1.0000   1.0000
     1.0000   1.0000   1.0000   1.0000   1.0000   1.0000   1.0000   1.0000
     1.0000   1.0000   1.0000   1.0000   1.0000   1.0000   1.0000   1.0000
     1.0000   1.0000   1.0000   1.0000   1.0000   1.0000   1.0000   1.0000
     1.0000   1.0000   1.0000   1.0000   1.0000   1.0000   1.0000   1.0000
     1.0000   1.0000   1.0000   1.0000   1.0000   1.0000   1.0000   1.0000
     1.0000   1.0000   1.0000   1.0000   1.0000   1.0000   1.0000   1.0000
     1.0000   1.0000   1.0000   1.0000   1.0000   1.0000   1.0000   1.0000
     1.0000   1.0000   1.0000   1.0000   1.0000   1.0000   1.0000   1.0000
     1.0000   1.0000   1.0000   1.0000   1.0000   1.0000   1.0000   1.0000
     1.0000   1.0000   1.0000   1.0000   1.0000   1.0000   1.0000   1.0000
     1.0000   1.0000   1.0000   1.0000   1.0000   1.0000   1.0000   1.0000
     1.0000   1.0000   1.0000   1.0000   1.0000   1.0000   1.0000   1.0000
     1.0000   1.0000   1.0000   1.0000   1.0000   1.0000   1.0000   1.0000
     1.0000   1.0000   1.0000   1.0000   1.0000   1.0000   1.0000   1.0000
     1.0000   1.0000   1.0000   1.0000   1.0000   1.0000   1.0000   1.0000
     1.0000   1.0000   1.0000   1.0000   1.0000   1.0000   1.0000   1.0000
     1.0000   1.0000   1.0000   1.0000   1.0000   1.0000   1.0000   1.0000
     1.0000   1.0000   1.0000   1.0000   1.0000   1.0000   1.0000   1.0000
     1.0000   1.0000   1.0000   1.0000   1.0000   1.0000   1.0000   1.0000
     1.0000   1.0000   1.0000   1.0000   1.0000   1.0000   1.0000   1.0000
     1.0000   1.0000   1.0000   1.0000   1.0000   1.0000   1.0000   1.0000
     1.0000   1.0000   1.0000   1.0000   1.0000   1.0000   1.0000   1.0000
     1.0000   1.0000   1.0000   1.0000   1.0000   1.0000   1.0000   1.0000
     0.0000   0.0000   0.0000   0.0000   0.0000   0.0000   0.0000   0.0000
     0.0000   0.0000   0.0000   0.0000   0.0000   0.0000   0.0000   0.0000
     0.0000   0.0000   0.0000   0.0000   0.0000   0.0000   0.0000   0.0000
     0.0000   0.0000   0.0000   0.0000   0.0000   0.0000   0.0000   0.0000
     0.0000   0.0000   0.0000   0.0000   0.0000   0.0000   0.0000   0.0000
     0.0000   0.0000   0.0000   0.0000   0.0000   0.0000   0.0000   0.0000
     0.0000   0.0000   0.0000   0.0000   0.0000   0.0000   0.0000   0.0000
     0.0000   0.0000   0.0000   0.0000   0.0000   0.0000   0.0000   0.0000
     0.0000   0.0000   0.0000   0.0000   0.0000   0.0000   0.0000   0.0000
     0.0000   0.0000   0.0000   0.0000   0.0000   0.0000   0.0000   0.0000
     0.0000   0.0000   0.0000   0.0000   0.0000   0.0000   0.0000   0.0000
     0.0000   0.0000   0.0000   0.0000   0.0000   0.0000   0.0000   0.0000
     0.0000   0.0000   0.0000   0.0000   0.0000   0.0000   0.0000   0.0000
     0.0000   0.0000   0.0000   0.0000   0.0000   0.0000   0.0000   0.0000
     0.0000   0.0000   0.0000   0.0000   0.0000   0.0000   0.0000   0.0000
     0.0000   0.0000   0.0000   0.0000   0.0000   0.0000   0.0000   0.0000
     0.0000   0.0000   0.0000   0.0000   0.0000   0.0000   0.0000   0.0000
     0.0000   0.0000   0.0000   0.0000   0.0000   0.0000   0.0000   0.0000
     0.0000   0.0000   0.0000   0.0000

          k = 0.0000 0.7500 0.7500 ( 73903 PWs)   bands (ev):

   -18.1281 -18.1281 -18.0397 -18.0397 -17.9993 -17.9993 -17.9954 -17.9954
   -17.9651 -17.9651 -17.9608 -17.9608 -17.8047 -17.8047 -17.7796 -17.7796
   -15.3216 -15.3216 -15.3009 -15.3009 -15.2532 -15.2524 -15.2495 -15.2489
   -15.2402 -15.2401 -15.2354 -15.2352 -15.2228 -15.2228 -15.2149 -15.2149
   -15.1848 -15.1848 -15.1675 -15.1675 -15.0949 -15.0949 -15.0877 -15.0876
   -15.0734 -15.0734 -15.0685 -15.0685 -15.0092 -15.0092 -15.0005 -15.0005
   -12.7940 -12.7938 -12.7724 -12.7701 -12.7692 -12.7675 -12.7352 -12.7322
   -12.7272 -12.7272 -12.7241 -12.7225 -12.7121 -12.7115 -12.6961 -12.6949
   -12.6835 -12.6833 -12.6574 -12.6571 -12.6563 -12.6560 -12.6476 -12.6464
   -12.6435 -12.6431 -12.6337 -12.6336 -12.5950 -12.5943 -12.5901 -12.5899
   -12.5708 -12.5701 -12.5632 -12.5628 -12.5365 -12.5362 -12.5066 -12.5060
   -12.4983 -12.4982 -12.4912 -12.4910 -12.4894 -12.4888 -12.4173 -12.4173
   -11.4053 -11.4040 -11.3488 -11.3473 -11.2666 -11.2652 -11.2263 -11.2239
   -11.2017 -11.2003 -11.1762 -11.1748 -11.0956 -11.0944 -11.0649 -11.0631
   -11.0601 -11.0595 -11.0325 -11.0313 -11.0164 -11.0148 -10.9705 -10.9694
   -10.9545 -10.9515 -10.9141 -10.9125 -10.8855 -10.8845 -10.8699 -10.8694
   -10.8268 -10.8251 -10.7853 -10.7845 -10.7627 -10.7619 -10.6847 -10.6840
   -10.6440 -10.6434 -10.6225 -10.6214 -10.5825 -10.5821 -10.5427 -10.5423
    -6.0980  -6.0980  -6.0136  -6.0133  -5.9771  -5.9769  -5.9720  -5.9717
    -5.9425  -5.9396  -5.9371  -5.9341  -5.7959  -5.7958  -5.7736  -5.7732
    -5.2453  -5.2446  -4.9400  -4.9395  -4.9049  -4.9039  -4.8073  -4.8060
    -4.5972  -4.5949  -4.5037  -4.5030  -4.4895  -4.4873  -4.4794  -4.4743
    -4.4556  -4.4532  -4.4151  -4.4141  -4.3987  -4.3974  -4.3877  -4.3818
    -4.3769  -4.3738  -4.3660  -4.3631  -4.3582  -4.3559  -4.3513  -4.3471
    -4.3427  -4.3387  -4.3218  -4.3180  -4.3158  -4.3136  -4.2178  -4.2159
    -4.1932  -4.1908  -4.1879  -4.1854  -4.1796  -4.1753  -4.1119  -4.1101
    -0.9176  -0.8411  -0.8028  -0.7537  -0.7378  -0.7108  -0.6478  -0.6277
    -0.5653  -0.5482  -0.5284  -0.5082  -0.4676  -0.4460  -0.4234  -0.3935
    -0.3769  -0.3625  -0.3364  -0.3209  -0.2512  -0.2411  -0.2120  -0.2034
     0.1910   0.2467   0.2748   0.2910   0.3023   0.3366   0.3559   0.3615
     0.3701   0.3964   0.4200   0.4373   0.4450   0.4644   0.4753   0.4970
     0.5051   0.5222   0.5371   0.5593   0.5726   0.6053   0.6367   0.6646
     0.6831   0.6979   0.7080   0.7337   0.7475   0.7771   0.7895   0.8003
     0.8075   0.8153   0.8321   0.8405   0.8581   0.8734   0.8823   0.8956
     0.9034   0.9215   0.9240   0.9350   0.9427   0.9605   0.9737   0.9856
     0.9909   1.0035   1.0184   1.0281   1.0364   1.0460   1.0614   1.0668
     1.0806   1.0956   1.1066   1.1134   1.1221   1.1389   1.1502   1.1589
     1.1653   1.1760   1.1875   1.1947   1.2063   1.2110   1.2344   1.2384
     1.2467   1.2624   1.2680   1.2891   1.2950   1.3118   1.3209   1.3295
     1.3503   1.3533   1.3718   1.3869   1.4026   1.4071   1.4199   1.4454
     1.4543   1.4631   1.4760   1.4855   1.4943   1.5077   1.5182   1.5363
     1.5556   1.5717   1.5861   1.6077   1.6201   1.6424   1.6546   1.6655
     1.6795   1.6914   1.7403   1.7581   1.7866   1.8011   1.8600   1.9132
     1.9302   1.9549   2.0962   2.1328   2.1567   2.1769   2.3704   2.3779
     4.0956   4.2029   4.5155   4.5518   4.6308   4.6893   4.8645   4.9311
     5.0943   5.1298   5.3665   5.4251   5.4779   5.5106   5.5718   5.5972
     5.7509   5.8001   5.8545   5.8825   5.9008   5.9903   6.1153   6.1591
     6.5048   6.5427   6.7384   6.7966   6.9425   6.9981   7.0822   7.1087
     7.1691   7.2197   7.2956   7.3419   7.3800   7.4157   7.5248   7.5629
     7.6008   7.6366   7.6823   7.7063   7.7381   7.7588   7.8035   7.8270
     7.8565   7.8876   7.9337   7.9399   7.9636   8.0075   8.0135   8.0450
     8.0672   8.0957   8.1187   8.1469   8.1758   8.1996   8.2085   8.2523
     8.2852   8.3188   8.3285   8.3413   8.3501   8.3768   8.3942   8.4255
     8.4385   8.4503   8.4735   8.4819   8.4967   8.5055   8.5456   8.5735
     8.5865   8.6051   8.6260   8.6616   8.6665   8.6840   8.7030   8.7226
     8.7330   8.7610   8.7750   8.7907   8.8006   8.8145   8.8197   8.8383
     8.8716   8.8879   8.9020   8.9135   8.9285   8.9389   8.9547   8.9765
     8.9997   9.0090   9.0200   9.0362   9.0602   9.0716   9.1074   9.1279
     9.1933   9.2007   9.2262   9.2504   9.2709   9.2899   9.3038   9.3099
     9.3368   9.3515   9.3600   9.3688   9.3757   9.3956   9.4169   9.4303
     9.5003   9.5166   9.5254   9.5366   9.5846   9.5902   9.6055   9.6215
     9.6439   9.6563   9.6791   9.6989   9.7425   9.7615   9.7725   9.7922
     9.8143   9.8450   9.9380   9.9697

     occupation numbers 
     1.0000   1.0000   1.0000   1.0000   1.0000   1.0000   1.0000   1.0000
     1.0000   1.0000   1.0000   1.0000   1.0000   1.0000   1.0000   1.0000
     1.0000   1.0000   1.0000   1.0000   1.0000   1.0000   1.0000   1.0000
     1.0000   1.0000   1.0000   1.0000   1.0000   1.0000   1.0000   1.0000
     1.0000   1.0000   1.0000   1.0000   1.0000   1.0000   1.0000   1.0000
     1.0000   1.0000   1.0000   1.0000   1.0000   1.0000   1.0000   1.0000
     1.0000   1.0000   1.0000   1.0000   1.0000   1.0000   1.0000   1.0000
     1.0000   1.0000   1.0000   1.0000   1.0000   1.0000   1.0000   1.0000
     1.0000   1.0000   1.0000   1.0000   1.0000   1.0000   1.0000   1.0000
     1.0000   1.0000   1.0000   1.0000   1.0000   1.0000   1.0000   1.0000
     1.0000   1.0000   1.0000   1.0000   1.0000   1.0000   1.0000   1.0000
     1.0000   1.0000   1.0000   1.0000   1.0000   1.0000   1.0000   1.0000
     1.0000   1.0000   1.0000   1.0000   1.0000   1.0000   1.0000   1.0000
     1.0000   1.0000   1.0000   1.0000   1.0000   1.0000   1.0000   1.0000
     1.0000   1.0000   1.0000   1.0000   1.0000   1.0000   1.0000   1.0000
     1.0000   1.0000   1.0000   1.0000   1.0000   1.0000   1.0000   1.0000
     1.0000   1.0000   1.0000   1.0000   1.0000   1.0000   1.0000   1.0000
     1.0000   1.0000   1.0000   1.0000   1.0000   1.0000   1.0000   1.0000
     1.0000   1.0000   1.0000   1.0000   1.0000   1.0000   1.0000   1.0000
     1.0000   1.0000   1.0000   1.0000   1.0000   1.0000   1.0000   1.0000
     1.0000   1.0000   1.0000   1.0000   1.0000   1.0000   1.0000   1.0000
     1.0000   1.0000   1.0000   1.0000   1.0000   1.0000   1.0000   1.0000
     1.0000   1.0000   1.0000   1.0000   1.0000   1.0000   1.0000   1.0000
     1.0000   1.0000   1.0000   1.0000   1.0000   1.0000   1.0000   1.0000
     1.0000   1.0000   1.0000   1.0000   1.0000   1.0000   1.0000   1.0000
     1.0000   1.0000   1.0000   1.0000   1.0000   1.0000   1.0000   1.0000
     1.0000   1.0000   1.0000   1.0000   1.0000   1.0000   1.0000   1.0000
     1.0000   1.0000   1.0000   1.0000   1.0000   1.0000   1.0000   1.0000
     1.0000   1.0000   1.0000   1.0000   1.0000   1.0000   1.0000   1.0000
     1.0000   1.0000   1.0000   1.0000   1.0000   1.0000   1.0000   1.0000
     1.0000   1.0000   1.0000   1.0000   1.0000   1.0000   1.0000   1.0000
     1.0000   1.0000   1.0000   1.0000   1.0000   1.0000   1.0000   1.0000
     1.0000   1.0000   1.0000   1.0000   1.0000   1.0000   1.0000   1.0000
     1.0000   1.0000   1.0000   1.0000   1.0000   1.0000   1.0000   1.0000
     1.0000   1.0000   1.0000   1.0000   1.0000   1.0000   1.0000   1.0000
     1.0000   1.0000   1.0000   1.0000   1.0000   1.0000   1.0000   1.0000
     1.0000   1.0000   1.0000   1.0000   1.0000   1.0000   1.0000   1.0000
     1.0000   1.0000   1.0000   1.0000   1.0000   1.0000   1.0000   1.0000
     1.0000   1.0000   1.0000   1.0000   1.0000   1.0000   1.0000   1.0000
     1.0000   1.0000   1.0000   1.0000   1.0000   1.0000   1.0000   1.0000
     1.0000   1.0000   1.0000   1.0000   1.0000   1.0000   1.0000   1.0000
     1.0000   1.0000   1.0000   1.0000   1.0000   1.0000   1.0000   1.0000
     1.0000   1.0000   1.0000   1.0000   1.0000   1.0000   1.0000   1.0000
     1.0000   1.0000   1.0000   1.0000   1.0000   1.0000   1.0000   1.0000
     0.0000   0.0000   0.0000   0.0000   0.0000   0.0000   0.0000   0.0000
     0.0000   0.0000   0.0000   0.0000   0.0000   0.0000   0.0000   0.0000
     0.0000   0.0000   0.0000   0.0000   0.0000   0.0000   0.0000   0.0000
     0.0000   0.0000   0.0000   0.0000   0.0000   0.0000   0.0000   0.0000
     0.0000   0.0000   0.0000   0.0000   0.0000   0.0000   0.0000   0.0000
     0.0000   0.0000   0.0000   0.0000   0.0000   0.0000   0.0000   0.0000
     0.0000   0.0000   0.0000   0.0000   0.0000   0.0000   0.0000   0.0000
     0.0000   0.0000   0.0000   0.0000   0.0000   0.0000   0.0000   0.0000
     0.0000   0.0000   0.0000   0.0000   0.0000   0.0000   0.0000   0.0000
     0.0000   0.0000   0.0000   0.0000   0.0000   0.0000   0.0000   0.0000
     0.0000   0.0000   0.0000   0.0000   0.0000   0.0000   0.0000   0.0000
     0.0000   0.0000   0.0000   0.0000   0.0000   0.0000   0.0000   0.0000
     0.0000   0.0000   0.0000   0.0000   0.0000   0.0000   0.0000   0.0000
     0.0000   0.0000   0.0000   0.0000   0.0000   0.0000   0.0000   0.0000
     0.0000   0.0000   0.0000   0.0000   0.0000   0.0000   0.0000   0.0000
     0.0000   0.0000   0.0000   0.0000   0.0000   0.0000   0.0000   0.0000
     0.0000   0.0000   0.0000   0.0000   0.0000   0.0000   0.0000   0.0000
     0.0000   0.0000   0.0000   0.0000   0.0000   0.0000   0.0000   0.0000
     0.0000   0.0000   0.0000   0.0000

          k = 0.2500 0.0000 0.0000 ( 73920 PWs)   bands (ev):

   -18.1281 -18.1281 -18.0397 -18.0397 -17.9993 -17.9993 -17.9954 -17.9954
   -17.9651 -17.9651 -17.9608 -17.9608 -17.8047 -17.8047 -17.7796 -17.7796
   -15.3216 -15.3216 -15.3009 -15.3009 -15.2537 -15.2537 -15.2487 -15.2487
   -15.2402 -15.2401 -15.2350 -15.2349 -15.2229 -15.2229 -15.2149 -15.2149
   -15.1848 -15.1847 -15.1674 -15.1674 -15.0949 -15.0948 -15.0876 -15.0876
   -15.0734 -15.0733 -15.0688 -15.0686 -15.0092 -15.0092 -15.0005 -15.0005
   -12.7925 -12.7908 -12.7776 -12.7775 -12.7706 -12.7704 -12.7305 -12.7294
   -12.7271 -12.7266 -12.7199 -12.7192 -12.7154 -12.7139 -12.6992 -12.6991
   -12.6846 -12.6841 -12.6576 -12.6574 -12.6567 -12.6563 -12.6463 -12.6447
   -12.6408 -12.6406 -12.6336 -12.6335 -12.5930 -12.5922 -12.5899 -12.5899
   -12.5688 -12.5686 -12.5629 -12.5622 -12.5398 -12.5385 -12.5053 -12.5049
   -12.4984 -12.4983 -12.4911 -12.4910 -12.4886 -12.4883 -12.4173 -12.4172
   -11.4109 -11.4107 -11.3346 -11.3341 -11.2750 -11.2736 -11.2327 -11.2310
   -11.1953 -11.1932 -11.1599 -11.1591 -11.0938 -11.0919 -11.0840 -11.0828
   -11.0473 -11.0443 -11.0221 -11.0184 -11.0089 -11.0079 -10.9882 -10.9876
   -10.9770 -10.9746 -10.9171 -10.9158 -10.8950 -10.8940 -10.8601 -10.8568
   -10.8252 -10.8248 -10.7895 -10.7880 -10.7554 -10.7543 -10.6858 -10.6852
   -10.6408 -10.6401 -10.6283 -10.6273 -10.5802 -10.5795 -10.5357 -10.5356
    -6.0982  -6.0980  -6.0137  -6.0133  -5.9772  -5.9770  -5.9722  -5.9719
    -5.9415  -5.9411  -5.9351  -5.9350  -5.7958  -5.7957  -5.7736  -5.7735
    -5.2978  -5.2970  -4.9991  -4.9981  -4.8507  -4.8499  -4.8208  -4.8203
    -4.5456  -4.5414  -4.5354  -4.5329  -4.5029  -4.4989  -4.4786  -4.4772
    -4.4232  -4.4214  -4.4088  -4.4055  -4.3905  -4.3894  -4.3800  -4.3774
    -4.3758  -4.3741  -4.3638  -4.3622  -4.3554  -4.3527  -4.3432  -4.3425
    -4.3396  -4.3378  -4.3195  -4.3176  -4.3139  -4.3122  -4.2158  -4.2143
    -4.1911  -4.1892  -4.1870  -4.1851  -4.1764  -4.1753  -4.0350  -4.0320
    -1.0231  -0.9883  -0.8040  -0.7779  -0.7444  -0.7246  -0.6982  -0.6928
    -0.6412  -0.6283  -0.5703  -0.5633  -0.5434  -0.5363  -0.4964  -0.4826
    -0.4718  -0.4473  -0.4259  -0.4072  -0.2895  -0.2512  -0.2267  -0.2108
     0.2197   0.2496   0.2835   0.2907   0.3057   0.3229   0.3713   0.3909
     0.4141   0.4373   0.4514   0.4611   0.4761   0.4948   0.5034   0.5126
     0.5220   0.5423   0.5594   0.5823   0.6406   0.6589   0.6849   0.6980
     0.7135   0.7253   0.7404   0.7688   0.7789   0.7888   0.8041   0.8139
     0.8281   0.8434   0.8565   0.8616   0.8720   0.8957   0.9036   0.9156
     0.9279   0.9383   0.9464   0.9587   0.9679   0.9801   0.9872   1.0001
     1.0086   1.0124   1.0269   1.0441   1.0472   1.0677   1.0782   1.0868
     1.0926   1.0972   1.1060   1.1150   1.1253   1.1394   1.1481   1.1582
     1.1697   1.1889   1.1953   1.2047   1.2107   1.2180   1.2335   1.2436
     1.2520   1.2689   1.2796   1.2898   1.2928   1.3112   1.3194   1.3362
     1.3489   1.3628   1.3775   1.3825   1.3974   1.4126   1.4216   1.4376
     1.4440   1.4659   1.4743   1.4892   1.5091   1.5215   1.5347   1.5487
     1.5688   1.5823   1.5930   1.6074   1.6184   1.6308   1.6428   1.6612
     1.6926   1.6973   1.7609   1.7793   1.8157   1.8411   1.8963   1.9058
     2.0795   2.0992   2.1165   2.1330   2.2509   2.2807   2.5033   2.5132
     3.9347   4.0033   4.3587   4.3955   4.6025   4.6295   4.7015   4.7570
     5.1528   5.1847   5.1998   5.2197   5.3241   5.3916   5.4720   5.4965
     5.6075   5.6498   5.6847   5.7033   5.9003   5.9244   5.9731   5.9951
     6.5483   6.5956   6.6892   6.7332   7.0251   7.0648   7.1247   7.1665
     7.2111   7.2258   7.3202   7.3508   7.4439   7.5399   7.6259   7.6520
     7.6662   7.6971   7.7387   7.7770   7.7897   7.8283   7.8442   7.8552
     7.8911   7.9415   7.9577   7.9907   8.0172   8.0480   8.0688   8.1015
     8.1259   8.1692   8.1913   8.2197   8.2487   8.2675   8.2801   8.3144
     8.3328   8.3522   8.3590   8.3656   8.3788   8.4118   8.4438   8.4584
     8.4846   8.4989   8.5067   8.5185   8.5264   8.5446   8.5605   8.5748
     8.5953   8.6089   8.6160   8.6283   8.6492   8.6568   8.6784   8.6967
     8.7186   8.7373   8.7754   8.7857   8.8179   8.8323   8.8457   8.8542
     8.8630   8.8770   8.9021   8.9194   8.9346   8.9581   8.9790   8.9919
     9.0086   9.0189   9.0744   9.0824   9.1086   9.1290   9.1472   9.1607
     9.1787   9.1881   9.2272   9.2413   9.2742   9.2952   9.3363   9.3513
     9.3610   9.3761   9.4169   9.4358   9.4576   9.4742   9.4843   9.5008
     9.5121   9.5252   9.5387   9.5685   9.5861   9.6044   9.6102   9.6226
     9.6331   9.6560   9.6710   9.6881   9.7045   9.7119   9.7359   9.7461
     9.7725   9.7775   9.8814   9.8984

     occupation numbers 
     1.0000   1.0000   1.0000   1.0000   1.0000   1.0000   1.0000   1.0000
     1.0000   1.0000   1.0000   1.0000   1.0000   1.0000   1.0000   1.0000
     1.0000   1.0000   1.0000   1.0000   1.0000   1.0000   1.0000   1.0000
     1.0000   1.0000   1.0000   1.0000   1.0000   1.0000   1.0000   1.0000
     1.0000   1.0000   1.0000   1.0000   1.0000   1.0000   1.0000   1.0000
     1.0000   1.0000   1.0000   1.0000   1.0000   1.0000   1.0000   1.0000
     1.0000   1.0000   1.0000   1.0000   1.0000   1.0000   1.0000   1.0000
     1.0000   1.0000   1.0000   1.0000   1.0000   1.0000   1.0000   1.0000
     1.0000   1.0000   1.0000   1.0000   1.0000   1.0000   1.0000   1.0000
     1.0000   1.0000   1.0000   1.0000   1.0000   1.0000   1.0000   1.0000
     1.0000   1.0000   1.0000   1.0000   1.0000   1.0000   1.0000   1.0000
     1.0000   1.0000   1.0000   1.0000   1.0000   1.0000   1.0000   1.0000
     1.0000   1.0000   1.0000   1.0000   1.0000   1.0000   1.0000   1.0000
     1.0000   1.0000   1.0000   1.0000   1.0000   1.0000   1.0000   1.0000
     1.0000   1.0000   1.0000   1.0000   1.0000   1.0000   1.0000   1.0000
     1.0000   1.0000   1.0000   1.0000   1.0000   1.0000   1.0000   1.0000
     1.0000   1.0000   1.0000   1.0000   1.0000   1.0000   1.0000   1.0000
     1.0000   1.0000   1.0000   1.0000   1.0000   1.0000   1.0000   1.0000
     1.0000   1.0000   1.0000   1.0000   1.0000   1.0000   1.0000   1.0000
     1.0000   1.0000   1.0000   1.0000   1.0000   1.0000   1.0000   1.0000
     1.0000   1.0000   1.0000   1.0000   1.0000   1.0000   1.0000   1.0000
     1.0000   1.0000   1.0000   1.0000   1.0000   1.0000   1.0000   1.0000
     1.0000   1.0000   1.0000   1.0000   1.0000   1.0000   1.0000   1.0000
     1.0000   1.0000   1.0000   1.0000   1.0000   1.0000   1.0000   1.0000
     1.0000   1.0000   1.0000   1.0000   1.0000   1.0000   1.0000   1.0000
     1.0000   1.0000   1.0000   1.0000   1.0000   1.0000   1.0000   1.0000
     1.0000   1.0000   1.0000   1.0000   1.0000   1.0000   1.0000   1.0000
     1.0000   1.0000   1.0000   1.0000   1.0000   1.0000   1.0000   1.0000
     1.0000   1.0000   1.0000   1.0000   1.0000   1.0000   1.0000   1.0000
     1.0000   1.0000   1.0000   1.0000   1.0000   1.0000   1.0000   1.0000
     1.0000   1.0000   1.0000   1.0000   1.0000   1.0000   1.0000   1.0000
     1.0000   1.0000   1.0000   1.0000   1.0000   1.0000   1.0000   1.0000
     1.0000   1.0000   1.0000   1.0000   1.0000   1.0000   1.0000   1.0000
     1.0000   1.0000   1.0000   1.0000   1.0000   1.0000   1.0000   1.0000
     1.0000   1.0000   1.0000   1.0000   1.0000   1.0000   1.0000   1.0000
     1.0000   1.0000   1.0000   1.0000   1.0000   1.0000   1.0000   1.0000
     1.0000   1.0000   1.0000   1.0000   1.0000   1.0000   1.0000   1.0000
     1.0000   1.0000   1.0000   1.0000   1.0000   1.0000   1.0000   1.0000
     1.0000   1.0000   1.0000   1.0000   1.0000   1.0000   1.0000   1.0000
     1.0000   1.0000   1.0000   1.0000   1.0000   1.0000   1.0000   1.0000
     1.0000   1.0000   1.0000   1.0000   1.0000   1.0000   1.0000   1.0000
     1.0000   1.0000   1.0000   1.0000   1.0000   1.0000   1.0000   1.0000
     1.0000   1.0000   1.0000   1.0000   1.0000   1.0000   1.0000   1.0000
     1.0000   1.0000   1.0000   1.0000   1.0000   1.0000   1.0000   1.0000
     0.0000   0.0000   0.0000   0.0000   0.0000   0.0000   0.0000   0.0000
     0.0000   0.0000   0.0000   0.0000   0.0000   0.0000   0.0000   0.0000
     0.0000   0.0000   0.0000   0.0000   0.0000   0.0000   0.0000   0.0000
     0.0000   0.0000   0.0000   0.0000   0.0000   0.0000   0.0000   0.0000
     0.0000   0.0000   0.0000   0.0000   0.0000   0.0000   0.0000   0.0000
     0.0000   0.0000   0.0000   0.0000   0.0000   0.0000   0.0000   0.0000
     0.0000   0.0000   0.0000   0.0000   0.0000   0.0000   0.0000   0.0000
     0.0000   0.0000   0.0000   0.0000   0.0000   0.0000   0.0000   0.0000
     0.0000   0.0000   0.0000   0.0000   0.0000   0.0000   0.0000   0.0000
     0.0000   0.0000   0.0000   0.0000   0.0000   0.0000   0.0000   0.0000
     0.0000   0.0000   0.0000   0.0000   0.0000   0.0000   0.0000   0.0000
     0.0000   0.0000   0.0000   0.0000   0.0000   0.0000   0.0000   0.0000
     0.0000   0.0000   0.0000   0.0000   0.0000   0.0000   0.0000   0.0000
     0.0000   0.0000   0.0000   0.0000   0.0000   0.0000   0.0000   0.0000
     0.0000   0.0000   0.0000   0.0000   0.0000   0.0000   0.0000   0.0000
     0.0000   0.0000   0.0000   0.0000   0.0000   0.0000   0.0000   0.0000
     0.0000   0.0000   0.0000   0.0000   0.0000   0.0000   0.0000   0.0000
     0.0000   0.0000   0.0000   0.0000   0.0000   0.0000   0.0000   0.0000
     0.0000   0.0000   0.0000   0.0000

          k = 0.2500 0.0000 0.2500 ( 73903 PWs)   bands (ev):

   -18.1281 -18.1281 -18.0397 -18.0397 -17.9993 -17.9993 -17.9954 -17.9954
   -17.9651 -17.9651 -17.9608 -17.9608 -17.8047 -17.8047 -17.7796 -17.7796
   -15.3216 -15.3216 -15.3009 -15.3009 -15.2532 -15.2525 -15.2495 -15.2489
   -15.2402 -15.2401 -15.2354 -15.2351 -15.2229 -15.2229 -15.2149 -15.2149
   -15.1849 -15.1848 -15.1674 -15.1674 -15.0949 -15.0948 -15.0876 -15.0876
   -15.0734 -15.0733 -15.0688 -15.0687 -15.0092 -15.0092 -15.0005 -15.0005
   -12.7916 -12.7898 -12.7729 -12.7703 -12.7695 -12.7682 -12.7355 -12.7315
   -12.7271 -12.7265 -12.7242 -12.7225 -12.7162 -12.7141 -12.6988 -12.6985
   -12.6842 -12.6835 -12.6577 -12.6571 -12.6567 -12.6566 -12.6472 -12.6451
   -12.6415 -12.6412 -12.6336 -12.6335 -12.5933 -12.5925 -12.5900 -12.5898
   -12.5686 -12.5682 -12.5618 -12.5610 -12.5402 -12.5390 -12.5062 -12.5057
   -12.4984 -12.4982 -12.4915 -12.4912 -12.4900 -12.4895 -12.4173 -12.4172
   -11.4030 -11.4019 -11.3526 -11.3513 -11.2665 -11.2652 -11.2401 -11.2387
   -11.1987 -11.1964 -11.1548 -11.1539 -11.0902 -11.0892 -11.0740 -11.0724
   -11.0458 -11.0436 -11.0259 -11.0217 -11.0151 -11.0139 -10.9886 -10.9885
   -10.9758 -10.9736 -10.9192 -10.9180 -10.8911 -10.8897 -10.8600 -10.8569
   -10.8156 -10.8148 -10.7885 -10.7869 -10.7570 -10.7556 -10.6852 -10.6844
   -10.6390 -10.6384 -10.6296 -10.6292 -10.5860 -10.5850 -10.5395 -10.5390
    -6.0981  -6.0980  -6.0136  -6.0132  -5.9771  -5.9767  -5.9722  -5.9719
    -5.9418  -5.9413  -5.9352  -5.9350  -5.7959  -5.7956  -5.7737  -5.7733
    -5.2417  -5.2405  -4.9453  -4.9449  -4.9213  -4.9201  -4.7804  -4.7790
    -4.6115  -4.6088  -4.5089  -4.5067  -4.4972  -4.4963  -4.4769  -4.4739
    -4.4410  -4.4392  -4.4154  -4.4132  -4.3981  -4.3931  -4.3860  -4.3822
    -4.3774  -4.3744  -4.3658  -4.3647  -4.3574  -4.3559  -4.3491  -4.3486
    -4.3429  -4.3413  -4.3203  -4.3187  -4.3143  -4.3129  -4.2171  -4.2159
    -4.1946  -4.1912  -4.1877  -4.1856  -4.1769  -4.1766  -4.1150  -4.1103
    -0.8834  -0.8254  -0.7671  -0.7383  -0.7092  -0.6856  -0.6706  -0.6445
    -0.6000  -0.5801  -0.5305  -0.5180  -0.5041  -0.4844  -0.4462  -0.4234
    -0.3944  -0.3603  -0.3275  -0.2991  -0.2370  -0.2221  -0.1946  -0.1892
     0.2110   0.2309   0.2846   0.3019   0.3107   0.3207   0.3532   0.3706
     0.3834   0.3981   0.4192   0.4348   0.4440   0.4515   0.4753   0.4877
     0.4981   0.5147   0.5319   0.5486   0.5701   0.5991   0.6360   0.6565
     0.6720   0.6898   0.7116   0.7343   0.7538   0.7665   0.7790   0.7966
     0.8110   0.8273   0.8394   0.8469   0.8593   0.8776   0.8880   0.8993
     0.9090   0.9154   0.9367   0.9443   0.9535   0.9641   0.9666   0.9819
     0.9961   1.0114   1.0152   1.0177   1.0339   1.0446   1.0490   1.0687
     1.0758   1.0890   1.1026   1.1153   1.1243   1.1370   1.1462   1.1659
     1.1750   1.1802   1.1900   1.2023   1.2095   1.2195   1.2226   1.2341
     1.2554   1.2686   1.2779   1.2925   1.3058   1.3142   1.3195   1.3431
     1.3488   1.3603   1.3801   1.3916   1.4068   1.4123   1.4254   1.4315
     1.4423   1.4685   1.4783   1.4867   1.4951   1.5214   1.5259   1.5397
     1.5491   1.5669   1.5787   1.6029   1.6129   1.6292   1.6550   1.6567
     1.6776   1.7010   1.7179   1.7478   1.7813   1.8174   1.8422   1.8756
     1.9778   1.9992   2.0921   2.1195   2.1441   2.1612   2.3570   2.3652
     4.1199   4.1706   4.5090   4.5593   4.6621   4.7050   4.8491   4.8975
     5.1395   5.1704   5.3551   5.4205   5.4656   5.5216   5.5825   5.6346
     5.7316   5.7924   5.8610   5.9037   5.9306   5.9547   6.1180   6.1337
     6.5290   6.5470   6.7345   6.7961   6.9558   7.0403   7.0624   7.1131
     7.1675   7.2012   7.2462   7.2977   7.3247   7.3494   7.5136   7.5567
     7.5982   7.6285   7.6637   7.6732   7.7477   7.7978   7.8186   7.8403
     7.8600   7.8818   7.9333   7.9514   7.9689   7.9985   8.0149   8.0582
     8.0737   8.0952   8.1331   8.1439   8.1966   8.2120   8.2244   8.2473
     8.2761   8.3111   8.3298   8.3485   8.3589   8.3860   8.4135   8.4178
     8.4493   8.4607   8.4753   8.4873   8.5110   8.5273   8.5495   8.5741
     8.5841   8.6075   8.6387   8.6493   8.6664   8.6763   8.6860   8.6964
     8.7212   8.7408   8.7670   8.7752   8.8007   8.8110   8.8371   8.8479
     8.8664   8.8772   8.8878   8.9125   8.9337   8.9464   8.9600   8.9721
     8.9976   9.0146   9.0535   9.0622   9.0830   9.0934   9.1329   9.1527
     9.1579   9.1844   9.2259   9.2436   9.2677   9.2788   9.3201   9.3270
     9.3465   9.3563   9.3899   9.4107   9.4196   9.4328   9.4557   9.4715
     9.4776   9.4909   9.5067   9.5138   9.5366   9.5468   9.5813   9.5937
     9.6211   9.6434   9.6548   9.6750   9.6930   9.7003   9.7267   9.7303
     9.7722   9.7849   9.9604   9.9837

     occupation numbers 
     1.0000   1.0000   1.0000   1.0000   1.0000   1.0000   1.0000   1.0000
     1.0000   1.0000   1.0000   1.0000   1.0000   1.0000   1.0000   1.0000
     1.0000   1.0000   1.0000   1.0000   1.0000   1.0000   1.0000   1.0000
     1.0000   1.0000   1.0000   1.0000   1.0000   1.0000   1.0000   1.0000
     1.0000   1.0000   1.0000   1.0000   1.0000   1.0000   1.0000   1.0000
     1.0000   1.0000   1.0000   1.0000   1.0000   1.0000   1.0000   1.0000
     1.0000   1.0000   1.0000   1.0000   1.0000   1.0000   1.0000   1.0000
     1.0000   1.0000   1.0000   1.0000   1.0000   1.0000   1.0000   1.0000
     1.0000   1.0000   1.0000   1.0000   1.0000   1.0000   1.0000   1.0000
     1.0000   1.0000   1.0000   1.0000   1.0000   1.0000   1.0000   1.0000
     1.0000   1.0000   1.0000   1.0000   1.0000   1.0000   1.0000   1.0000
     1.0000   1.0000   1.0000   1.0000   1.0000   1.0000   1.0000   1.0000
     1.0000   1.0000   1.0000   1.0000   1.0000   1.0000   1.0000   1.0000
     1.0000   1.0000   1.0000   1.0000   1.0000   1.0000   1.0000   1.0000
     1.0000   1.0000   1.0000   1.0000   1.0000   1.0000   1.0000   1.0000
     1.0000   1.0000   1.0000   1.0000   1.0000   1.0000   1.0000   1.0000
     1.0000   1.0000   1.0000   1.0000   1.0000   1.0000   1.0000   1.0000
     1.0000   1.0000   1.0000   1.0000   1.0000   1.0000   1.0000   1.0000
     1.0000   1.0000   1.0000   1.0000   1.0000   1.0000   1.0000   1.0000
     1.0000   1.0000   1.0000   1.0000   1.0000   1.0000   1.0000   1.0000
     1.0000   1.0000   1.0000   1.0000   1.0000   1.0000   1.0000   1.0000
     1.0000   1.0000   1.0000   1.0000   1.0000   1.0000   1.0000   1.0000
     1.0000   1.0000   1.0000   1.0000   1.0000   1.0000   1.0000   1.0000
     1.0000   1.0000   1.0000   1.0000   1.0000   1.0000   1.0000   1.0000
     1.0000   1.0000   1.0000   1.0000   1.0000   1.0000   1.0000   1.0000
     1.0000   1.0000   1.0000   1.0000   1.0000   1.0000   1.0000   1.0000
     1.0000   1.0000   1.0000   1.0000   1.0000   1.0000   1.0000   1.0000
     1.0000   1.0000   1.0000   1.0000   1.0000   1.0000   1.0000   1.0000
     1.0000   1.0000   1.0000   1.0000   1.0000   1.0000   1.0000   1.0000
     1.0000   1.0000   1.0000   1.0000   1.0000   1.0000   1.0000   1.0000
     1.0000   1.0000   1.0000   1.0000   1.0000   1.0000   1.0000   1.0000
     1.0000   1.0000   1.0000   1.0000   1.0000   1.0000   1.0000   1.0000
     1.0000   1.0000   1.0000   1.0000   1.0000   1.0000   1.0000   1.0000
     1.0000   1.0000   1.0000   1.0000   1.0000   1.0000   1.0000   1.0000
     1.0000   1.0000   1.0000   1.0000   1.0000   1.0000   1.0000   1.0000
     1.0000   1.0000   1.0000   1.0000   1.0000   1.0000   1.0000   1.0000
     1.0000   1.0000   1.0000   1.0000   1.0000   1.0000   1.0000   1.0000
     1.0000   1.0000   1.0000   1.0000   1.0000   1.0000   1.0000   1.0000
     1.0000   1.0000   1.0000   1.0000   1.0000   1.0000   1.0000   1.0000
     1.0000   1.0000   1.0000   1.0000   1.0000   1.0000   1.0000   1.0000
     1.0000   1.0000   1.0000   1.0000   1.0000   1.0000   1.0000   1.0000
     1.0000   1.0000   1.0000   1.0000   1.0000   1.0000   1.0000   1.0000
     1.0000   1.0000   1.0000   1.0000   1.0000   1.0000   1.0000   1.0000
     1.0000   1.0000   1.0000   1.0000   1.0000   1.0000   1.0000   1.0000
     0.0000   0.0000   0.0000   0.0000   0.0000   0.0000   0.0000   0.0000
     0.0000   0.0000   0.0000   0.0000   0.0000   0.0000   0.0000   0.0000
     0.0000   0.0000   0.0000   0.0000   0.0000   0.0000   0.0000   0.0000
     0.0000   0.0000   0.0000   0.0000   0.0000   0.0000   0.0000   0.0000
     0.0000   0.0000   0.0000   0.0000   0.0000   0.0000   0.0000   0.0000
     0.0000   0.0000   0.0000   0.0000   0.0000   0.0000   0.0000   0.0000
     0.0000   0.0000   0.0000   0.0000   0.0000   0.0000   0.0000   0.0000
     0.0000   0.0000   0.0000   0.0000   0.0000   0.0000   0.0000   0.0000
     0.0000   0.0000   0.0000   0.0000   0.0000   0.0000   0.0000   0.0000
     0.0000   0.0000   0.0000   0.0000   0.0000   0.0000   0.0000   0.0000
     0.0000   0.0000   0.0000   0.0000   0.0000   0.0000   0.0000   0.0000
     0.0000   0.0000   0.0000   0.0000   0.0000   0.0000   0.0000   0.0000
     0.0000   0.0000   0.0000   0.0000   0.0000   0.0000   0.0000   0.0000
     0.0000   0.0000   0.0000   0.0000   0.0000   0.0000   0.0000   0.0000
     0.0000   0.0000   0.0000   0.0000   0.0000   0.0000   0.0000   0.0000
     0.0000   0.0000   0.0000   0.0000   0.0000   0.0000   0.0000   0.0000
     0.0000   0.0000   0.0000   0.0000   0.0000   0.0000   0.0000   0.0000
     0.0000   0.0000   0.0000   0.0000   0.0000   0.0000   0.0000   0.0000
     0.0000   0.0000   0.0000   0.0000

          k = 0.2500 0.0000 0.5000 ( 73986 PWs)   bands (ev):

   -18.1281 -18.1281 -18.0397 -18.0397 -17.9993 -17.9993 -17.9954 -17.9954
   -17.9651 -17.9651 -17.9608 -17.9608 -17.8047 -17.8047 -17.7796 -17.7796
   -15.3216 -15.3216 -15.3009 -15.3008 -15.2516 -15.2515 -15.2502 -15.2502
   -15.2402 -15.2402 -15.2356 -15.2355 -15.2229 -15.2229 -15.2149 -15.2149
   -15.1849 -15.1848 -15.1674 -15.1674 -15.0948 -15.0948 -15.0876 -15.0876
   -15.0733 -15.0732 -15.0688 -15.0687 -15.0093 -15.0092 -15.0005 -15.0005
   -12.7909 -12.7890 -12.7692 -12.7690 -12.7588 -12.7584 -12.7442 -12.7440
   -12.7270 -12.7265 -12.7262 -12.7249 -12.7163 -12.7142 -12.6983 -12.6981
   -12.6836 -12.6831 -12.6575 -12.6573 -12.6570 -12.6565 -12.6477 -12.6463
   -12.6419 -12.6416 -12.6336 -12.6335 -12.5936 -12.5929 -12.5899 -12.5899
   -12.5686 -12.5680 -12.5604 -12.5598 -12.5407 -12.5392 -12.5073 -12.5069
   -12.4983 -12.4982 -12.4923 -12.4919 -12.4906 -12.4902 -12.4173 -12.4172
   -11.3906 -11.3901 -11.3689 -11.3685 -11.2700 -11.2685 -11.2353 -11.2345
   -11.2015 -11.1991 -11.1582 -11.1567 -11.0871 -11.0866 -11.0652 -11.0627
   -11.0502 -11.0479 -11.0305 -11.0254 -11.0082 -11.0068 -10.9884 -10.9874
   -10.9701 -10.9673 -10.9272 -10.9259 -10.8901 -10.8900 -10.8603 -10.8574
   -10.8054 -10.8047 -10.7851 -10.7840 -10.7594 -10.7583 -10.6870 -10.6864
   -10.6416 -10.6413 -10.6183 -10.6177 -10.5980 -10.5969 -10.5430 -10.5429
    -6.0981  -6.0979  -6.0135  -6.0132  -5.9768  -5.9766  -5.9722  -5.9720
    -5.9420  -5.9416  -5.9352  -5.9351  -5.7959  -5.7957  -5.7735  -5.7734
    -5.1007  -5.1001  -5.0855  -5.0846  -4.8116  -4.8107  -4.7927  -4.7915
    -4.6396  -4.6393  -4.5927  -4.5902  -4.5018  -4.5008  -4.4815  -4.4798
    -4.4235  -4.4177  -4.4057  -4.3978  -4.3914  -4.3891  -4.3803  -4.3786
    -4.3725  -4.3674  -4.3619  -4.3616  -4.3545  -4.3525  -4.3471  -4.3456
    -4.3263  -4.3239  -4.3202  -4.3158  -4.3054  -4.3015  -4.2786  -4.2760
    -4.2132  -4.2128  -4.1874  -4.1870  -4.1841  -4.1823  -4.1740  -4.1723
    -0.8100  -0.7731  -0.7505  -0.7152  -0.6848  -0.6616  -0.6222  -0.5783
    -0.5503  -0.5243  -0.5174  -0.5115  -0.3867  -0.3731  -0.3233  -0.3052
    -0.2291  -0.2142  -0.0935  -0.0745  -0.0493  -0.0449  -0.0203  -0.0144
     0.0373   0.0446   0.1597   0.1685   0.2334   0.2506   0.2620   0.2915
     0.3239   0.3296   0.3454   0.3552   0.3746   0.3946   0.4036   0.4179
     0.4270   0.4620   0.4830   0.5049   0.5296   0.5516   0.5905   0.6168
     0.6430   0.6652   0.6869   0.7136   0.7228   0.7400   0.7502   0.7771
     0.7943   0.7987   0.8084   0.8316   0.8419   0.8500   0.8685   0.8839
     0.8893   0.9078   0.9155   0.9267   0.9374   0.9462   0.9627   0.9775
     0.9847   0.9990   1.0139   1.0284   1.0338   1.0428   1.0545   1.0691
     1.0735   1.0975   1.1024   1.1085   1.1122   1.1260   1.1428   1.1518
     1.1646   1.1804   1.1841   1.1947   1.2102   1.2237   1.2278   1.2403
     1.2561   1.2663   1.2768   1.2933   1.3000   1.3155   1.3341   1.3440
     1.3525   1.3659   1.3708   1.3883   1.3970   1.4064   1.4242   1.4337
     1.4431   1.4553   1.4790   1.4896   1.5003   1.5082   1.5276   1.5337
     1.5385   1.5558   1.5703   1.5946   1.6137   1.6332   1.6454   1.6705
     1.6768   1.6856   1.7056   1.7243   1.7417   1.7625   1.8310   1.8409
     1.9350   1.9588   1.9786   2.0023   2.1864   2.1964   2.2111   2.2339
     4.3142   4.3248   4.5036   4.5452   4.8270   4.8387   4.8992   4.9475
     5.2206   5.2435   5.3034   5.3811   5.6098   5.6249   5.7704   5.7952
     6.0280   6.0619   6.1351   6.2112   6.3936   6.4175   6.4454   6.5014
     6.5293   6.5477   6.5922   6.6251   6.6778   6.7229   6.7774   6.7991
     7.0320   7.0606   7.0947   7.1207   7.2675   7.3072   7.3586   7.3817
     7.5031   7.5527   7.5742   7.6538   7.6862   7.7062   7.7618   7.8175
     7.8784   7.9036   7.9327   7.9388   7.9588   7.9797   8.0058   8.0210
     8.0360   8.0525   8.0760   8.0937   8.1300   8.1490   8.1773   8.2092
     8.2272   8.2373   8.2762   8.2989   8.3495   8.3612   8.3913   8.4090
     8.4244   8.4411   8.4675   8.4799   8.5013   8.5108   8.5324   8.5502
     8.5738   8.5827   8.5991   8.6304   8.6446   8.6670   8.6776   8.6860
     8.7031   8.7292   8.7493   8.7709   8.7827   8.8000   8.8204   8.8440
     8.8579   8.8823   8.9060   8.9237   8.9574   8.9692   8.9849   9.0152
     9.0231   9.0336   9.0542   9.0690   9.0821   9.0919   9.1193   9.1296
     9.1493   9.1641   9.1896   9.2021   9.2301   9.2457   9.2904   9.3117
     9.3286   9.3367   9.3526   9.3647   9.3715   9.3854   9.4201   9.4269
     9.4590   9.4737   9.4839   9.4934   9.5212   9.5369   9.5629   9.5713
     9.5920   9.6085   9.6311   9.6386   9.6954   9.7067   9.7346   9.7405
     9.8088   9.8195   9.9054   9.9187

     occupation numbers 
     1.0000   1.0000   1.0000   1.0000   1.0000   1.0000   1.0000   1.0000
     1.0000   1.0000   1.0000   1.0000   1.0000   1.0000   1.0000   1.0000
     1.0000   1.0000   1.0000   1.0000   1.0000   1.0000   1.0000   1.0000
     1.0000   1.0000   1.0000   1.0000   1.0000   1.0000   1.0000   1.0000
     1.0000   1.0000   1.0000   1.0000   1.0000   1.0000   1.0000   1.0000
     1.0000   1.0000   1.0000   1.0000   1.0000   1.0000   1.0000   1.0000
     1.0000   1.0000   1.0000   1.0000   1.0000   1.0000   1.0000   1.0000
     1.0000   1.0000   1.0000   1.0000   1.0000   1.0000   1.0000   1.0000
     1.0000   1.0000   1.0000   1.0000   1.0000   1.0000   1.0000   1.0000
     1.0000   1.0000   1.0000   1.0000   1.0000   1.0000   1.0000   1.0000
     1.0000   1.0000   1.0000   1.0000   1.0000   1.0000   1.0000   1.0000
     1.0000   1.0000   1.0000   1.0000   1.0000   1.0000   1.0000   1.0000
     1.0000   1.0000   1.0000   1.0000   1.0000   1.0000   1.0000   1.0000
     1.0000   1.0000   1.0000   1.0000   1.0000   1.0000   1.0000   1.0000
     1.0000   1.0000   1.0000   1.0000   1.0000   1.0000   1.0000   1.0000
     1.0000   1.0000   1.0000   1.0000   1.0000   1.0000   1.0000   1.0000
     1.0000   1.0000   1.0000   1.0000   1.0000   1.0000   1.0000   1.0000
     1.0000   1.0000   1.0000   1.0000   1.0000   1.0000   1.0000   1.0000
     1.0000   1.0000   1.0000   1.0000   1.0000   1.0000   1.0000   1.0000
     1.0000   1.0000   1.0000   1.0000   1.0000   1.0000   1.0000   1.0000
     1.0000   1.0000   1.0000   1.0000   1.0000   1.0000   1.0000   1.0000
     1.0000   1.0000   1.0000   1.0000   1.0000   1.0000   1.0000   1.0000
     1.0000   1.0000   1.0000   1.0000   1.0000   1.0000   1.0000   1.0000
     1.0000   1.0000   1.0000   1.0000   1.0000   1.0000   1.0000   1.0000
     1.0000   1.0000   1.0000   1.0000   1.0000   1.0000   1.0000   1.0000
     1.0000   1.0000   1.0000   1.0000   1.0000   1.0000   1.0000   1.0000
     1.0000   1.0000   1.0000   1.0000   1.0000   1.0000   1.0000   1.0000
     1.0000   1.0000   1.0000   1.0000   1.0000   1.0000   1.0000   1.0000
     1.0000   1.0000   1.0000   1.0000   1.0000   1.0000   1.0000   1.0000
     1.0000   1.0000   1.0000   1.0000   1.0000   1.0000   1.0000   1.0000
     1.0000   1.0000   1.0000   1.0000   1.0000   1.0000   1.0000   1.0000
     1.0000   1.0000   1.0000   1.0000   1.0000   1.0000   1.0000   1.0000
     1.0000   1.0000   1.0000   1.0000   1.0000   1.0000   1.0000   1.0000
     1.0000   1.0000   1.0000   1.0000   1.0000   1.0000   1.0000   1.0000
     1.0000   1.0000   1.0000   1.0000   1.0000   1.0000   1.0000   1.0000
     1.0000   1.0000   1.0000   1.0000   1.0000   1.0000   1.0000   1.0000
     1.0000   1.0000   1.0000   1.0000   1.0000   1.0000   1.0000   1.0000
     1.0000   1.0000   1.0000   1.0000   1.0000   1.0000   1.0000   1.0000
     1.0000   1.0000   1.0000   1.0000   1.0000   1.0000   1.0000   1.0000
     1.0000   1.0000   1.0000   1.0000   1.0000   1.0000   1.0000   1.0000
     1.0000   1.0000   1.0000   1.0000   1.0000   1.0000   1.0000   1.0000
     1.0000   1.0000   1.0000   1.0000   1.0000   1.0000   1.0000   1.0000
     1.0000   1.0000   1.0000   1.0000   1.0000   1.0000   1.0000   1.0000
     1.0000   1.0000   1.0000   1.0000   1.0000   1.0000   1.0000   1.0000
     0.0000   0.0000   0.0000   0.0000   0.0000   0.0000   0.0000   0.0000
     0.0000   0.0000   0.0000   0.0000   0.0000   0.0000   0.0000   0.0000
     0.0000   0.0000   0.0000   0.0000   0.0000   0.0000   0.0000   0.0000
     0.0000   0.0000   0.0000   0.0000   0.0000   0.0000   0.0000   0.0000
     0.0000   0.0000   0.0000   0.0000   0.0000   0.0000   0.0000   0.0000
     0.0000   0.0000   0.0000   0.0000   0.0000   0.0000   0.0000   0.0000
     0.0000   0.0000   0.0000   0.0000   0.0000   0.0000   0.0000   0.0000
     0.0000   0.0000   0.0000   0.0000   0.0000   0.0000   0.0000   0.0000
     0.0000   0.0000   0.0000   0.0000   0.0000   0.0000   0.0000   0.0000
     0.0000   0.0000   0.0000   0.0000   0.0000   0.0000   0.0000   0.0000
     0.0000   0.0000   0.0000   0.0000   0.0000   0.0000   0.0000   0.0000
     0.0000   0.0000   0.0000   0.0000   0.0000   0.0000   0.0000   0.0000
     0.0000   0.0000   0.0000   0.0000   0.0000   0.0000   0.0000   0.0000
     0.0000   0.0000   0.0000   0.0000   0.0000   0.0000   0.0000   0.0000
     0.0000   0.0000   0.0000   0.0000   0.0000   0.0000   0.0000   0.0000
     0.0000   0.0000   0.0000   0.0000   0.0000   0.0000   0.0000   0.0000
     0.0000   0.0000   0.0000   0.0000   0.0000   0.0000   0.0000   0.0000
     0.0000   0.0000   0.0000   0.0000   0.0000   0.0000   0.0000   0.0000
     0.0000   0.0000   0.0000   0.0000

          k = 0.2500 0.0000 0.7500 ( 73903 PWs)   bands (ev):

   -18.1281 -18.1281 -18.0397 -18.0397 -17.9993 -17.9993 -17.9954 -17.9954
   -17.9651 -17.9651 -17.9608 -17.9608 -17.8047 -17.8047 -17.7796 -17.7796
   -15.3216 -15.3216 -15.3009 -15.3008 -15.2532 -15.2525 -15.2495 -15.2489
   -15.2402 -15.2401 -15.2353 -15.2352 -15.2229 -15.2229 -15.2149 -15.2149
   -15.1848 -15.1848 -15.1674 -15.1674 -15.0949 -15.0948 -15.0876 -15.0876
   -15.0734 -15.0733 -15.0688 -15.0687 -15.0092 -15.0092 -15.0005 -15.0005
   -12.7916 -12.7898 -12.7730 -12.7703 -12.7695 -12.7681 -12.7351 -12.7319
   -12.7271 -12.7266 -12.7240 -12.7227 -12.7161 -12.7141 -12.6988 -12.6985
   -12.6841 -12.6836 -12.6575 -12.6573 -12.6570 -12.6563 -12.6467 -12.6456
   -12.6415 -12.6411 -12.6336 -12.6335 -12.5933 -12.5925 -12.5900 -12.5898
   -12.5686 -12.5682 -12.5618 -12.5611 -12.5404 -12.5388 -12.5061 -12.5058
   -12.4984 -12.4982 -12.4914 -12.4911 -12.4901 -12.4894 -12.4173 -12.4172
   -11.4054 -11.4041 -11.3459 -11.3447 -11.2798 -11.2784 -11.2219 -11.2205
   -11.2030 -11.2009 -11.1633 -11.1619 -11.0909 -11.0890 -11.0755 -11.0723
   -11.0506 -11.0483 -11.0265 -11.0222 -11.0036 -11.0027 -10.9881 -10.9869
   -10.9698 -10.9669 -10.9260 -10.9245 -10.8940 -10.8931 -10.8607 -10.8576
   -10.8147 -10.8146 -10.7868 -10.7856 -10.7572 -10.7562 -10.6877 -10.6869
   -10.6415 -10.6412 -10.6218 -10.6211 -10.5888 -10.5882 -10.5396 -10.5390
    -6.0981  -6.0979  -6.0137  -6.0132  -5.9771  -5.9767  -5.9722  -5.9719
    -5.9417  -5.9414  -5.9351  -5.9350  -5.7958  -5.7957  -5.7737  -5.7733
    -5.2404  -5.2401  -4.9496  -4.9484  -4.9197  -4.9193  -4.7800  -4.7780
    -4.6065  -4.6037  -4.5178  -4.5110  -4.4987  -4.4914  -4.4764  -4.4689
    -4.4418  -4.4407  -4.4175  -4.4134  -4.3985  -4.3942  -4.3847  -4.3824
    -4.3782  -4.3751  -4.3676  -4.3642  -4.3584  -4.3555  -4.3505  -4.3473
    -4.3425  -4.3420  -4.3208  -4.3190  -4.3140  -4.3121  -4.2164  -4.2150
    -4.1922  -4.1885  -4.1871  -4.1851  -4.1776  -4.1760  -4.1153  -4.1121
    -0.9069  -0.8207  -0.7892  -0.7285  -0.7081  -0.7019  -0.6656  -0.6539
    -0.5753  -0.5531  -0.5317  -0.5164  -0.4839  -0.4575  -0.4358  -0.4248
    -0.3939  -0.3841  -0.3681  -0.3491  -0.2120  -0.2010  -0.1819  -0.1564
     0.1878   0.2496   0.2699   0.2882   0.3108   0.3236   0.3471   0.3657
     0.3877   0.3967   0.4084   0.4400   0.4490   0.4545   0.4651   0.4761
     0.4978   0.5209   0.5400   0.5459   0.5756   0.6084   0.6366   0.6709
     0.6775   0.6989   0.7126   0.7325   0.7508   0.7631   0.7769   0.7894
     0.7960   0.8305   0.8352   0.8466   0.8587   0.8639   0.8836   0.9019
     0.9062   0.9112   0.9304   0.9413   0.9514   0.9650   0.9753   0.9884
     0.9988   1.0060   1.0147   1.0232   1.0417   1.0543   1.0636   1.0692
     1.0822   1.0886   1.1075   1.1100   1.1235   1.1344   1.1447   1.1592
     1.1639   1.1732   1.1809   1.2037   1.2151   1.2186   1.2244   1.2440
     1.2562   1.2732   1.2850   1.2916   1.3057   1.3114   1.3190   1.3356
     1.3510   1.3614   1.3821   1.3874   1.3987   1.4058   1.4129   1.4354
     1.4464   1.4569   1.4665   1.4847   1.5072   1.5137   1.5333   1.5414
     1.5567   1.5696   1.5797   1.6109   1.6137   1.6233   1.6461   1.6550
     1.6768   1.6924   1.7187   1.7428   1.8056   1.8262   1.8352   1.8888
     1.9572   2.0077   2.0704   2.1051   2.1551   2.1976   2.3548   2.3726
     4.1276   4.1682   4.5022   4.5614   4.6482   4.7035   4.8673   4.8841
     5.1163   5.1913   5.3682   5.3969   5.4682   5.5182   5.5720   5.6396
     5.7351   5.8191   5.8540   5.9037   5.9264   5.9583   6.1015   6.1578
     6.5271   6.5615   6.7327   6.7802   6.9661   7.0246   7.0615   7.0914
     7.1776   7.2151   7.2498   7.2724   7.3018   7.3574   7.5125   7.5806
     7.6425   7.6684   7.6751   7.7161   7.7293   7.7629   7.7905   7.8352
     7.8616   7.8847   7.9030   7.9180   7.9649   7.9939   8.0286   8.0445
     8.0715   8.0968   8.1338   8.1780   8.1909   8.2123   8.2495   8.2677
     8.2909   8.3065   8.3275   8.3418   8.3592   8.3688   8.4030   8.4288
     8.4401   8.4621   8.4784   8.4908   8.5249   8.5435   8.5641   8.5778
     8.5829   8.5925   8.6020   8.6094   8.6295   8.6516   8.6612   8.7134
     8.7304   8.7518   8.7681   8.7835   8.8035   8.8103   8.8228   8.8330
     8.8579   8.8696   8.9126   8.9271   8.9399   8.9583   8.9714   8.9919
     9.0187   9.0376   9.0497   9.0753   9.1038   9.1129   9.1411   9.1525
     9.1555   9.1650   9.2007   9.2218   9.2550   9.2665   9.2757   9.3126
     9.3253   9.3525   9.3578   9.3733   9.4031   9.4127   9.4564   9.4667
     9.4829   9.5032   9.5171   9.5281   9.5661   9.5855   9.6022   9.6219
     9.6371   9.6538   9.6638   9.6813   9.7113   9.7381   9.7496   9.7521
     9.7900   9.8106   9.8834   9.9034

     occupation numbers 
     1.0000   1.0000   1.0000   1.0000   1.0000   1.0000   1.0000   1.0000
     1.0000   1.0000   1.0000   1.0000   1.0000   1.0000   1.0000   1.0000
     1.0000   1.0000   1.0000   1.0000   1.0000   1.0000   1.0000   1.0000
     1.0000   1.0000   1.0000   1.0000   1.0000   1.0000   1.0000   1.0000
     1.0000   1.0000   1.0000   1.0000   1.0000   1.0000   1.0000   1.0000
     1.0000   1.0000   1.0000   1.0000   1.0000   1.0000   1.0000   1.0000
     1.0000   1.0000   1.0000   1.0000   1.0000   1.0000   1.0000   1.0000
     1.0000   1.0000   1.0000   1.0000   1.0000   1.0000   1.0000   1.0000
     1.0000   1.0000   1.0000   1.0000   1.0000   1.0000   1.0000   1.0000
     1.0000   1.0000   1.0000   1.0000   1.0000   1.0000   1.0000   1.0000
     1.0000   1.0000   1.0000   1.0000   1.0000   1.0000   1.0000   1.0000
     1.0000   1.0000   1.0000   1.0000   1.0000   1.0000   1.0000   1.0000
     1.0000   1.0000   1.0000   1.0000   1.0000   1.0000   1.0000   1.0000
     1.0000   1.0000   1.0000   1.0000   1.0000   1.0000   1.0000   1.0000
     1.0000   1.0000   1.0000   1.0000   1.0000   1.0000   1.0000   1.0000
     1.0000   1.0000   1.0000   1.0000   1.0000   1.0000   1.0000   1.0000
     1.0000   1.0000   1.0000   1.0000   1.0000   1.0000   1.0000   1.0000
     1.0000   1.0000   1.0000   1.0000   1.0000   1.0000   1.0000   1.0000
     1.0000   1.0000   1.0000   1.0000   1.0000   1.0000   1.0000   1.0000
     1.0000   1.0000   1.0000   1.0000   1.0000   1.0000   1.0000   1.0000
     1.0000   1.0000   1.0000   1.0000   1.0000   1.0000   1.0000   1.0000
     1.0000   1.0000   1.0000   1.0000   1.0000   1.0000   1.0000   1.0000
     1.0000   1.0000   1.0000   1.0000   1.0000   1.0000   1.0000   1.0000
     1.0000   1.0000   1.0000   1.0000   1.0000   1.0000   1.0000   1.0000
     1.0000   1.0000   1.0000   1.0000   1.0000   1.0000   1.0000   1.0000
     1.0000   1.0000   1.0000   1.0000   1.0000   1.0000   1.0000   1.0000
     1.0000   1.0000   1.0000   1.0000   1.0000   1.0000   1.0000   1.0000
     1.0000   1.0000   1.0000   1.0000   1.0000   1.0000   1.0000   1.0000
     1.0000   1.0000   1.0000   1.0000   1.0000   1.0000   1.0000   1.0000
     1.0000   1.0000   1.0000   1.0000   1.0000   1.0000   1.0000   1.0000
     1.0000   1.0000   1.0000   1.0000   1.0000   1.0000   1.0000   1.0000
     1.0000   1.0000   1.0000   1.0000   1.0000   1.0000   1.0000   1.0000
     1.0000   1.0000   1.0000   1.0000   1.0000   1.0000   1.0000   1.0000
     1.0000   1.0000   1.0000   1.0000   1.0000   1.0000   1.0000   1.0000
     1.0000   1.0000   1.0000   1.0000   1.0000   1.0000   1.0000   1.0000
     1.0000   1.0000   1.0000   1.0000   1.0000   1.0000   1.0000   1.0000
     1.0000   1.0000   1.0000   1.0000   1.0000   1.0000   1.0000   1.0000
     1.0000   1.0000   1.0000   1.0000   1.0000   1.0000   1.0000   1.0000
     1.0000   1.0000   1.0000   1.0000   1.0000   1.0000   1.0000   1.0000
     1.0000   1.0000   1.0000   1.0000   1.0000   1.0000   1.0000   1.0000
     1.0000   1.0000   1.0000   1.0000   1.0000   1.0000   1.0000   1.0000
     1.0000   1.0000   1.0000   1.0000   1.0000   1.0000   1.0000   1.0000
     1.0000   1.0000   1.0000   1.0000   1.0000   1.0000   1.0000   1.0000
     1.0000   1.0000   1.0000   1.0000   1.0000   1.0000   1.0000   1.0000
     0.0000   0.0000   0.0000   0.0000   0.0000   0.0000   0.0000   0.0000
     0.0000   0.0000   0.0000   0.0000   0.0000   0.0000   0.0000   0.0000
     0.0000   0.0000   0.0000   0.0000   0.0000   0.0000   0.0000   0.0000
     0.0000   0.0000   0.0000   0.0000   0.0000   0.0000   0.0000   0.0000
     0.0000   0.0000   0.0000   0.0000   0.0000   0.0000   0.0000   0.0000
     0.0000   0.0000   0.0000   0.0000   0.0000   0.0000   0.0000   0.0000
     0.0000   0.0000   0.0000   0.0000   0.0000   0.0000   0.0000   0.0000
     0.0000   0.0000   0.0000   0.0000   0.0000   0.0000   0.0000   0.0000
     0.0000   0.0000   0.0000   0.0000   0.0000   0.0000   0.0000   0.0000
     0.0000   0.0000   0.0000   0.0000   0.0000   0.0000   0.0000   0.0000
     0.0000   0.0000   0.0000   0.0000   0.0000   0.0000   0.0000   0.0000
     0.0000   0.0000   0.0000   0.0000   0.0000   0.0000   0.0000   0.0000
     0.0000   0.0000   0.0000   0.0000   0.0000   0.0000   0.0000   0.0000
     0.0000   0.0000   0.0000   0.0000   0.0000   0.0000   0.0000   0.0000
     0.0000   0.0000   0.0000   0.0000   0.0000   0.0000   0.0000   0.0000
     0.0000   0.0000   0.0000   0.0000   0.0000   0.0000   0.0000   0.0000
     0.0000   0.0000   0.0000   0.0000   0.0000   0.0000   0.0000   0.0000
     0.0000   0.0000   0.0000   0.0000   0.0000   0.0000   0.0000   0.0000
     0.0000   0.0000   0.0000   0.0000

          k = 0.2500 0.2500 0.0000 ( 73903 PWs)   bands (ev):

   -18.1281 -18.1281 -18.0397 -18.0397 -17.9993 -17.9993 -17.9954 -17.9954
   -17.9651 -17.9651 -17.9608 -17.9608 -17.8047 -17.8047 -17.7796 -17.7796
   -15.3216 -15.3216 -15.3009 -15.3009 -15.2537 -15.2537 -15.2487 -15.2487
   -15.2401 -15.2401 -15.2350 -15.2349 -15.2229 -15.2228 -15.2149 -15.2149
   -15.1849 -15.1848 -15.1675 -15.1674 -15.0949 -15.0948 -15.0876 -15.0876
   -15.0734 -15.0733 -15.0688 -15.0686 -15.0092 -15.0092 -15.0005 -15.0005
   -12.7925 -12.7908 -12.7775 -12.7774 -12.7704 -12.7700 -12.7303 -12.7293
   -12.7270 -12.7264 -12.7195 -12.7189 -12.7145 -12.7125 -12.6967 -12.6958
   -12.6835 -12.6829 -12.6577 -12.6574 -12.6568 -12.6565 -12.6480 -12.6471
   -12.6430 -12.6425 -12.6337 -12.6336 -12.5938 -12.5924 -12.5900 -12.5899
   -12.5704 -12.5697 -12.5630 -12.5622 -12.5398 -12.5386 -12.5060 -12.5052
   -12.4986 -12.4983 -12.4911 -12.4911 -12.4887 -12.4884 -12.4173 -12.4172
   -11.4089 -11.4084 -11.3342 -11.3338 -11.2675 -11.2667 -11.2431 -11.2419
   -11.2044 -11.2025 -11.1677 -11.1662 -11.1028 -11.1013 -11.0817 -11.0781
   -11.0465 -11.0443 -11.0234 -11.0211 -11.0088 -11.0063 -10.9754 -10.9734
   -10.9531 -10.9500 -10.9154 -10.9137 -10.8923 -10.8909 -10.8564 -10.8534
   -10.8355 -10.8337 -10.7884 -10.7869 -10.7628 -10.7615 -10.6827 -10.6823
   -10.6477 -10.6472 -10.6237 -10.6231 -10.5818 -10.5811 -10.5399 -10.5394
    -6.0981  -6.0980  -6.0137  -6.0133  -5.9768  -5.9765  -5.9725  -5.9722
    -5.9424  -5.9393  -5.9371  -5.9341  -5.7960  -5.7958  -5.7736  -5.7734
    -5.2528  -5.2519  -4.9633  -4.9627  -4.8784  -4.8777  -4.7974  -4.7962
    -4.5997  -4.5980  -4.5152  -4.5122  -4.4954  -4.4933  -4.4804  -4.4758
    -4.4467  -4.4373  -4.4200  -4.4097  -4.3958  -4.3899  -4.3851  -4.3821
    -4.3774  -4.3755  -4.3650  -4.3628  -4.3570  -4.3564  -4.3503  -4.3477
    -4.3420  -4.3390  -4.3204  -4.3176  -4.3148  -4.3135  -4.2181  -4.2163
    -4.1924  -4.1898  -4.1880  -4.1864  -4.1781  -4.1760  -4.1111  -4.1076
    -1.0335  -0.9866  -0.7219  -0.7013  -0.6727  -0.6311  -0.6115  -0.5843
    -0.5714  -0.5644  -0.5409  -0.5257  -0.4997  -0.4684  -0.4410  -0.4211
    -0.4075  -0.3891  -0.3354  -0.3246  -0.2695  -0.2346  -0.1968  -0.1820
     0.2158   0.2506   0.2626   0.2812   0.3033   0.3282   0.3485   0.3550
     0.3818   0.4081   0.4251   0.4421   0.4561   0.4674   0.4795   0.4903
     0.5094   0.5243   0.5326   0.5692   0.5881   0.5971   0.6387   0.6722
     0.6881   0.7034   0.7123   0.7327   0.7426   0.7663   0.7766   0.7926
     0.8029   0.8210   0.8387   0.8475   0.8615   0.8705   0.8837   0.8898
     0.9043   0.9225   0.9377   0.9447   0.9502   0.9612   0.9714   0.9820
     0.9966   1.0132   1.0199   1.0291   1.0427   1.0527   1.0570   1.0720
     1.0811   1.0916   1.0975   1.1116   1.1205   1.1354   1.1487   1.1556
     1.1694   1.1804   1.1911   1.2012   1.2100   1.2223   1.2317   1.2415
     1.2557   1.2638   1.2815   1.2908   1.2942   1.3042   1.3231   1.3259
     1.3534   1.3605   1.3706   1.3752   1.3884   1.4090   1.4257   1.4345
     1.4462   1.4643   1.4727   1.4883   1.4926   1.5116   1.5312   1.5468
     1.5578   1.5677   1.5745   1.5990   1.6117   1.6313   1.6450   1.6614
     1.6809   1.6976   1.7311   1.7507   1.7897   1.8134   1.8905   1.9116
     1.9809   2.0174   2.0420   2.0934   2.1556   2.1957   2.3413   2.3621
     4.1024   4.2446   4.5148   4.5526   4.6305   4.6805   4.8379   4.9625
     5.1416   5.1894   5.3515   5.4069   5.4300   5.5292   5.5764   5.6232
     5.7031   5.7434   5.8066   5.8649   5.9358   5.9564   6.0425   6.1462
     6.4924   6.5638   6.7497   6.7610   6.9230   7.0052   7.0548   7.0743
     7.1585   7.1769   7.2124   7.2948   7.3576   7.4003   7.5443   7.5812
     7.6170   7.6794   7.7129   7.7269   7.7358   7.7867   7.8058   7.8358
     7.8708   7.8914   7.9153   7.9465   7.9760   8.0120   8.0344   8.0616
     8.0813   8.1109   8.1248   8.1648   8.1831   8.2142   8.2360   8.2533
     8.2761   8.2984   8.3280   8.3333   8.3501   8.3775   8.3948   8.4093
     8.4369   8.4632   8.4829   8.5073   8.5308   8.5576   8.5694   8.5989
     8.6103   8.6325   8.6438   8.6577   8.6756   8.6842   8.6926   8.7069
     8.7352   8.7467   8.7606   8.7797   8.7923   8.8233   8.8313   8.8409
     8.8604   8.8659   8.9075   8.9331   8.9469   8.9575   8.9723   8.9857
     9.0045   9.0211   9.0362   9.0646   9.1046   9.1169   9.1526   9.1737
     9.1761   9.1981   9.2060   9.2123   9.2766   9.2905   9.3056   9.3160
     9.3415   9.3496   9.3722   9.3856   9.4216   9.4333   9.4339   9.4518
     9.4676   9.4848   9.4971   9.5073   9.5322   9.5408   9.5606   9.5641
     9.5943   9.6076   9.6631   9.6702   9.6983   9.7082   9.7370   9.7624
     9.8422   9.8547   9.9393   9.9504

     occupation numbers 
     1.0000   1.0000   1.0000   1.0000   1.0000   1.0000   1.0000   1.0000
     1.0000   1.0000   1.0000   1.0000   1.0000   1.0000   1.0000   1.0000
     1.0000   1.0000   1.0000   1.0000   1.0000   1.0000   1.0000   1.0000
     1.0000   1.0000   1.0000   1.0000   1.0000   1.0000   1.0000   1.0000
     1.0000   1.0000   1.0000   1.0000   1.0000   1.0000   1.0000   1.0000
     1.0000   1.0000   1.0000   1.0000   1.0000   1.0000   1.0000   1.0000
     1.0000   1.0000   1.0000   1.0000   1.0000   1.0000   1.0000   1.0000
     1.0000   1.0000   1.0000   1.0000   1.0000   1.0000   1.0000   1.0000
     1.0000   1.0000   1.0000   1.0000   1.0000   1.0000   1.0000   1.0000
     1.0000   1.0000   1.0000   1.0000   1.0000   1.0000   1.0000   1.0000
     1.0000   1.0000   1.0000   1.0000   1.0000   1.0000   1.0000   1.0000
     1.0000   1.0000   1.0000   1.0000   1.0000   1.0000   1.0000   1.0000
     1.0000   1.0000   1.0000   1.0000   1.0000   1.0000   1.0000   1.0000
     1.0000   1.0000   1.0000   1.0000   1.0000   1.0000   1.0000   1.0000
     1.0000   1.0000   1.0000   1.0000   1.0000   1.0000   1.0000   1.0000
     1.0000   1.0000   1.0000   1.0000   1.0000   1.0000   1.0000   1.0000
     1.0000   1.0000   1.0000   1.0000   1.0000   1.0000   1.0000   1.0000
     1.0000   1.0000   1.0000   1.0000   1.0000   1.0000   1.0000   1.0000
     1.0000   1.0000   1.0000   1.0000   1.0000   1.0000   1.0000   1.0000
     1.0000   1.0000   1.0000   1.0000   1.0000   1.0000   1.0000   1.0000
     1.0000   1.0000   1.0000   1.0000   1.0000   1.0000   1.0000   1.0000
     1.0000   1.0000   1.0000   1.0000   1.0000   1.0000   1.0000   1.0000
     1.0000   1.0000   1.0000   1.0000   1.0000   1.0000   1.0000   1.0000
     1.0000   1.0000   1.0000   1.0000   1.0000   1.0000   1.0000   1.0000
     1.0000   1.0000   1.0000   1.0000   1.0000   1.0000   1.0000   1.0000
     1.0000   1.0000   1.0000   1.0000   1.0000   1.0000   1.0000   1.0000
     1.0000   1.0000   1.0000   1.0000   1.0000   1.0000   1.0000   1.0000
     1.0000   1.0000   1.0000   1.0000   1.0000   1.0000   1.0000   1.0000
     1.0000   1.0000   1.0000   1.0000   1.0000   1.0000   1.0000   1.0000
     1.0000   1.0000   1.0000   1.0000   1.0000   1.0000   1.0000   1.0000
     1.0000   1.0000   1.0000   1.0000   1.0000   1.0000   1.0000   1.0000
     1.0000   1.0000   1.0000   1.0000   1.0000   1.0000   1.0000   1.0000
     1.0000   1.0000   1.0000   1.0000   1.0000   1.0000   1.0000   1.0000
     1.0000   1.0000   1.0000   1.0000   1.0000   1.0000   1.0000   1.0000
     1.0000   1.0000   1.0000   1.0000   1.0000   1.0000   1.0000   1.0000
     1.0000   1.0000   1.0000   1.0000   1.0000   1.0000   1.0000   1.0000
     1.0000   1.0000   1.0000   1.0000   1.0000   1.0000   1.0000   1.0000
     1.0000   1.0000   1.0000   1.0000   1.0000   1.0000   1.0000   1.0000
     1.0000   1.0000   1.0000   1.0000   1.0000   1.0000   1.0000   1.0000
     1.0000   1.0000   1.0000   1.0000   1.0000   1.0000   1.0000   1.0000
     1.0000   1.0000   1.0000   1.0000   1.0000   1.0000   1.0000   1.0000
     1.0000   1.0000   1.0000   1.0000   1.0000   1.0000   1.0000   1.0000
     1.0000   1.0000   1.0000   1.0000   1.0000   1.0000   1.0000   1.0000
     1.0000   1.0000   1.0000   1.0000   1.0000   1.0000   1.0000   1.0000
     0.0000   0.0000   0.0000   0.0000   0.0000   0.0000   0.0000   0.0000
     0.0000   0.0000   0.0000   0.0000   0.0000   0.0000   0.0000   0.0000
     0.0000   0.0000   0.0000   0.0000   0.0000   0.0000   0.0000   0.0000
     0.0000   0.0000   0.0000   0.0000   0.0000   0.0000   0.0000   0.0000
     0.0000   0.0000   0.0000   0.0000   0.0000   0.0000   0.0000   0.0000
     0.0000   0.0000   0.0000   0.0000   0.0000   0.0000   0.0000   0.0000
     0.0000   0.0000   0.0000   0.0000   0.0000   0.0000   0.0000   0.0000
     0.0000   0.0000   0.0000   0.0000   0.0000   0.0000   0.0000   0.0000
     0.0000   0.0000   0.0000   0.0000   0.0000   0.0000   0.0000   0.0000
     0.0000   0.0000   0.0000   0.0000   0.0000   0.0000   0.0000   0.0000
     0.0000   0.0000   0.0000   0.0000   0.0000   0.0000   0.0000   0.0000
     0.0000   0.0000   0.0000   0.0000   0.0000   0.0000   0.0000   0.0000
     0.0000   0.0000   0.0000   0.0000   0.0000   0.0000   0.0000   0.0000
     0.0000   0.0000   0.0000   0.0000   0.0000   0.0000   0.0000   0.0000
     0.0000   0.0000   0.0000   0.0000   0.0000   0.0000   0.0000   0.0000
     0.0000   0.0000   0.0000   0.0000   0.0000   0.0000   0.0000   0.0000
     0.0000   0.0000   0.0000   0.0000   0.0000   0.0000   0.0000   0.0000
     0.0000   0.0000   0.0000   0.0000   0.0000   0.0000   0.0000   0.0000
     0.0000   0.0000   0.0000   0.0000

          k = 0.2500 0.2500 0.2500 ( 73932 PWs)   bands (ev):

   -18.1281 -18.1281 -18.0397 -18.0397 -17.9993 -17.9993 -17.9954 -17.9954
   -17.9651 -17.9651 -17.9608 -17.9608 -17.8047 -17.8047 -17.7796 -17.7796
   -15.3216 -15.3216 -15.3009 -15.3009 -15.2532 -15.2525 -15.2495 -15.2489
   -15.2402 -15.2401 -15.2354 -15.2351 -15.2228 -15.2228 -15.2149 -15.2149
   -15.1849 -15.1848 -15.1675 -15.1675 -15.0949 -15.0948 -15.0876 -15.0876
   -15.0734 -15.0733 -15.0688 -15.0687 -15.0092 -15.0092 -15.0005 -15.0005
   -12.7915 -12.7898 -12.7729 -12.7700 -12.7693 -12.7680 -12.7354 -12.7314
   -12.7269 -12.7264 -12.7236 -12.7222 -12.7154 -12.7128 -12.6962 -12.6949
   -12.6832 -12.6825 -12.6577 -12.6571 -12.6568 -12.6567 -12.6484 -12.6472
   -12.6440 -12.6436 -12.6337 -12.6336 -12.5941 -12.5927 -12.5901 -12.5899
   -12.5701 -12.5693 -12.5620 -12.5611 -12.5403 -12.5391 -12.5069 -12.5061
   -12.4985 -12.4983 -12.4915 -12.4912 -12.4900 -12.4895 -12.4173 -12.4172
   -11.4009 -11.3998 -11.3520 -11.3507 -11.2629 -11.2627 -11.2457 -11.2449
   -11.2019 -11.1999 -11.1698 -11.1681 -11.0985 -11.0973 -11.0705 -11.0686
   -11.0523 -11.0487 -11.0272 -11.0242 -11.0121 -11.0085 -10.9703 -10.9686
   -10.9529 -10.9497 -10.9177 -10.9157 -10.8900 -10.8889 -10.8562 -10.8532
   -10.8276 -10.8264 -10.7855 -10.7839 -10.7649 -10.7634 -10.6838 -10.6831
   -10.6441 -10.6434 -10.6256 -10.6250 -10.5876 -10.5869 -10.5431 -10.5427
    -6.0981  -6.0979  -6.0136  -6.0132  -5.9767  -5.9763  -5.9725  -5.9722
    -5.9426  -5.9395  -5.9372  -5.9342  -5.7960  -5.7957  -5.7737  -5.7733
    -5.1946  -5.1933  -4.9058  -4.9056  -4.8837  -4.8824  -4.8308  -4.8295
    -4.5876  -4.5839  -4.5395  -4.5364  -4.5059  -4.4999  -4.4959  -4.4888
    -4.4772  -4.4763  -4.4200  -4.4143  -4.3997  -4.3940  -4.3878  -4.3839
    -4.3779  -4.3761  -4.3662  -4.3640  -4.3597  -4.3575  -4.3523  -4.3489
    -4.3437  -4.3399  -4.3222  -4.3180  -4.3157  -4.3142  -4.2308  -4.2244
    -4.2067  -4.2016  -4.1883  -4.1862  -4.1832  -4.1774  -4.1682  -4.1584
    -0.8762  -0.7989  -0.6847  -0.6504  -0.6147  -0.5873  -0.5627  -0.5407
    -0.5198  -0.4994  -0.4831  -0.4600  -0.4349  -0.3997  -0.3906  -0.3710
    -0.3493  -0.3272  -0.2985  -0.2834  -0.2271  -0.1991  -0.1917  -0.1750
     0.1955   0.2261   0.2697   0.2772   0.3018   0.3178   0.3316   0.3483
     0.3528   0.3765   0.4011   0.4091   0.4248   0.4327   0.4503   0.4680
     0.4749   0.4952   0.5082   0.5223   0.5362   0.5591   0.6016   0.6171
     0.6570   0.6867   0.7056   0.7161   0.7367   0.7511   0.7611   0.7772
     0.7891   0.8020   0.8130   0.8338   0.8452   0.8552   0.8662   0.8733
     0.8776   0.9077   0.9114   0.9265   0.9357   0.9454   0.9631   0.9659
     0.9819   0.9909   0.9980   1.0110   1.0188   1.0296   1.0464   1.0618
     1.0745   1.0938   1.0991   1.1147   1.1173   1.1277   1.1357   1.1458
     1.1592   1.1723   1.1848   1.1964   1.2034   1.2217   1.2285   1.2450
     1.2547   1.2620   1.2787   1.2837   1.3039   1.3087   1.3195   1.3405
     1.3516   1.3599   1.3723   1.3814   1.3967   1.4156   1.4174   1.4278
     1.4573   1.4639   1.4665   1.4965   1.5047   1.5159   1.5302   1.5433
     1.5517   1.5575   1.5779   1.5865   1.6136   1.6271   1.6466   1.6548
     1.6755   1.6873   1.7016   1.7150   1.7445   1.7638   1.8086   1.8460
     1.9231   1.9444   1.9966   2.0279   2.0605   2.0783   2.2032   2.2086
     4.3171   4.4316   4.7149   4.7484   4.7975   4.8433   4.9374   5.0089
     5.2805   5.3511   5.3905   5.4128   5.4942   5.5685   5.7249   5.7496
     5.7990   5.8601   5.9598   6.0162   6.0530   6.0903   6.1139   6.1613
     6.4342   6.4817   6.7741   6.8630   6.9316   6.9800   7.0360   7.0449
     7.0915   7.1531   7.1968   7.2637   7.2955   7.3387   7.3942   7.4595
     7.4970   7.5653   7.5894   7.6352   7.6948   7.7233   7.7567   7.7803
     7.8233   7.8622   7.8881   7.9115   7.9302   7.9443   7.9877   8.0162
     8.0478   8.0630   8.0809   8.1175   8.1248   8.1515   8.1721   8.1977
     8.2253   8.2444   8.2813   8.2900   8.3309   8.3491   8.3640   8.3765
     8.4003   8.4157   8.4348   8.4681   8.4953   8.5111   8.5629   8.5884
     8.5939   8.5994   8.6205   8.6304   8.6522   8.6684   8.6957   8.7054
     8.7407   8.7437   8.7593   8.7878   8.8100   8.8302   8.8426   8.8538
     8.8717   8.8837   8.9095   8.9301   8.9425   8.9473   8.9627   8.9766
     9.0041   9.0142   9.0262   9.0468   9.0830   9.0953   9.1304   9.1443
     9.1821   9.2051   9.2289   9.2500   9.2708   9.2809   9.2950   9.3106
     9.3369   9.3454   9.3570   9.3738   9.4091   9.4271   9.4340   9.4452
     9.4735   9.4779   9.5131   9.5246   9.5419   9.5652   9.5866   9.5957
     9.6102   9.6244   9.6409   9.6569   9.6789   9.7012   9.7473   9.7588
     9.8818   9.9062   9.9723   9.9922

     occupation numbers 
     1.0000   1.0000   1.0000   1.0000   1.0000   1.0000   1.0000   1.0000
     1.0000   1.0000   1.0000   1.0000   1.0000   1.0000   1.0000   1.0000
     1.0000   1.0000   1.0000   1.0000   1.0000   1.0000   1.0000   1.0000
     1.0000   1.0000   1.0000   1.0000   1.0000   1.0000   1.0000   1.0000
     1.0000   1.0000   1.0000   1.0000   1.0000   1.0000   1.0000   1.0000
     1.0000   1.0000   1.0000   1.0000   1.0000   1.0000   1.0000   1.0000
     1.0000   1.0000   1.0000   1.0000   1.0000   1.0000   1.0000   1.0000
     1.0000   1.0000   1.0000   1.0000   1.0000   1.0000   1.0000   1.0000
     1.0000   1.0000   1.0000   1.0000   1.0000   1.0000   1.0000   1.0000
     1.0000   1.0000   1.0000   1.0000   1.0000   1.0000   1.0000   1.0000
     1.0000   1.0000   1.0000   1.0000   1.0000   1.0000   1.0000   1.0000
     1.0000   1.0000   1.0000   1.0000   1.0000   1.0000   1.0000   1.0000
     1.0000   1.0000   1.0000   1.0000   1.0000   1.0000   1.0000   1.0000
     1.0000   1.0000   1.0000   1.0000   1.0000   1.0000   1.0000   1.0000
     1.0000   1.0000   1.0000   1.0000   1.0000   1.0000   1.0000   1.0000
     1.0000   1.0000   1.0000   1.0000   1.0000   1.0000   1.0000   1.0000
     1.0000   1.0000   1.0000   1.0000   1.0000   1.0000   1.0000   1.0000
     1.0000   1.0000   1.0000   1.0000   1.0000   1.0000   1.0000   1.0000
     1.0000   1.0000   1.0000   1.0000   1.0000   1.0000   1.0000   1.0000
     1.0000   1.0000   1.0000   1.0000   1.0000   1.0000   1.0000   1.0000
     1.0000   1.0000   1.0000   1.0000   1.0000   1.0000   1.0000   1.0000
     1.0000   1.0000   1.0000   1.0000   1.0000   1.0000   1.0000   1.0000
     1.0000   1.0000   1.0000   1.0000   1.0000   1.0000   1.0000   1.0000
     1.0000   1.0000   1.0000   1.0000   1.0000   1.0000   1.0000   1.0000
     1.0000   1.0000   1.0000   1.0000   1.0000   1.0000   1.0000   1.0000
     1.0000   1.0000   1.0000   1.0000   1.0000   1.0000   1.0000   1.0000
     1.0000   1.0000   1.0000   1.0000   1.0000   1.0000   1.0000   1.0000
     1.0000   1.0000   1.0000   1.0000   1.0000   1.0000   1.0000   1.0000
     1.0000   1.0000   1.0000   1.0000   1.0000   1.0000   1.0000   1.0000
     1.0000   1.0000   1.0000   1.0000   1.0000   1.0000   1.0000   1.0000
     1.0000   1.0000   1.0000   1.0000   1.0000   1.0000   1.0000   1.0000
     1.0000   1.0000   1.0000   1.0000   1.0000   1.0000   1.0000   1.0000
     1.0000   1.0000   1.0000   1.0000   1.0000   1.0000   1.0000   1.0000
     1.0000   1.0000   1.0000   1.0000   1.0000   1.0000   1.0000   1.0000
     1.0000   1.0000   1.0000   1.0000   1.0000   1.0000   1.0000   1.0000
     1.0000   1.0000   1.0000   1.0000   1.0000   1.0000   1.0000   1.0000
     1.0000   1.0000   1.0000   1.0000   1.0000   1.0000   1.0000   1.0000
     1.0000   1.0000   1.0000   1.0000   1.0000   1.0000   1.0000   1.0000
     1.0000   1.0000   1.0000   1.0000   1.0000   1.0000   1.0000   1.0000
     1.0000   1.0000   1.0000   1.0000   1.0000   1.0000   1.0000   1.0000
     1.0000   1.0000   1.0000   1.0000   1.0000   1.0000   1.0000   1.0000
     1.0000   1.0000   1.0000   1.0000   1.0000   1.0000   1.0000   1.0000
     1.0000   1.0000   1.0000   1.0000   1.0000   1.0000   1.0000   1.0000
     1.0000   1.0000   1.0000   1.0000   1.0000   1.0000   1.0000   1.0000
     0.0000   0.0000   0.0000   0.0000   0.0000   0.0000   0.0000   0.0000
     0.0000   0.0000   0.0000   0.0000   0.0000   0.0000   0.0000   0.0000
     0.0000   0.0000   0.0000   0.0000   0.0000   0.0000   0.0000   0.0000
     0.0000   0.0000   0.0000   0.0000   0.0000   0.0000   0.0000   0.0000
     0.0000   0.0000   0.0000   0.0000   0.0000   0.0000   0.0000   0.0000
     0.0000   0.0000   0.0000   0.0000   0.0000   0.0000   0.0000   0.0000
     0.0000   0.0000   0.0000   0.0000   0.0000   0.0000   0.0000   0.0000
     0.0000   0.0000   0.0000   0.0000   0.0000   0.0000   0.0000   0.0000
     0.0000   0.0000   0.0000   0.0000   0.0000   0.0000   0.0000   0.0000
     0.0000   0.0000   0.0000   0.0000   0.0000   0.0000   0.0000   0.0000
     0.0000   0.0000   0.0000   0.0000   0.0000   0.0000   0.0000   0.0000
     0.0000   0.0000   0.0000   0.0000   0.0000   0.0000   0.0000   0.0000
     0.0000   0.0000   0.0000   0.0000   0.0000   0.0000   0.0000   0.0000
     0.0000   0.0000   0.0000   0.0000   0.0000   0.0000   0.0000   0.0000
     0.0000   0.0000   0.0000   0.0000   0.0000   0.0000   0.0000   0.0000
     0.0000   0.0000   0.0000   0.0000   0.0000   0.0000   0.0000   0.0000
     0.0000   0.0000   0.0000   0.0000   0.0000   0.0000   0.0000   0.0000
     0.0000   0.0000   0.0000   0.0000   0.0000   0.0000   0.0000   0.0000
     0.0000   0.0000   0.0000   0.0000

          k = 0.2500 0.2500 0.5000 ( 73882 PWs)   bands (ev):

   -18.1281 -18.1281 -18.0397 -18.0397 -17.9993 -17.9993 -17.9954 -17.9954
   -17.9651 -17.9651 -17.9608 -17.9608 -17.8047 -17.8047 -17.7796 -17.7796
   -15.3216 -15.3216 -15.3009 -15.3008 -15.2515 -15.2515 -15.2502 -15.2502
   -15.2402 -15.2402 -15.2356 -15.2355 -15.2228 -15.2228 -15.2148 -15.2148
   -15.1849 -15.1848 -15.1675 -15.1675 -15.0949 -15.0948 -15.0876 -15.0876
   -15.0733 -15.0732 -15.0688 -15.0687 -15.0092 -15.0092 -15.0005 -15.0005
   -12.7908 -12.7890 -12.7690 -12.7686 -12.7587 -12.7583 -12.7442 -12.7438
   -12.7269 -12.7264 -12.7256 -12.7244 -12.7156 -12.7129 -12.6954 -12.6944
   -12.6828 -12.6822 -12.6576 -12.6573 -12.6570 -12.6566 -12.6487 -12.6475
   -12.6454 -12.6445 -12.6337 -12.6336 -12.5944 -12.5930 -12.5900 -12.5899
   -12.5700 -12.5691 -12.5607 -12.5599 -12.5407 -12.5393 -12.5080 -12.5072
   -12.4984 -12.4983 -12.4924 -12.4920 -12.4907 -12.4902 -12.4173 -12.4172
   -11.3910 -11.3905 -11.3664 -11.3659 -11.2721 -11.2714 -11.2313 -11.2302
   -11.1988 -11.1964 -11.1799 -11.1781 -11.1032 -11.1029 -11.0670 -11.0640
   -11.0528 -11.0485 -11.0222 -11.0189 -11.0035 -11.0006 -10.9659 -10.9648
   -10.9547 -10.9517 -10.9247 -10.9230 -10.8920 -10.8913 -10.8570 -10.8541
   -10.8153 -10.8146 -10.7864 -10.7851 -10.7624 -10.7610 -10.6826 -10.6820
   -10.6495 -10.6488 -10.6189 -10.6182 -10.5971 -10.5962 -10.5459 -10.5453
    -6.0981  -6.0979  -6.0135  -6.0131  -5.9764  -5.9763  -5.9724  -5.9722
    -5.9428  -5.9397  -5.9373  -5.9343  -5.7960  -5.7958  -5.7735  -5.7734
    -5.0549  -5.0540  -5.0386  -5.0375  -4.8044  -4.8027  -4.7441  -4.7418
    -4.6988  -4.6976  -4.6207  -4.6170  -4.5023  -4.5018  -4.4824  -4.4803
    -4.4350  -4.4200  -4.4154  -4.4095  -4.4026  -4.3967  -4.3901  -4.3833
    -4.3801  -4.3753  -4.3726  -4.3657  -4.3586  -4.3540  -4.3532  -4.3497
    -4.3472  -4.3415  -4.3330  -4.3285  -4.3182  -4.3157  -4.3136  -4.3112
    -4.2143  -4.2134  -4.1881  -4.1873  -4.1854  -4.1842  -4.1755  -4.1731
    -0.7119  -0.6631  -0.6475  -0.6115  -0.5850  -0.5591  -0.5319  -0.5130
    -0.4776  -0.4568  -0.4242  -0.4030  -0.3740  -0.3515  -0.3046  -0.2787
    -0.2133  -0.1756  -0.1050  -0.0737  -0.0512  -0.0382  -0.0268  -0.0230
     0.0255   0.0317   0.1437   0.1543   0.2246   0.2380   0.2591   0.2816
     0.3008   0.3105   0.3332   0.3433   0.3589   0.3735   0.3878   0.3974
     0.4085   0.4458   0.4698   0.4934   0.5041   0.5160   0.5505   0.5762
     0.6519   0.6648   0.6954   0.7017   0.7189   0.7341   0.7538   0.7621
     0.7791   0.7930   0.7987   0.8120   0.8233   0.8358   0.8468   0.8572
     0.8660   0.8899   0.9032   0.9148   0.9237   0.9328   0.9499   0.9532
     0.9600   0.9799   0.9890   0.9979   1.0172   1.0286   1.0445   1.0537
     1.0607   1.0757   1.0830   1.0987   1.1017   1.1238   1.1318   1.1471
     1.1556   1.1617   1.1761   1.1827   1.1924   1.2140   1.2356   1.2471
     1.2569   1.2689   1.2784   1.2886   1.2981   1.3139   1.3267   1.3489
     1.3550   1.3707   1.3806   1.3912   1.3950   1.4027   1.4274   1.4357
     1.4528   1.4559   1.4746   1.4883   1.4922   1.5056   1.5254   1.5313
     1.5384   1.5560   1.5654   1.5843   1.6039   1.6189   1.6249   1.6425
     1.6660   1.6876   1.6922   1.7157   1.7322   1.7390   1.7619   1.7887
     1.8256   1.8580   1.9468   1.9773   2.0420   2.0658   2.0831   2.0951
     4.5870   4.6079   4.6528   4.7608   4.9940   5.0213   5.1178   5.1542
     5.2256   5.2733   5.3673   5.4495   5.7749   5.7888   5.8085   5.8886
     6.0368   6.0503   6.1016   6.1880   6.3947   6.4384   6.4758   6.5188
     6.5433   6.5691   6.6132   6.6557   6.6872   6.7179   6.7344   6.8460
     7.0282   7.0753   7.1015   7.1248   7.2348   7.2649   7.3123   7.3397
     7.3701   7.4234   7.4740   7.5085   7.5504   7.6162   7.6609   7.7000
     7.8151   7.8297   7.8752   7.8855   7.9196   7.9491   7.9735   7.9973
     8.0178   8.0525   8.0626   8.0718   8.0873   8.1033   8.1378   8.1483
     8.1947   8.2106   8.2391   8.2558   8.2874   8.2977   8.3158   8.3319
     8.3843   8.4167   8.4346   8.4476   8.4771   8.4900   8.5360   8.5447
     8.5797   8.5933   8.6013   8.6161   8.6306   8.6414   8.6609   8.6779
     8.7068   8.7184   8.7453   8.7613   8.7937   8.8203   8.8481   8.8584
     8.8761   8.9002   8.9190   8.9361   8.9631   8.9764   9.0005   9.0126
     9.0452   9.0621   9.0826   9.0942   9.1018   9.1160   9.1736   9.1876
     9.2024   9.2136   9.2286   9.2399   9.2573   9.2819   9.2848   9.3030
     9.3141   9.3194   9.3419   9.3539   9.3655   9.3779   9.3922   9.4040
     9.4288   9.4373   9.4602   9.4730   9.5287   9.5537   9.5691   9.5782
     9.5955   9.6088   9.6582   9.6738   9.6789   9.6926   9.7120   9.7197
     9.8453   9.8640  10.0215  10.0592

     occupation numbers 
     1.0000   1.0000   1.0000   1.0000   1.0000   1.0000   1.0000   1.0000
     1.0000   1.0000   1.0000   1.0000   1.0000   1.0000   1.0000   1.0000
     1.0000   1.0000   1.0000   1.0000   1.0000   1.0000   1.0000   1.0000
     1.0000   1.0000   1.0000   1.0000   1.0000   1.0000   1.0000   1.0000
     1.0000   1.0000   1.0000   1.0000   1.0000   1.0000   1.0000   1.0000
     1.0000   1.0000   1.0000   1.0000   1.0000   1.0000   1.0000   1.0000
     1.0000   1.0000   1.0000   1.0000   1.0000   1.0000   1.0000   1.0000
     1.0000   1.0000   1.0000   1.0000   1.0000   1.0000   1.0000   1.0000
     1.0000   1.0000   1.0000   1.0000   1.0000   1.0000   1.0000   1.0000
     1.0000   1.0000   1.0000   1.0000   1.0000   1.0000   1.0000   1.0000
     1.0000   1.0000   1.0000   1.0000   1.0000   1.0000   1.0000   1.0000
     1.0000   1.0000   1.0000   1.0000   1.0000   1.0000   1.0000   1.0000
     1.0000   1.0000   1.0000   1.0000   1.0000   1.0000   1.0000   1.0000
     1.0000   1.0000   1.0000   1.0000   1.0000   1.0000   1.0000   1.0000
     1.0000   1.0000   1.0000   1.0000   1.0000   1.0000   1.0000   1.0000
     1.0000   1.0000   1.0000   1.0000   1.0000   1.0000   1.0000   1.0000
     1.0000   1.0000   1.0000   1.0000   1.0000   1.0000   1.0000   1.0000
     1.0000   1.0000   1.0000   1.0000   1.0000   1.0000   1.0000   1.0000
     1.0000   1.0000   1.0000   1.0000   1.0000   1.0000   1.0000   1.0000
     1.0000   1.0000   1.0000   1.0000   1.0000   1.0000   1.0000   1.0000
     1.0000   1.0000   1.0000   1.0000   1.0000   1.0000   1.0000   1.0000
     1.0000   1.0000   1.0000   1.0000   1.0000   1.0000   1.0000   1.0000
     1.0000   1.0000   1.0000   1.0000   1.0000   1.0000   1.0000   1.0000
     1.0000   1.0000   1.0000   1.0000   1.0000   1.0000   1.0000   1.0000
     1.0000   1.0000   1.0000   1.0000   1.0000   1.0000   1.0000   1.0000
     1.0000   1.0000   1.0000   1.0000   1.0000   1.0000   1.0000   1.0000
     1.0000   1.0000   1.0000   1.0000   1.0000   1.0000   1.0000   1.0000
     1.0000   1.0000   1.0000   1.0000   1.0000   1.0000   1.0000   1.0000
     1.0000   1.0000   1.0000   1.0000   1.0000   1.0000   1.0000   1.0000
     1.0000   1.0000   1.0000   1.0000   1.0000   1.0000   1.0000   1.0000
     1.0000   1.0000   1.0000   1.0000   1.0000   1.0000   1.0000   1.0000
     1.0000   1.0000   1.0000   1.0000   1.0000   1.0000   1.0000   1.0000
     1.0000   1.0000   1.0000   1.0000   1.0000   1.0000   1.0000   1.0000
     1.0000   1.0000   1.0000   1.0000   1.0000   1.0000   1.0000   1.0000
     1.0000   1.0000   1.0000   1.0000   1.0000   1.0000   1.0000   1.0000
     1.0000   1.0000   1.0000   1.0000   1.0000   1.0000   1.0000   1.0000
     1.0000   1.0000   1.0000   1.0000   1.0000   1.0000   1.0000   1.0000
     1.0000   1.0000   1.0000   1.0000   1.0000   1.0000   1.0000   1.0000
     1.0000   1.0000   1.0000   1.0000   1.0000   1.0000   1.0000   1.0000
     1.0000   1.0000   1.0000   1.0000   1.0000   1.0000   1.0000   1.0000
     1.0000   1.0000   1.0000   1.0000   1.0000   1.0000   1.0000   1.0000
     1.0000   1.0000   1.0000   1.0000   1.0000   1.0000   1.0000   1.0000
     1.0000   1.0000   1.0000   1.0000   1.0000   1.0000   1.0000   1.0000
     1.0000   1.0000   1.0000   1.0000   1.0000   1.0000   1.0000   1.0000
     0.0000   0.0000   0.0000   0.0000   0.0000   0.0000   0.0000   0.0000
     0.0000   0.0000   0.0000   0.0000   0.0000   0.0000   0.0000   0.0000
     0.0000   0.0000   0.0000   0.0000   0.0000   0.0000   0.0000   0.0000
     0.0000   0.0000   0.0000   0.0000   0.0000   0.0000   0.0000   0.0000
     0.0000   0.0000   0.0000   0.0000   0.0000   0.0000   0.0000   0.0000
     0.0000   0.0000   0.0000   0.0000   0.0000   0.0000   0.0000   0.0000
     0.0000   0.0000   0.0000   0.0000   0.0000   0.0000   0.0000   0.0000
     0.0000   0.0000   0.0000   0.0000   0.0000   0.0000   0.0000   0.0000
     0.0000   0.0000   0.0000   0.0000   0.0000   0.0000   0.0000   0.0000
     0.0000   0.0000   0.0000   0.0000   0.0000   0.0000   0.0000   0.0000
     0.0000   0.0000   0.0000   0.0000   0.0000   0.0000   0.0000   0.0000
     0.0000   0.0000   0.0000   0.0000   0.0000   0.0000   0.0000   0.0000
     0.0000   0.0000   0.0000   0.0000   0.0000   0.0000   0.0000   0.0000
     0.0000   0.0000   0.0000   0.0000   0.0000   0.0000   0.0000   0.0000
     0.0000   0.0000   0.0000   0.0000   0.0000   0.0000   0.0000   0.0000
     0.0000   0.0000   0.0000   0.0000   0.0000   0.0000   0.0000   0.0000
     0.0000   0.0000   0.0000   0.0000   0.0000   0.0000   0.0000   0.0000
     0.0000   0.0000   0.0000   0.0000   0.0000   0.0000   0.0000   0.0000
     0.0000   0.0000   0.0000   0.0000

          k = 0.2500 0.2500 0.7500 ( 73932 PWs)   bands (ev):

   -18.1281 -18.1281 -18.0397 -18.0397 -17.9993 -17.9993 -17.9954 -17.9954
   -17.9651 -17.9651 -17.9608 -17.9608 -17.8047 -17.8047 -17.7796 -17.7796
   -15.3216 -15.3216 -15.3009 -15.3008 -15.2532 -15.2525 -15.2495 -15.2489
   -15.2402 -15.2401 -15.2353 -15.2352 -15.2228 -15.2228 -15.2149 -15.2149
   -15.1849 -15.1848 -15.1675 -15.1675 -15.0949 -15.0948 -15.0876 -15.0876
   -15.0734 -15.0733 -15.0688 -15.0687 -15.0092 -15.0092 -15.0005 -15.0005
   -12.7915 -12.7898 -12.7729 -12.7702 -12.7692 -12.7679 -12.7350 -12.7317
   -12.7270 -12.7265 -12.7236 -12.7222 -12.7153 -12.7129 -12.6959 -12.6952
   -12.6831 -12.6826 -12.6576 -12.6573 -12.6570 -12.6564 -12.6481 -12.6473
   -12.6445 -12.6434 -12.6337 -12.6336 -12.5941 -12.5927 -12.5900 -12.5899
   -12.5701 -12.5693 -12.5619 -12.5612 -12.5405 -12.5389 -12.5069 -12.5060
   -12.4985 -12.4983 -12.4915 -12.4912 -12.4902 -12.4895 -12.4173 -12.4172
   -11.4045 -11.4032 -11.3450 -11.3438 -11.2769 -11.2758 -11.2285 -11.2271
   -11.1974 -11.1957 -11.1806 -11.1797 -11.1063 -11.1054 -11.0785 -11.0745
   -11.0480 -11.0447 -11.0187 -11.0162 -11.0001 -10.9980 -10.9743 -10.9726
   -10.9492 -10.9464 -10.9264 -10.9243 -10.8934 -10.8914 -10.8576 -10.8547
   -10.8228 -10.8216 -10.7892 -10.7879 -10.7605 -10.7593 -10.6815 -10.6808
   -10.6521 -10.6517 -10.6201 -10.6194 -10.5890 -10.5883 -10.5428 -10.5419
    -6.0981  -6.0979  -6.0136  -6.0132  -5.9768  -5.9763  -5.9724  -5.9722
    -5.9426  -5.9395  -5.9372  -5.9342  -5.7959  -5.7958  -5.7736  -5.7733
    -5.1967  -5.1961  -4.9139  -4.9126  -4.8765  -4.8760  -4.8177  -4.8171
    -4.5899  -4.5855  -4.5544  -4.5504  -4.5057  -4.5014  -4.4913  -4.4897
    -4.4789  -4.4760  -4.4194  -4.4149  -4.3992  -4.3940  -4.3859  -4.3837
    -4.3790  -4.3763  -4.3662  -4.3646  -4.3580  -4.3573  -4.3525  -4.3498
    -4.3423  -4.3397  -4.3214  -4.3185  -4.3151  -4.3136  -4.2214  -4.2202
    -4.2016  -4.2005  -4.1883  -4.1868  -4.1818  -4.1785  -4.1708  -4.1675
    -0.8779  -0.7974  -0.6751  -0.6297  -0.6062  -0.5767  -0.5436  -0.5330
    -0.5226  -0.5065  -0.4767  -0.4632  -0.4442  -0.4356  -0.4093  -0.3946
    -0.3793  -0.3506  -0.3250  -0.3059  -0.1969  -0.1772  -0.1590  -0.1220
     0.1858   0.2345   0.2546   0.2696   0.2926   0.3173   0.3287   0.3362
     0.3673   0.3881   0.4009   0.4115   0.4189   0.4309   0.4452   0.4648
     0.4772   0.4879   0.5128   0.5274   0.5461   0.5712   0.5903   0.6383
     0.6563   0.6770   0.6942   0.7238   0.7305   0.7467   0.7639   0.7787
     0.7871   0.8073   0.8199   0.8317   0.8429   0.8494   0.8709   0.8799
     0.8881   0.8993   0.9046   0.9200   0.9374   0.9551   0.9642   0.9758
     0.9833   0.9976   1.0048   1.0127   1.0254   1.0289   1.0424   1.0597
     1.0638   1.0847   1.0934   1.1029   1.1108   1.1310   1.1410   1.1487
     1.1560   1.1755   1.1863   1.1963   1.2020   1.2175   1.2238   1.2434
     1.2577   1.2677   1.2830   1.2869   1.3027   1.3116   1.3293   1.3374
     1.3505   1.3635   1.3851   1.3905   1.3967   1.4105   1.4235   1.4310
     1.4415   1.4566   1.4695   1.4784   1.4909   1.5128   1.5216   1.5318
     1.5484   1.5544   1.5774   1.5883   1.5989   1.6178   1.6284   1.6562
     1.6758   1.6959   1.7082   1.7372   1.7724   1.7856   1.8435   1.8556
     1.9021   1.9310   1.9762   2.0075   2.0523   2.1029   2.1917   2.2236
     4.3191   4.4378   4.6882   4.7604   4.8001   4.8407   4.9136   5.0310
     5.2787   5.3311   5.4240   5.4533   5.4679   5.5560   5.6916   5.7687
     5.8018   5.9227   5.9404   5.9858   6.0470   6.0766   6.1076   6.1778
     6.4314   6.5027   6.8125   6.8339   6.9022   6.9511   7.0333   7.0607
     7.1176   7.1518   7.2051   7.2539   7.2701   7.3215   7.3916   7.4511
     7.5115   7.5427   7.6262   7.6388   7.6767   7.7261   7.7375   7.7910
     7.8197   7.8248   7.8763   7.9059   7.9418   7.9681   8.0060   8.0149
     8.0321   8.0650   8.0835   8.1158   8.1326   8.1438   8.1992   8.2172
     8.2424   8.2549   8.2710   8.3087   8.3210   8.3393   8.3649   8.3796
     8.4184   8.4493   8.4566   8.4995   8.5139   8.5358   8.5449   8.5596
     8.5710   8.5820   8.6178   8.6262   8.6574   8.6643   8.7054   8.7100
     8.7355   8.7428   8.7596   8.7762   8.7898   8.8014   8.8523   8.8649
     8.8853   8.8950   8.9075   8.9167   8.9376   8.9599   8.9778   8.9997
     9.0187   9.0410   9.0654   9.0792   9.1094   9.1355   9.1668   9.1760
     9.1860   9.1941   9.2111   9.2184   9.2412   9.2568   9.2761   9.2787
     9.3252   9.3333   9.3557   9.3641   9.3816   9.3915   9.4082   9.4213
     9.4451   9.4594   9.4690   9.4933   9.5197   9.5338   9.5594   9.5751
     9.6335   9.6537   9.6650   9.6737   9.6971   9.7017   9.7150   9.7299
     9.8418   9.8659   9.9865   9.9978

     occupation numbers 
     1.0000   1.0000   1.0000   1.0000   1.0000   1.0000   1.0000   1.0000
     1.0000   1.0000   1.0000   1.0000   1.0000   1.0000   1.0000   1.0000
     1.0000   1.0000   1.0000   1.0000   1.0000   1.0000   1.0000   1.0000
     1.0000   1.0000   1.0000   1.0000   1.0000   1.0000   1.0000   1.0000
     1.0000   1.0000   1.0000   1.0000   1.0000   1.0000   1.0000   1.0000
     1.0000   1.0000   1.0000   1.0000   1.0000   1.0000   1.0000   1.0000
     1.0000   1.0000   1.0000   1.0000   1.0000   1.0000   1.0000   1.0000
     1.0000   1.0000   1.0000   1.0000   1.0000   1.0000   1.0000   1.0000
     1.0000   1.0000   1.0000   1.0000   1.0000   1.0000   1.0000   1.0000
     1.0000   1.0000   1.0000   1.0000   1.0000   1.0000   1.0000   1.0000
     1.0000   1.0000   1.0000   1.0000   1.0000   1.0000   1.0000   1.0000
     1.0000   1.0000   1.0000   1.0000   1.0000   1.0000   1.0000   1.0000
     1.0000   1.0000   1.0000   1.0000   1.0000   1.0000   1.0000   1.0000
     1.0000   1.0000   1.0000   1.0000   1.0000   1.0000   1.0000   1.0000
     1.0000   1.0000   1.0000   1.0000   1.0000   1.0000   1.0000   1.0000
     1.0000   1.0000   1.0000   1.0000   1.0000   1.0000   1.0000   1.0000
     1.0000   1.0000   1.0000   1.0000   1.0000   1.0000   1.0000   1.0000
     1.0000   1.0000   1.0000   1.0000   1.0000   1.0000   1.0000   1.0000
     1.0000   1.0000   1.0000   1.0000   1.0000   1.0000   1.0000   1.0000
     1.0000   1.0000   1.0000   1.0000   1.0000   1.0000   1.0000   1.0000
     1.0000   1.0000   1.0000   1.0000   1.0000   1.0000   1.0000   1.0000
     1.0000   1.0000   1.0000   1.0000   1.0000   1.0000   1.0000   1.0000
     1.0000   1.0000   1.0000   1.0000   1.0000   1.0000   1.0000   1.0000
     1.0000   1.0000   1.0000   1.0000   1.0000   1.0000   1.0000   1.0000
     1.0000   1.0000   1.0000   1.0000   1.0000   1.0000   1.0000   1.0000
     1.0000   1.0000   1.0000   1.0000   1.0000   1.0000   1.0000   1.0000
     1.0000   1.0000   1.0000   1.0000   1.0000   1.0000   1.0000   1.0000
     1.0000   1.0000   1.0000   1.0000   1.0000   1.0000   1.0000   1.0000
     1.0000   1.0000   1.0000   1.0000   1.0000   1.0000   1.0000   1.0000
     1.0000   1.0000   1.0000   1.0000   1.0000   1.0000   1.0000   1.0000
     1.0000   1.0000   1.0000   1.0000   1.0000   1.0000   1.0000   1.0000
     1.0000   1.0000   1.0000   1.0000   1.0000   1.0000   1.0000   1.0000
     1.0000   1.0000   1.0000   1.0000   1.0000   1.0000   1.0000   1.0000
     1.0000   1.0000   1.0000   1.0000   1.0000   1.0000   1.0000   1.0000
     1.0000   1.0000   1.0000   1.0000   1.0000   1.0000   1.0000   1.0000
     1.0000   1.0000   1.0000   1.0000   1.0000   1.0000   1.0000   1.0000
     1.0000   1.0000   1.0000   1.0000   1.0000   1.0000   1.0000   1.0000
     1.0000   1.0000   1.0000   1.0000   1.0000   1.0000   1.0000   1.0000
     1.0000   1.0000   1.0000   1.0000   1.0000   1.0000   1.0000   1.0000
     1.0000   1.0000   1.0000   1.0000   1.0000   1.0000   1.0000   1.0000
     1.0000   1.0000   1.0000   1.0000   1.0000   1.0000   1.0000   1.0000
     1.0000   1.0000   1.0000   1.0000   1.0000   1.0000   1.0000   1.0000
     1.0000   1.0000   1.0000   1.0000   1.0000   1.0000   1.0000   1.0000
     1.0000   1.0000   1.0000   1.0000   1.0000   1.0000   1.0000   1.0000
     0.0000   0.0000   0.0000   0.0000   0.0000   0.0000   0.0000   0.0000
     0.0000   0.0000   0.0000   0.0000   0.0000   0.0000   0.0000   0.0000
     0.0000   0.0000   0.0000   0.0000   0.0000   0.0000   0.0000   0.0000
     0.0000   0.0000   0.0000   0.0000   0.0000   0.0000   0.0000   0.0000
     0.0000   0.0000   0.0000   0.0000   0.0000   0.0000   0.0000   0.0000
     0.0000   0.0000   0.0000   0.0000   0.0000   0.0000   0.0000   0.0000
     0.0000   0.0000   0.0000   0.0000   0.0000   0.0000   0.0000   0.0000
     0.0000   0.0000   0.0000   0.0000   0.0000   0.0000   0.0000   0.0000
     0.0000   0.0000   0.0000   0.0000   0.0000   0.0000   0.0000   0.0000
     0.0000   0.0000   0.0000   0.0000   0.0000   0.0000   0.0000   0.0000
     0.0000   0.0000   0.0000   0.0000   0.0000   0.0000   0.0000   0.0000
     0.0000   0.0000   0.0000   0.0000   0.0000   0.0000   0.0000   0.0000
     0.0000   0.0000   0.0000   0.0000   0.0000   0.0000   0.0000   0.0000
     0.0000   0.0000   0.0000   0.0000   0.0000   0.0000   0.0000   0.0000
     0.0000   0.0000   0.0000   0.0000   0.0000   0.0000   0.0000   0.0000
     0.0000   0.0000   0.0000   0.0000   0.0000   0.0000   0.0000   0.0000
     0.0000   0.0000   0.0000   0.0000   0.0000   0.0000   0.0000   0.0000
     0.0000   0.0000   0.0000   0.0000   0.0000   0.0000   0.0000   0.0000
     0.0000   0.0000   0.0000   0.0000

          k = 0.2500 0.5000 0.0000 ( 73986 PWs)   bands (ev):

   -18.1281 -18.1281 -18.0397 -18.0397 -17.9993 -17.9993 -17.9954 -17.9954
   -17.9650 -17.9650 -17.9608 -17.9608 -17.8047 -17.8047 -17.7796 -17.7796
   -15.3216 -15.3216 -15.3009 -15.3009 -15.2537 -15.2537 -15.2487 -15.2487
   -15.2401 -15.2401 -15.2350 -15.2349 -15.2228 -15.2228 -15.2149 -15.2148
   -15.1849 -15.1848 -15.1675 -15.1675 -15.0949 -15.0949 -15.0876 -15.0876
   -15.0734 -15.0733 -15.0688 -15.0687 -15.0092 -15.0092 -15.0005 -15.0005
   -12.7925 -12.7907 -12.7774 -12.7773 -12.7699 -12.7698 -12.7300 -12.7292
   -12.7268 -12.7263 -12.7192 -12.7185 -12.7131 -12.7117 -12.6936 -12.6936
   -12.6811 -12.6805 -12.6582 -12.6575 -12.6570 -12.6566 -12.6521 -12.6513
   -12.6441 -12.6429 -12.6338 -12.6337 -12.5939 -12.5932 -12.5900 -12.5900
   -12.5716 -12.5714 -12.5631 -12.5623 -12.5399 -12.5386 -12.5063 -12.5060
   -12.4986 -12.4985 -12.4911 -12.4911 -12.4888 -12.4884 -12.4173 -12.4172
   -11.4059 -11.4059 -11.3341 -11.3335 -11.2694 -11.2686 -11.2392 -11.2386
   -11.2160 -11.2147 -11.1776 -11.1758 -11.1013 -11.1001 -11.0805 -11.0790
   -11.0519 -11.0488 -11.0321 -11.0305 -11.0017 -10.9982 -10.9618 -10.9608
   -10.9304 -10.9294 -10.9089 -10.9081 -10.8881 -10.8869 -10.8563 -10.8525
   -10.8411 -10.8405 -10.7902 -10.7893 -10.7721 -10.7702 -10.6815 -10.6813
   -10.6482 -10.6479 -10.6239 -10.6231 -10.5828 -10.5823 -10.5440 -10.5439
    -6.0981  -6.0979  -6.0137  -6.0133  -5.9764  -5.9759  -5.9728  -5.9724
    -5.9412  -5.9410  -5.9355  -5.9353  -5.7961  -5.7959  -5.7735  -5.7735
    -5.1837  -5.1832  -4.9920  -4.9909  -4.8592  -4.8582  -4.7354  -4.7339
    -4.6723  -4.6687  -4.5697  -4.5663  -4.5024  -4.5008  -4.4805  -4.4796
    -4.4278  -4.4233  -4.4076  -4.3977  -4.3930  -4.3883  -4.3840  -4.3796
    -4.3725  -4.3698  -4.3639  -4.3596  -4.3586  -4.3566  -4.3468  -4.3428
    -4.3304  -4.3272  -4.3190  -4.3178  -4.3149  -4.3123  -4.2534  -4.2492
    -4.2120  -4.2097  -4.1880  -4.1866  -4.1840  -4.1818  -4.1743  -4.1714
    -1.0213  -1.0000  -0.6931  -0.6857  -0.6345  -0.6186  -0.5945  -0.5684
    -0.5453  -0.5314  -0.5210  -0.4912  -0.4000  -0.3871  -0.3439  -0.3021
    -0.1658  -0.1401  -0.0843  -0.0766  -0.0506  -0.0340   0.0027   0.0164
     0.0607   0.0688   0.1488   0.1651   0.1886   0.2069   0.2305   0.2483
     0.2838   0.3012   0.3362   0.3670   0.3939   0.4114   0.4278   0.4526
     0.4679   0.4788   0.4998   0.5241   0.5414   0.5636   0.5921   0.6146
     0.6622   0.6857   0.7081   0.7162   0.7256   0.7446   0.7567   0.7739
     0.7919   0.7955   0.8178   0.8297   0.8420   0.8615   0.8659   0.8864
     0.8912   0.8990   0.9042   0.9243   0.9398   0.9538   0.9673   0.9788
     0.9852   0.9969   1.0031   1.0154   1.0267   1.0364   1.0496   1.0610
     1.0781   1.0874   1.0966   1.1036   1.1202   1.1360   1.1467   1.1547
     1.1657   1.1739   1.1849   1.2011   1.2148   1.2229   1.2300   1.2424
     1.2644   1.2717   1.2824   1.2864   1.3033   1.3075   1.3155   1.3367
     1.3498   1.3591   1.3667   1.3775   1.3904   1.4041   1.4162   1.4275
     1.4384   1.4571   1.4704   1.4805   1.4916   1.5140   1.5260   1.5351
     1.5531   1.5643   1.5797   1.5841   1.5988   1.6178   1.6401   1.6635
     1.6877   1.6964   1.7303   1.7343   1.7948   1.8006   1.8502   1.8714
     1.9169   1.9302   2.0020   2.0179   2.1432   2.1584   2.2395   2.2558
     4.2922   4.3666   4.5128   4.5593   4.7878   4.8027   4.9904   5.0094
     5.1891   5.1973   5.3397   5.4066   5.5843   5.7100   5.7250   5.7692
     5.9185   5.9543   6.1220   6.1612   6.2283   6.2433   6.2791   6.3586
     6.4795   6.5154   6.6209   6.6440   6.6914   6.7720   6.8270   6.8982
     7.0424   7.0653   7.1080   7.1346   7.2300   7.2693   7.3339   7.3939
     7.5297   7.6097   7.6586   7.6799   7.7229   7.7376   7.7991   7.8197
     7.8819   7.9218   7.9301   7.9472   7.9729   8.0047   8.0234   8.0570
     8.0701   8.0948   8.1054   8.1267   8.1471   8.1710   8.1969   8.2070
     8.2203   8.2265   8.2621   8.2728   8.3199   8.3465   8.3627   8.3898
     8.4055   8.4281   8.4644   8.4784   8.5033   8.5210   8.5321   8.5472
     8.6108   8.6267   8.6529   8.6635   8.6712   8.6856   8.6976   8.7045
     8.7350   8.7611   8.7682   8.7864   8.8022   8.8196   8.8364   8.8453
     8.8687   8.8859   8.9163   8.9276   8.9428   8.9572   8.9981   9.0072
     9.0333   9.0356   9.0666   9.0781   9.0885   9.1056   9.1256   9.1580
     9.1859   9.1951   9.2200   9.2478   9.2844   9.3002   9.3117   9.3198
     9.3322   9.3525   9.3577   9.3715   9.3824   9.3926   9.4037   9.4170
     9.4297   9.4502   9.4727   9.4794   9.4997   9.5043   9.5206   9.5339
     9.5538   9.5676   9.6188   9.6328   9.6683   9.6722   9.7185   9.7241
     9.8686   9.8791   9.8975   9.9231

     occupation numbers 
     1.0000   1.0000   1.0000   1.0000   1.0000   1.0000   1.0000   1.0000
     1.0000   1.0000   1.0000   1.0000   1.0000   1.0000   1.0000   1.0000
     1.0000   1.0000   1.0000   1.0000   1.0000   1.0000   1.0000   1.0000
     1.0000   1.0000   1.0000   1.0000   1.0000   1.0000   1.0000   1.0000
     1.0000   1.0000   1.0000   1.0000   1.0000   1.0000   1.0000   1.0000
     1.0000   1.0000   1.0000   1.0000   1.0000   1.0000   1.0000   1.0000
     1.0000   1.0000   1.0000   1.0000   1.0000   1.0000   1.0000   1.0000
     1.0000   1.0000   1.0000   1.0000   1.0000   1.0000   1.0000   1.0000
     1.0000   1.0000   1.0000   1.0000   1.0000   1.0000   1.0000   1.0000
     1.0000   1.0000   1.0000   1.0000   1.0000   1.0000   1.0000   1.0000
     1.0000   1.0000   1.0000   1.0000   1.0000   1.0000   1.0000   1.0000
     1.0000   1.0000   1.0000   1.0000   1.0000   1.0000   1.0000   1.0000
     1.0000   1.0000   1.0000   1.0000   1.0000   1.0000   1.0000   1.0000
     1.0000   1.0000   1.0000   1.0000   1.0000   1.0000   1.0000   1.0000
     1.0000   1.0000   1.0000   1.0000   1.0000   1.0000   1.0000   1.0000
     1.0000   1.0000   1.0000   1.0000   1.0000   1.0000   1.0000   1.0000
     1.0000   1.0000   1.0000   1.0000   1.0000   1.0000   1.0000   1.0000
     1.0000   1.0000   1.0000   1.0000   1.0000   1.0000   1.0000   1.0000
     1.0000   1.0000   1.0000   1.0000   1.0000   1.0000   1.0000   1.0000
     1.0000   1.0000   1.0000   1.0000   1.0000   1.0000   1.0000   1.0000
     1.0000   1.0000   1.0000   1.0000   1.0000   1.0000   1.0000   1.0000
     1.0000   1.0000   1.0000   1.0000   1.0000   1.0000   1.0000   1.0000
     1.0000   1.0000   1.0000   1.0000   1.0000   1.0000   1.0000   1.0000
     1.0000   1.0000   1.0000   1.0000   1.0000   1.0000   1.0000   1.0000
     1.0000   1.0000   1.0000   1.0000   1.0000   1.0000   1.0000   1.0000
     1.0000   1.0000   1.0000   1.0000   1.0000   1.0000   1.0000   1.0000
     1.0000   1.0000   1.0000   1.0000   1.0000   1.0000   1.0000   1.0000
     1.0000   1.0000   1.0000   1.0000   1.0000   1.0000   1.0000   1.0000
     1.0000   1.0000   1.0000   1.0000   1.0000   1.0000   1.0000   1.0000
     1.0000   1.0000   1.0000   1.0000   1.0000   1.0000   1.0000   1.0000
     1.0000   1.0000   1.0000   1.0000   1.0000   1.0000   1.0000   1.0000
     1.0000   1.0000   1.0000   1.0000   1.0000   1.0000   1.0000   1.0000
     1.0000   1.0000   1.0000   1.0000   1.0000   1.0000   1.0000   1.0000
     1.0000   1.0000   1.0000   1.0000   1.0000   1.0000   1.0000   1.0000
     1.0000   1.0000   1.0000   1.0000   1.0000   1.0000   1.0000   1.0000
     1.0000   1.0000   1.0000   1.0000   1.0000   1.0000   1.0000   1.0000
     1.0000   1.0000   1.0000   1.0000   1.0000   1.0000   1.0000   1.0000
     1.0000   1.0000   1.0000   1.0000   1.0000   1.0000   1.0000   1.0000
     1.0000   1.0000   1.0000   1.0000   1.0000   1.0000   1.0000   1.0000
     1.0000   1.0000   1.0000   1.0000   1.0000   1.0000   1.0000   1.0000
     1.0000   1.0000   1.0000   1.0000   1.0000   1.0000   1.0000   1.0000
     1.0000   1.0000   1.0000   1.0000   1.0000   1.0000   1.0000   1.0000
     1.0000   1.0000   1.0000   1.0000   1.0000   1.0000   1.0000   1.0000
     1.0000   1.0000   1.0000   1.0000   1.0000   1.0000   1.0000   1.0000
     0.0000   0.0000   0.0000   0.0000   0.0000   0.0000   0.0000   0.0000
     0.0000   0.0000   0.0000   0.0000   0.0000   0.0000   0.0000   0.0000
     0.0000   0.0000   0.0000   0.0000   0.0000   0.0000   0.0000   0.0000
     0.0000   0.0000   0.0000   0.0000   0.0000   0.0000   0.0000   0.0000
     0.0000   0.0000   0.0000   0.0000   0.0000   0.0000   0.0000   0.0000
     0.0000   0.0000   0.0000   0.0000   0.0000   0.0000   0.0000   0.0000
     0.0000   0.0000   0.0000   0.0000   0.0000   0.0000   0.0000   0.0000
     0.0000   0.0000   0.0000   0.0000   0.0000   0.0000   0.0000   0.0000
     0.0000   0.0000   0.0000   0.0000   0.0000   0.0000   0.0000   0.0000
     0.0000   0.0000   0.0000   0.0000   0.0000   0.0000   0.0000   0.0000
     0.0000   0.0000   0.0000   0.0000   0.0000   0.0000   0.0000   0.0000
     0.0000   0.0000   0.0000   0.0000   0.0000   0.0000   0.0000   0.0000
     0.0000   0.0000   0.0000   0.0000   0.0000   0.0000   0.0000   0.0000
     0.0000   0.0000   0.0000   0.0000   0.0000   0.0000   0.0000   0.0000
     0.0000   0.0000   0.0000   0.0000   0.0000   0.0000   0.0000   0.0000
     0.0000   0.0000   0.0000   0.0000   0.0000   0.0000   0.0000   0.0000
     0.0000   0.0000   0.0000   0.0000   0.0000   0.0000   0.0000   0.0000
     0.0000   0.0000   0.0000   0.0000   0.0000   0.0000   0.0000   0.0000
     0.0000   0.0000   0.0000   0.0000

          k = 0.2500 0.5000 0.2500 ( 73882 PWs)   bands (ev):

   -18.1281 -18.1281 -18.0397 -18.0397 -17.9993 -17.9993 -17.9954 -17.9954
   -17.9650 -17.9650 -17.9608 -17.9608 -17.8047 -17.8047 -17.7796 -17.7796
   -15.3216 -15.3216 -15.3009 -15.3008 -15.2532 -15.2525 -15.2495 -15.2489
   -15.2402 -15.2401 -15.2354 -15.2351 -15.2228 -15.2227 -15.2148 -15.2148
   -15.1849 -15.1848 -15.1675 -15.1675 -15.0949 -15.0948 -15.0876 -15.0876
   -15.0734 -15.0733 -15.0688 -15.0687 -15.0092 -15.0092 -15.0005 -15.0005
   -12.7915 -12.7897 -12.7728 -12.7699 -12.7689 -12.7679 -12.7353 -12.7313
   -12.7268 -12.7263 -12.7232 -12.7216 -12.7140 -12.7120 -12.6929 -12.6923
   -12.6810 -12.6803 -12.6582 -12.6572 -12.6570 -12.6569 -12.6521 -12.6516
   -12.6455 -12.6440 -12.6338 -12.6337 -12.5942 -12.5935 -12.5901 -12.5899
   -12.5713 -12.5709 -12.5621 -12.5612 -12.5404 -12.5391 -12.5072 -12.5068
   -12.4985 -12.4984 -12.4916 -12.4912 -12.4901 -12.4896 -12.4173 -12.4172
   -11.3994 -11.3982 -11.3512 -11.3499 -11.2709 -11.2702 -11.2355 -11.2350
   -11.2086 -11.2069 -11.1768 -11.1751 -11.1120 -11.1111 -11.0745 -11.0733
   -11.0522 -11.0468 -11.0311 -11.0296 -10.9991 -10.9957 -10.9597 -10.9584
   -10.9284 -10.9277 -10.9165 -10.9148 -10.8816 -10.8803 -10.8551 -10.8514
   -10.8381 -10.8377 -10.7904 -10.7895 -10.7692 -10.7672 -10.6783 -10.6777
   -10.6494 -10.6485 -10.6291 -10.6282 -10.5865 -10.5860 -10.5463 -10.5460
    -6.0981  -6.0979  -6.0136  -6.0131  -5.9764  -5.9757  -5.9728  -5.9724
    -5.9414  -5.9412  -5.9356  -5.9355  -5.7961  -5.7959  -5.7737  -5.7733
    -5.1256  -5.1246  -4.9431  -4.9423  -4.8295  -4.8280  -4.7616  -4.7607
    -4.6921  -4.6913  -4.5861  -4.5842  -4.5059  -4.5031  -4.4836  -4.4808
    -4.4577  -4.4561  -4.4161  -4.4140  -4.4032  -4.3962  -4.3870  -4.3843
    -4.3776  -4.3756  -4.3680  -4.3635  -4.3609  -4.3582  -4.3532  -4.3493
    -4.3409  -4.3381  -4.3272  -4.3235  -4.3191  -4.3155  -4.3078  -4.3023
    -4.2144  -4.2123  -4.1883  -4.1864  -4.1853  -4.1837  -4.1756  -4.1725
    -0.8208  -0.8033  -0.6577  -0.6226  -0.5722  -0.5474  -0.5282  -0.5195
    -0.4608  -0.4393  -0.4190  -0.4004  -0.3453  -0.3316  -0.3019  -0.2645
    -0.1695  -0.1485  -0.0824  -0.0654  -0.0426  -0.0368   0.0049   0.0156
     0.0444   0.0547   0.1193   0.1435   0.1854   0.2020   0.2246   0.2471
     0.2667   0.3123   0.3247   0.3499   0.3864   0.4004   0.4103   0.4183
     0.4321   0.4414   0.4671   0.4893   0.5084   0.5241   0.5491   0.5659
     0.6632   0.6814   0.7014   0.7141   0.7242   0.7323   0.7580   0.7604
     0.7762   0.7913   0.8000   0.8151   0.8255   0.8398   0.8492   0.8657
     0.8797   0.8851   0.8932   0.9048   0.9194   0.9268   0.9458   0.9596
     0.9642   0.9692   0.9846   0.9949   1.0040   1.0153   1.0266   1.0406
     1.0664   1.0779   1.0869   1.1072   1.1112   1.1196   1.1346   1.1456
     1.1537   1.1624   1.1740   1.1811   1.2033   1.2199   1.2420   1.2510
     1.2633   1.2718   1.2812   1.2857   1.3032   1.3196   1.3289   1.3322
     1.3389   1.3581   1.3665   1.3852   1.4059   1.4120   1.4224   1.4327
     1.4457   1.4526   1.4655   1.4810   1.4889   1.5091   1.5296   1.5419
     1.5447   1.5562   1.5670   1.5866   1.6033   1.6072   1.6171   1.6449
     1.6710   1.6866   1.7008   1.7252   1.7434   1.7573   1.7929   1.8241
     1.8453   1.8679   1.9261   1.9524   2.0187   2.0340   2.0941   2.1139
     4.4996   4.6055   4.7091   4.7995   5.0125   5.0461   5.1497   5.1660
     5.2137   5.2999   5.3782   5.4591   5.7091   5.7792   5.8322   5.9077
     5.9736   6.0119   6.1081   6.1788   6.2604   6.3089   6.3197   6.3802
     6.5078   6.5752   6.6255   6.6474   6.7042   6.7720   6.8178   6.8801
     7.0544   7.0725   7.0978   7.1411   7.2495   7.2859   7.3229   7.3741
     7.4132   7.4325   7.4663   7.4976   7.5849   7.6092   7.6648   7.6965
     7.8027   7.8417   7.8632   7.8833   7.9176   7.9534   7.9835   7.9918
     8.0235   8.0487   8.0615   8.0819   8.1130   8.1368   8.1572   8.1706
     8.1911   8.2281   8.2545   8.2634   8.2810   8.2979   8.3185   8.3492
     8.3787   8.3996   8.4367   8.4473   8.4892   8.5053   8.5446   8.5596
     8.5669   8.5776   8.5975   8.6142   8.6613   8.6783   8.6952   8.7016
     8.7194   8.7333   8.7687   8.7824   8.8088   8.8270   8.8626   8.8692
     8.8786   8.8961   8.9122   8.9249   8.9418   8.9519   9.0070   9.0175
     9.0425   9.0601   9.0897   9.0961   9.1269   9.1547   9.1627   9.1893
     9.2037   9.2191   9.2332   9.2463   9.2605   9.2712   9.2868   9.2960
     9.3217   9.3424   9.3594   9.3720   9.3832   9.3954   9.4046   9.4115
     9.4285   9.4377   9.4764   9.4933   9.5191   9.5268   9.5484   9.5596
     9.5842   9.5965   9.6117   9.6191   9.6583   9.6653   9.6757   9.6886
     9.9317   9.9358   9.9926  10.0248

     occupation numbers 
     1.0000   1.0000   1.0000   1.0000   1.0000   1.0000   1.0000   1.0000
     1.0000   1.0000   1.0000   1.0000   1.0000   1.0000   1.0000   1.0000
     1.0000   1.0000   1.0000   1.0000   1.0000   1.0000   1.0000   1.0000
     1.0000   1.0000   1.0000   1.0000   1.0000   1.0000   1.0000   1.0000
     1.0000   1.0000   1.0000   1.0000   1.0000   1.0000   1.0000   1.0000
     1.0000   1.0000   1.0000   1.0000   1.0000   1.0000   1.0000   1.0000
     1.0000   1.0000   1.0000   1.0000   1.0000   1.0000   1.0000   1.0000
     1.0000   1.0000   1.0000   1.0000   1.0000   1.0000   1.0000   1.0000
     1.0000   1.0000   1.0000   1.0000   1.0000   1.0000   1.0000   1.0000
     1.0000   1.0000   1.0000   1.0000   1.0000   1.0000   1.0000   1.0000
     1.0000   1.0000   1.0000   1.0000   1.0000   1.0000   1.0000   1.0000
     1.0000   1.0000   1.0000   1.0000   1.0000   1.0000   1.0000   1.0000
     1.0000   1.0000   1.0000   1.0000   1.0000   1.0000   1.0000   1.0000
     1.0000   1.0000   1.0000   1.0000   1.0000   1.0000   1.0000   1.0000
     1.0000   1.0000   1.0000   1.0000   1.0000   1.0000   1.0000   1.0000
     1.0000   1.0000   1.0000   1.0000   1.0000   1.0000   1.0000   1.0000
     1.0000   1.0000   1.0000   1.0000   1.0000   1.0000   1.0000   1.0000
     1.0000   1.0000   1.0000   1.0000   1.0000   1.0000   1.0000   1.0000
     1.0000   1.0000   1.0000   1.0000   1.0000   1.0000   1.0000   1.0000
     1.0000   1.0000   1.0000   1.0000   1.0000   1.0000   1.0000   1.0000
     1.0000   1.0000   1.0000   1.0000   1.0000   1.0000   1.0000   1.0000
     1.0000   1.0000   1.0000   1.0000   1.0000   1.0000   1.0000   1.0000
     1.0000   1.0000   1.0000   1.0000   1.0000   1.0000   1.0000   1.0000
     1.0000   1.0000   1.0000   1.0000   1.0000   1.0000   1.0000   1.0000
     1.0000   1.0000   1.0000   1.0000   1.0000   1.0000   1.0000   1.0000
     1.0000   1.0000   1.0000   1.0000   1.0000   1.0000   1.0000   1.0000
     1.0000   1.0000   1.0000   1.0000   1.0000   1.0000   1.0000   1.0000
     1.0000   1.0000   1.0000   1.0000   1.0000   1.0000   1.0000   1.0000
     1.0000   1.0000   1.0000   1.0000   1.0000   1.0000   1.0000   1.0000
     1.0000   1.0000   1.0000   1.0000   1.0000   1.0000   1.0000   1.0000
     1.0000   1.0000   1.0000   1.0000   1.0000   1.0000   1.0000   1.0000
     1.0000   1.0000   1.0000   1.0000   1.0000   1.0000   1.0000   1.0000
     1.0000   1.0000   1.0000   1.0000   1.0000   1.0000   1.0000   1.0000
     1.0000   1.0000   1.0000   1.0000   1.0000   1.0000   1.0000   1.0000
     1.0000   1.0000   1.0000   1.0000   1.0000   1.0000   1.0000   1.0000
     1.0000   1.0000   1.0000   1.0000   1.0000   1.0000   1.0000   1.0000
     1.0000   1.0000   1.0000   1.0000   1.0000   1.0000   1.0000   1.0000
     1.0000   1.0000   1.0000   1.0000   1.0000   1.0000   1.0000   1.0000
     1.0000   1.0000   1.0000   1.0000   1.0000   1.0000   1.0000   1.0000
     1.0000   1.0000   1.0000   1.0000   1.0000   1.0000   1.0000   1.0000
     1.0000   1.0000   1.0000   1.0000   1.0000   1.0000   1.0000   1.0000
     1.0000   1.0000   1.0000   1.0000   1.0000   1.0000   1.0000   1.0000
     1.0000   1.0000   1.0000   1.0000   1.0000   1.0000   1.0000   1.0000
     1.0000   1.0000   1.0000   1.0000   1.0000   1.0000   1.0000   1.0000
     0.0000   0.0000   0.0000   0.0000   0.0000   0.0000   0.0000   0.0000
     0.0000   0.0000   0.0000   0.0000   0.0000   0.0000   0.0000   0.0000
     0.0000   0.0000   0.0000   0.0000   0.0000   0.0000   0.0000   0.0000
     0.0000   0.0000   0.0000   0.0000   0.0000   0.0000   0.0000   0.0000
     0.0000   0.0000   0.0000   0.0000   0.0000   0.0000   0.0000   0.0000
     0.0000   0.0000   0.0000   0.0000   0.0000   0.0000   0.0000   0.0000
     0.0000   0.0000   0.0000   0.0000   0.0000   0.0000   0.0000   0.0000
     0.0000   0.0000   0.0000   0.0000   0.0000   0.0000   0.0000   0.0000
     0.0000   0.0000   0.0000   0.0000   0.0000   0.0000   0.0000   0.0000
     0.0000   0.0000   0.0000   0.0000   0.0000   0.0000   0.0000   0.0000
     0.0000   0.0000   0.0000   0.0000   0.0000   0.0000   0.0000   0.0000
     0.0000   0.0000   0.0000   0.0000   0.0000   0.0000   0.0000   0.0000
     0.0000   0.0000   0.0000   0.0000   0.0000   0.0000   0.0000   0.0000
     0.0000   0.0000   0.0000   0.0000   0.0000   0.0000   0.0000   0.0000
     0.0000   0.0000   0.0000   0.0000   0.0000   0.0000   0.0000   0.0000
     0.0000   0.0000   0.0000   0.0000   0.0000   0.0000   0.0000   0.0000
     0.0000   0.0000   0.0000   0.0000   0.0000   0.0000   0.0000   0.0000
     0.0000   0.0000   0.0000   0.0000   0.0000   0.0000   0.0000   0.0000
     0.0000   0.0000   0.0000   0.0000

          k = 0.2500 0.5000 0.5000 ( 73972 PWs)   bands (ev):

   -18.1281 -18.1281 -18.0397 -18.0397 -17.9993 -17.9993 -17.9954 -17.9954
   -17.9650 -17.9650 -17.9608 -17.9608 -17.8047 -17.8047 -17.7796 -17.7796
   -15.3216 -15.3216 -15.3009 -15.3008 -15.2516 -15.2515 -15.2502 -15.2502
   -15.2402 -15.2402 -15.2356 -15.2355 -15.2227 -15.2227 -15.2148 -15.2148
   -15.1849 -15.1848 -15.1676 -15.1676 -15.0949 -15.0948 -15.0876 -15.0876
   -15.0733 -15.0733 -15.0688 -15.0687 -15.0093 -15.0092 -15.0005 -15.0005
   -12.7908 -12.7889 -12.7686 -12.7684 -12.7586 -12.7582 -12.7440 -12.7437
   -12.7268 -12.7263 -12.7252 -12.7239 -12.7143 -12.7122 -12.6916 -12.6916
   -12.6808 -12.6802 -12.6581 -12.6574 -12.6571 -12.6568 -12.6524 -12.6519
   -12.6466 -12.6453 -12.6337 -12.6337 -12.5945 -12.5938 -12.5900 -12.5900
   -12.5711 -12.5707 -12.5608 -12.5601 -12.5408 -12.5393 -12.5082 -12.5079
   -12.4984 -12.4983 -12.4925 -12.4921 -12.4906 -12.4902 -12.4173 -12.4172
   -11.3908 -11.3903 -11.3646 -11.3642 -11.2715 -11.2709 -11.2310 -11.2306
   -11.2096 -11.2082 -11.1775 -11.1760 -11.1199 -11.1187 -11.0702 -11.0693
   -11.0528 -11.0461 -11.0232 -11.0208 -10.9935 -10.9905 -10.9578 -10.9573
   -10.9286 -10.9273 -10.9236 -10.9224 -10.8821 -10.8812 -10.8549 -10.8513
   -10.8297 -10.8292 -10.7925 -10.7915 -10.7643 -10.7626 -10.6761 -10.6760
   -10.6573 -10.6567 -10.6209 -10.6203 -10.5961 -10.5951 -10.5483 -10.5483
    -6.0980  -6.0979  -6.0134  -6.0131  -5.9761  -5.9758  -5.9727  -5.9724
    -5.9415  -5.9414  -5.9357  -5.9356  -5.7961  -5.7959  -5.7735  -5.7734
    -4.9831  -4.9828  -4.9600  -4.9594  -4.8350  -4.8337  -4.8012  -4.8000
    -4.6482  -4.6464  -4.6129  -4.6110  -4.5115  -4.5089  -4.5016  -4.4993
    -4.4778  -4.4757  -4.4692  -4.4658  -4.4150  -4.4122  -4.3947  -4.3918
    -4.3842  -4.3827  -4.3769  -4.3741  -4.3626  -4.3607  -4.3583  -4.3564
    -4.3503  -4.3499  -4.3393  -4.3386  -4.3199  -4.3190  -4.3157  -4.3143
    -4.2148  -4.2142  -4.1885  -4.1867  -4.1864  -4.1850  -4.1755  -4.1747
    -0.6658  -0.6336  -0.5988  -0.5732  -0.4895  -0.4608  -0.4385  -0.4324
    -0.3864  -0.3619  -0.2801  -0.2661  -0.2122  -0.2030  -0.1657  -0.1476
    -0.1104  -0.0982  -0.0642  -0.0579  -0.0362  -0.0151  -0.0048   0.0105
     0.0191   0.0314   0.0997   0.1111   0.1697   0.1796   0.1924   0.2189
     0.2398   0.2479   0.2606   0.2771   0.2960   0.3155   0.3386   0.3594
     0.3696   0.3755   0.3992   0.4342   0.4533   0.4790   0.4969   0.5228
     0.6647   0.6887   0.6944   0.7010   0.7160   0.7213   0.7311   0.7458
     0.7605   0.7705   0.7890   0.7980   0.8123   0.8214   0.8305   0.8413
     0.8659   0.8710   0.8850   0.8892   0.9029   0.9073   0.9239   0.9382
     0.9405   0.9556   0.9635   0.9777   0.9849   1.0066   1.0244   1.0384
     1.0525   1.0582   1.0779   1.0854   1.0963   1.1058   1.1177   1.1265
     1.1441   1.1595   1.1686   1.1795   1.1981   1.2057   1.2337   1.2380
     1.2562   1.2653   1.2814   1.2932   1.2989   1.3181   1.3340   1.3411
     1.3497   1.3550   1.3805   1.3884   1.3983   1.4096   1.4202   1.4329
     1.4527   1.4678   1.4724   1.4810   1.4913   1.4959   1.5190   1.5256
     1.5331   1.5559   1.5626   1.5714   1.5784   1.6005   1.6061   1.6332
     1.6450   1.6649   1.6862   1.6990   1.7171   1.7320   1.7497   1.7574
     1.8014   1.8202   1.8845   1.9043   1.9515   1.9644   2.0210   2.0375
     4.7190   4.8450   4.8764   4.9623   5.0520   5.0875   5.1267   5.1741
     5.5010   5.5647   5.6159   5.6559   5.7481   5.7863   5.8715   5.9112
     6.1172   6.2517   6.3033   6.3551   6.4110   6.4556   6.4886   6.5137
     6.5744   6.6012   6.6387   6.6644   6.7433   6.7636   6.8372   6.8662
     6.9159   6.9498   6.9860   7.0196   7.0690   7.0929   7.1263   7.1723
     7.3167   7.3493   7.3796   7.4080   7.4470   7.4669   7.4987   7.5353
     7.7314   7.7412   7.7898   7.8218   7.8500   7.8961   7.9329   7.9574
     7.9750   7.9973   8.0235   8.0562   8.0784   8.0997   8.1174   8.1316
     8.2141   8.2273   8.2386   8.2550   8.3017   8.3177   8.3354   8.3520
     8.3905   8.4027   8.4122   8.4241   8.4407   8.4636   8.4835   8.4985
     8.5246   8.5497   8.5897   8.5967   8.6331   8.6369   8.6580   8.6814
     8.6851   8.6986   8.7148   8.7259   8.7694   8.7797   8.8421   8.8583
     8.8943   8.9107   8.9368   8.9467   8.9741   8.9845   9.0275   9.0351
     9.0543   9.0671   9.1046   9.1268   9.1507   9.1660   9.1756   9.1873
     9.2121   9.2156   9.2366   9.2414   9.2792   9.2954   9.2998   9.3163
     9.3274   9.3575   9.3687   9.3873   9.4084   9.4213   9.4270   9.4381
     9.4525   9.4658   9.4904   9.5019   9.5060   9.5145   9.5559   9.5582
     9.5922   9.6045   9.6411   9.6531   9.6702   9.6780   9.7341   9.7445
    10.0151  10.0308  10.0628  10.0709

     occupation numbers 
     1.0000   1.0000   1.0000   1.0000   1.0000   1.0000   1.0000   1.0000
     1.0000   1.0000   1.0000   1.0000   1.0000   1.0000   1.0000   1.0000
     1.0000   1.0000   1.0000   1.0000   1.0000   1.0000   1.0000   1.0000
     1.0000   1.0000   1.0000   1.0000   1.0000   1.0000   1.0000   1.0000
     1.0000   1.0000   1.0000   1.0000   1.0000   1.0000   1.0000   1.0000
     1.0000   1.0000   1.0000   1.0000   1.0000   1.0000   1.0000   1.0000
     1.0000   1.0000   1.0000   1.0000   1.0000   1.0000   1.0000   1.0000
     1.0000   1.0000   1.0000   1.0000   1.0000   1.0000   1.0000   1.0000
     1.0000   1.0000   1.0000   1.0000   1.0000   1.0000   1.0000   1.0000
     1.0000   1.0000   1.0000   1.0000   1.0000   1.0000   1.0000   1.0000
     1.0000   1.0000   1.0000   1.0000   1.0000   1.0000   1.0000   1.0000
     1.0000   1.0000   1.0000   1.0000   1.0000   1.0000   1.0000   1.0000
     1.0000   1.0000   1.0000   1.0000   1.0000   1.0000   1.0000   1.0000
     1.0000   1.0000   1.0000   1.0000   1.0000   1.0000   1.0000   1.0000
     1.0000   1.0000   1.0000   1.0000   1.0000   1.0000   1.0000   1.0000
     1.0000   1.0000   1.0000   1.0000   1.0000   1.0000   1.0000   1.0000
     1.0000   1.0000   1.0000   1.0000   1.0000   1.0000   1.0000   1.0000
     1.0000   1.0000   1.0000   1.0000   1.0000   1.0000   1.0000   1.0000
     1.0000   1.0000   1.0000   1.0000   1.0000   1.0000   1.0000   1.0000
     1.0000   1.0000   1.0000   1.0000   1.0000   1.0000   1.0000   1.0000
     1.0000   1.0000   1.0000   1.0000   1.0000   1.0000   1.0000   1.0000
     1.0000   1.0000   1.0000   1.0000   1.0000   1.0000   1.0000   1.0000
     1.0000   1.0000   1.0000   1.0000   1.0000   1.0000   1.0000   1.0000
     1.0000   1.0000   1.0000   1.0000   1.0000   1.0000   1.0000   1.0000
     1.0000   1.0000   1.0000   1.0000   1.0000   1.0000   1.0000   1.0000
     1.0000   1.0000   1.0000   1.0000   1.0000   1.0000   1.0000   1.0000
     1.0000   1.0000   1.0000   1.0000   1.0000   1.0000   1.0000   1.0000
     1.0000   1.0000   1.0000   1.0000   1.0000   1.0000   1.0000   1.0000
     1.0000   1.0000   1.0000   1.0000   1.0000   1.0000   1.0000   1.0000
     1.0000   1.0000   1.0000   1.0000   1.0000   1.0000   1.0000   1.0000
     1.0000   1.0000   1.0000   1.0000   1.0000   1.0000   1.0000   1.0000
     1.0000   1.0000   1.0000   1.0000   1.0000   1.0000   1.0000   1.0000
     1.0000   1.0000   1.0000   1.0000   1.0000   1.0000   1.0000   1.0000
     1.0000   1.0000   1.0000   1.0000   1.0000   1.0000   1.0000   1.0000
     1.0000   1.0000   1.0000   1.0000   1.0000   1.0000   1.0000   1.0000
     1.0000   1.0000   1.0000   1.0000   1.0000   1.0000   1.0000   1.0000
     1.0000   1.0000   1.0000   1.0000   1.0000   1.0000   1.0000   1.0000
     1.0000   1.0000   1.0000   1.0000   1.0000   1.0000   1.0000   1.0000
     1.0000   1.0000   1.0000   1.0000   1.0000   1.0000   1.0000   1.0000
     1.0000   1.0000   1.0000   1.0000   1.0000   1.0000   1.0000   1.0000
     1.0000   1.0000   1.0000   1.0000   1.0000   1.0000   1.0000   1.0000
     1.0000   1.0000   1.0000   1.0000   1.0000   1.0000   1.0000   1.0000
     1.0000   1.0000   1.0000   1.0000   1.0000   1.0000   1.0000   1.0000
     1.0000   1.0000   1.0000   1.0000   1.0000   1.0000   1.0000   1.0000
     0.0000   0.0000   0.0000   0.0000   0.0000   0.0000   0.0000   0.0000
     0.0000   0.0000   0.0000   0.0000   0.0000   0.0000   0.0000   0.0000
     0.0000   0.0000   0.0000   0.0000   0.0000   0.0000   0.0000   0.0000
     0.0000   0.0000   0.0000   0.0000   0.0000   0.0000   0.0000   0.0000
     0.0000   0.0000   0.0000   0.0000   0.0000   0.0000   0.0000   0.0000
     0.0000   0.0000   0.0000   0.0000   0.0000   0.0000   0.0000   0.0000
     0.0000   0.0000   0.0000   0.0000   0.0000   0.0000   0.0000   0.0000
     0.0000   0.0000   0.0000   0.0000   0.0000   0.0000   0.0000   0.0000
     0.0000   0.0000   0.0000   0.0000   0.0000   0.0000   0.0000   0.0000
     0.0000   0.0000   0.0000   0.0000   0.0000   0.0000   0.0000   0.0000
     0.0000   0.0000   0.0000   0.0000   0.0000   0.0000   0.0000   0.0000
     0.0000   0.0000   0.0000   0.0000   0.0000   0.0000   0.0000   0.0000
     0.0000   0.0000   0.0000   0.0000   0.0000   0.0000   0.0000   0.0000
     0.0000   0.0000   0.0000   0.0000   0.0000   0.0000   0.0000   0.0000
     0.0000   0.0000   0.0000   0.0000   0.0000   0.0000   0.0000   0.0000
     0.0000   0.0000   0.0000   0.0000   0.0000   0.0000   0.0000   0.0000
     0.0000   0.0000   0.0000   0.0000   0.0000   0.0000   0.0000   0.0000
     0.0000   0.0000   0.0000   0.0000   0.0000   0.0000   0.0000   0.0000
     0.0000   0.0000   0.0000   0.0000

          k = 0.2500 0.5000 0.7500 ( 73882 PWs)   bands (ev):

   -18.1281 -18.1281 -18.0397 -18.0397 -17.9993 -17.9993 -17.9954 -17.9954
   -17.9650 -17.9650 -17.9608 -17.9608 -17.8047 -17.8047 -17.7796 -17.7796
   -15.3216 -15.3216 -15.3009 -15.3008 -15.2532 -15.2525 -15.2495 -15.2489
   -15.2402 -15.2401 -15.2353 -15.2352 -15.2228 -15.2227 -15.2148 -15.2148
   -15.1849 -15.1848 -15.1675 -15.1675 -15.0949 -15.0948 -15.0876 -15.0876
   -15.0734 -15.0733 -15.0688 -15.0687 -15.0092 -15.0092 -15.0005 -15.0005
   -12.7915 -12.7897 -12.7729 -12.7699 -12.7689 -12.7678 -12.7349 -12.7316
   -12.7268 -12.7264 -12.7230 -12.7218 -12.7139 -12.7121 -12.6929 -12.6923
   -12.6810 -12.6803 -12.6581 -12.6576 -12.6571 -12.6566 -12.6523 -12.6514
   -12.6454 -12.6442 -12.6338 -12.6337 -12.5942 -12.5935 -12.5900 -12.5899
   -12.5712 -12.5710 -12.5620 -12.5612 -12.5405 -12.5389 -12.5072 -12.5068
   -12.4986 -12.4983 -12.4915 -12.4912 -12.4902 -12.4895 -12.4173 -12.4172
   -11.4022 -11.4009 -11.3453 -11.3440 -11.2708 -11.2702 -11.2351 -11.2342
   -11.2159 -11.2147 -11.1756 -11.1738 -11.1140 -11.1119 -11.0748 -11.0721
   -11.0524 -11.0480 -11.0251 -11.0223 -10.9969 -10.9938 -10.9606 -10.9601
   -10.9262 -10.9240 -10.9196 -10.9174 -10.8876 -10.8870 -10.8561 -10.8523
   -10.8333 -10.8326 -10.7924 -10.7913 -10.7674 -10.7658 -10.6809 -10.6803
   -10.6538 -10.6533 -10.6178 -10.6169 -10.5914 -10.5907 -10.5463 -10.5459
    -6.0981  -6.0979  -6.0136  -6.0131  -5.9762  -5.9759  -5.9728  -5.9724
    -5.9414  -5.9411  -5.9357  -5.9354  -5.7960  -5.7959  -5.7736  -5.7733
    -5.1243  -5.1238  -4.9439  -4.9427  -4.8282  -4.8278  -4.7660  -4.7651
    -4.6887  -4.6867  -4.5923  -4.5894  -4.5031  -4.5018  -4.4814  -4.4795
    -4.4601  -4.4510  -4.4207  -4.4110  -4.4067  -4.3952  -4.3863  -4.3840
    -4.3791  -4.3767  -4.3674  -4.3643  -4.3620  -4.3572  -4.3530  -4.3483
    -4.3393  -4.3382  -4.3271  -4.3246  -4.3167  -4.3153  -4.3044  -4.2987
    -4.2142  -4.2137  -4.1888  -4.1872  -4.1856  -4.1845  -4.1750  -4.1746
    -0.8710  -0.8084  -0.6310  -0.5826  -0.5559  -0.5270  -0.5183  -0.5068
    -0.4757  -0.4558  -0.4367  -0.4066  -0.3720  -0.3535  -0.2897  -0.2554
    -0.1605  -0.1358  -0.0818  -0.0735  -0.0414  -0.0209   0.0087   0.0199
     0.0412   0.0526   0.1234   0.1482   0.1867   0.2010   0.2089   0.2352
     0.2776   0.2951   0.3327   0.3497   0.3772   0.3899   0.4053   0.4222
     0.4394   0.4552   0.4726   0.4888   0.5105   0.5342   0.5563   0.5810
     0.6507   0.6772   0.6927   0.7016   0.7160   0.7410   0.7522   0.7618
     0.7801   0.7855   0.8040   0.8150   0.8184   0.8359   0.8454   0.8611
     0.8717   0.8799   0.8975   0.9117   0.9145   0.9277   0.9388   0.9519
     0.9621   0.9693   0.9924   1.0000   1.0093   1.0344   1.0390   1.0527
     1.0578   1.0760   1.0846   1.0970   1.1172   1.1213   1.1311   1.1424
     1.1635   1.1740   1.1823   1.1863   1.1967   1.2139   1.2276   1.2365
     1.2498   1.2654   1.2754   1.2898   1.3079   1.3134   1.3260   1.3355
     1.3508   1.3612   1.3734   1.3787   1.3967   1.4101   1.4199   1.4295
     1.4491   1.4628   1.4782   1.4822   1.4922   1.5105   1.5254   1.5268
     1.5385   1.5510   1.5586   1.5852   1.5975   1.6125   1.6320   1.6453
     1.6696   1.6821   1.7026   1.7146   1.7411   1.7622   1.7999   1.8156
     1.8462   1.8673   1.9492   1.9570   1.9955   2.0378   2.1111   2.1293
     4.5328   4.5667   4.7103   4.7929   4.9889   5.0767   5.1213   5.1836
     5.2290   5.2547   5.4130   5.4382   5.7215   5.7879   5.8571   5.8869
     5.9727   6.0195   6.1072   6.1798   6.2538   6.3012   6.3286   6.3937
     6.5052   6.5728   6.6182   6.6644   6.7132   6.7514   6.7958   6.8869
     7.0330   7.0978   7.1314   7.1632   7.2403   7.2730   7.3284   7.3437
     7.3979   7.4197   7.4725   7.4967   7.5449   7.6200   7.6414   7.7239
     7.8215   7.8380   7.8788   7.9123   7.9260   7.9763   7.9904   8.0022
     8.0378   8.0430   8.0624   8.0770   8.1044   8.1207   8.1325   8.1571
     8.1841   8.2003   8.2459   8.2644   8.2999   8.3161   8.3445   8.3652
     8.3919   8.4136   8.4371   8.4618   8.4955   8.5022   8.5280   8.5501
     8.5731   8.5875   8.5934   8.6032   8.6428   8.6523   8.6879   8.7073
     8.7179   8.7322   8.7609   8.7695   8.7941   8.8056   8.8140   8.8359
     8.8640   8.8766   8.9106   8.9324   8.9505   8.9655   9.0176   9.0285
     9.0326   9.0512   9.0842   9.0942   9.1130   9.1270   9.1640   9.1756
     9.1933   9.2062   9.2341   9.2544   9.2592   9.2767   9.2942   9.3010
     9.3093   9.3268   9.3565   9.3693   9.3908   9.4027   9.4390   9.4449
     9.4541   9.4662   9.4805   9.4961   9.5103   9.5271   9.5407   9.5494
     9.6084   9.6273   9.6492   9.6603   9.6767   9.6890   9.7419   9.7506
     9.9113   9.9246   9.9620   9.9826

     occupation numbers 
     1.0000   1.0000   1.0000   1.0000   1.0000   1.0000   1.0000   1.0000
     1.0000   1.0000   1.0000   1.0000   1.0000   1.0000   1.0000   1.0000
     1.0000   1.0000   1.0000   1.0000   1.0000   1.0000   1.0000   1.0000
     1.0000   1.0000   1.0000   1.0000   1.0000   1.0000   1.0000   1.0000
     1.0000   1.0000   1.0000   1.0000   1.0000   1.0000   1.0000   1.0000
     1.0000   1.0000   1.0000   1.0000   1.0000   1.0000   1.0000   1.0000
     1.0000   1.0000   1.0000   1.0000   1.0000   1.0000   1.0000   1.0000
     1.0000   1.0000   1.0000   1.0000   1.0000   1.0000   1.0000   1.0000
     1.0000   1.0000   1.0000   1.0000   1.0000   1.0000   1.0000   1.0000
     1.0000   1.0000   1.0000   1.0000   1.0000   1.0000   1.0000   1.0000
     1.0000   1.0000   1.0000   1.0000   1.0000   1.0000   1.0000   1.0000
     1.0000   1.0000   1.0000   1.0000   1.0000   1.0000   1.0000   1.0000
     1.0000   1.0000   1.0000   1.0000   1.0000   1.0000   1.0000   1.0000
     1.0000   1.0000   1.0000   1.0000   1.0000   1.0000   1.0000   1.0000
     1.0000   1.0000   1.0000   1.0000   1.0000   1.0000   1.0000   1.0000
     1.0000   1.0000   1.0000   1.0000   1.0000   1.0000   1.0000   1.0000
     1.0000   1.0000   1.0000   1.0000   1.0000   1.0000   1.0000   1.0000
     1.0000   1.0000   1.0000   1.0000   1.0000   1.0000   1.0000   1.0000
     1.0000   1.0000   1.0000   1.0000   1.0000   1.0000   1.0000   1.0000
     1.0000   1.0000   1.0000   1.0000   1.0000   1.0000   1.0000   1.0000
     1.0000   1.0000   1.0000   1.0000   1.0000   1.0000   1.0000   1.0000
     1.0000   1.0000   1.0000   1.0000   1.0000   1.0000   1.0000   1.0000
     1.0000   1.0000   1.0000   1.0000   1.0000   1.0000   1.0000   1.0000
     1.0000   1.0000   1.0000   1.0000   1.0000   1.0000   1.0000   1.0000
     1.0000   1.0000   1.0000   1.0000   1.0000   1.0000   1.0000   1.0000
     1.0000   1.0000   1.0000   1.0000   1.0000   1.0000   1.0000   1.0000
     1.0000   1.0000   1.0000   1.0000   1.0000   1.0000   1.0000   1.0000
     1.0000   1.0000   1.0000   1.0000   1.0000   1.0000   1.0000   1.0000
     1.0000   1.0000   1.0000   1.0000   1.0000   1.0000   1.0000   1.0000
     1.0000   1.0000   1.0000   1.0000   1.0000   1.0000   1.0000   1.0000
     1.0000   1.0000   1.0000   1.0000   1.0000   1.0000   1.0000   1.0000
     1.0000   1.0000   1.0000   1.0000   1.0000   1.0000   1.0000   1.0000
     1.0000   1.0000   1.0000   1.0000   1.0000   1.0000   1.0000   1.0000
     1.0000   1.0000   1.0000   1.0000   1.0000   1.0000   1.0000   1.0000
     1.0000   1.0000   1.0000   1.0000   1.0000   1.0000   1.0000   1.0000
     1.0000   1.0000   1.0000   1.0000   1.0000   1.0000   1.0000   1.0000
     1.0000   1.0000   1.0000   1.0000   1.0000   1.0000   1.0000   1.0000
     1.0000   1.0000   1.0000   1.0000   1.0000   1.0000   1.0000   1.0000
     1.0000   1.0000   1.0000   1.0000   1.0000   1.0000   1.0000   1.0000
     1.0000   1.0000   1.0000   1.0000   1.0000   1.0000   1.0000   1.0000
     1.0000   1.0000   1.0000   1.0000   1.0000   1.0000   1.0000   1.0000
     1.0000   1.0000   1.0000   1.0000   1.0000   1.0000   1.0000   1.0000
     1.0000   1.0000   1.0000   1.0000   1.0000   1.0000   1.0000   1.0000
     1.0000   1.0000   1.0000   1.0000   1.0000   1.0000   1.0000   1.0000
     0.0000   0.0000   0.0000   0.0000   0.0000   0.0000   0.0000   0.0000
     0.0000   0.0000   0.0000   0.0000   0.0000   0.0000   0.0000   0.0000
     0.0000   0.0000   0.0000   0.0000   0.0000   0.0000   0.0000   0.0000
     0.0000   0.0000   0.0000   0.0000   0.0000   0.0000   0.0000   0.0000
     0.0000   0.0000   0.0000   0.0000   0.0000   0.0000   0.0000   0.0000
     0.0000   0.0000   0.0000   0.0000   0.0000   0.0000   0.0000   0.0000
     0.0000   0.0000   0.0000   0.0000   0.0000   0.0000   0.0000   0.0000
     0.0000   0.0000   0.0000   0.0000   0.0000   0.0000   0.0000   0.0000
     0.0000   0.0000   0.0000   0.0000   0.0000   0.0000   0.0000   0.0000
     0.0000   0.0000   0.0000   0.0000   0.0000   0.0000   0.0000   0.0000
     0.0000   0.0000   0.0000   0.0000   0.0000   0.0000   0.0000   0.0000
     0.0000   0.0000   0.0000   0.0000   0.0000   0.0000   0.0000   0.0000
     0.0000   0.0000   0.0000   0.0000   0.0000   0.0000   0.0000   0.0000
     0.0000   0.0000   0.0000   0.0000   0.0000   0.0000   0.0000   0.0000
     0.0000   0.0000   0.0000   0.0000   0.0000   0.0000   0.0000   0.0000
     0.0000   0.0000   0.0000   0.0000   0.0000   0.0000   0.0000   0.0000
     0.0000   0.0000   0.0000   0.0000   0.0000   0.0000   0.0000   0.0000
     0.0000   0.0000   0.0000   0.0000   0.0000   0.0000   0.0000   0.0000
     0.0000   0.0000   0.0000   0.0000

          k = 0.2500 0.7500 0.0000 ( 73903 PWs)   bands (ev):

   -18.1281 -18.1281 -18.0397 -18.0397 -17.9993 -17.9993 -17.9954 -17.9954
   -17.9651 -17.9651 -17.9608 -17.9608 -17.8047 -17.8047 -17.7796 -17.7796
   -15.3216 -15.3216 -15.3009 -15.3009 -15.2537 -15.2537 -15.2487 -15.2487
   -15.2401 -15.2401 -15.2350 -15.2349 -15.2228 -15.2228 -15.2149 -15.2149
   -15.1849 -15.1848 -15.1675 -15.1674 -15.0949 -15.0948 -15.0876 -15.0876
   -15.0734 -15.0733 -15.0688 -15.0686 -15.0092 -15.0092 -15.0005 -15.0005
   -12.7925 -12.7907 -12.7775 -12.7774 -12.7705 -12.7698 -12.7303 -12.7293
   -12.7270 -12.7264 -12.7197 -12.7187 -12.7140 -12.7131 -12.6967 -12.6959
   -12.6835 -12.6829 -12.6577 -12.6574 -12.6569 -12.6564 -12.6484 -12.6466
   -12.6433 -12.6423 -12.6337 -12.6336 -12.5933 -12.5928 -12.5900 -12.5899
   -12.5705 -12.5697 -12.5630 -12.5622 -12.5398 -12.5385 -12.5059 -12.5053
   -12.4986 -12.4983 -12.4911 -12.4910 -12.4887 -12.4884 -12.4173 -12.4172
   -11.4084 -11.4081 -11.3345 -11.3338 -11.2762 -11.2749 -11.2255 -11.2237
   -11.2120 -11.2108 -11.1704 -11.1697 -11.0985 -11.0978 -11.0789 -11.0769
   -11.0513 -11.0488 -11.0268 -11.0239 -11.0074 -11.0045 -10.9745 -10.9740
   -10.9555 -10.9521 -10.9106 -10.9091 -10.8931 -10.8903 -10.8604 -10.8566
   -10.8296 -10.8277 -10.7917 -10.7906 -10.7632 -10.7607 -10.6851 -10.6846
   -10.6395 -10.6390 -10.6305 -10.6296 -10.5809 -10.5804 -10.5400 -10.5395
    -6.0981  -6.0980  -6.0137  -6.0133  -5.9769  -5.9765  -5.9725  -5.9721
    -5.9422  -5.9394  -5.9371  -5.9341  -5.7960  -5.7958  -5.7735  -5.7735
    -5.2526  -5.2519  -4.9596  -4.9586  -4.8848  -4.8840  -4.7963  -4.7950
    -4.6001  -4.5976  -4.5120  -4.5060  -4.4937  -4.4867  -4.4784  -4.4735
    -4.4547  -4.4513  -4.4139  -4.4121  -4.3980  -4.3956  -4.3849  -4.3810
    -4.3747  -4.3738  -4.3682  -4.3616  -4.3594  -4.3560  -4.3509  -4.3470
    -4.3419  -4.3390  -4.3211  -4.3175  -4.3159  -4.3127  -4.2167  -4.2147
    -4.1936  -4.1913  -4.1874  -4.1851  -4.1777  -4.1747  -4.1108  -4.1060
    -1.0273  -0.9872  -0.7389  -0.7274  -0.6673  -0.6411  -0.6302  -0.5991
    -0.5677  -0.5588  -0.5413  -0.5260  -0.4693  -0.4508  -0.4344  -0.4224
    -0.4025  -0.3976  -0.3409  -0.3343  -0.2546  -0.2132  -0.1860  -0.1393
     0.2152   0.2419   0.2567   0.2800   0.2956   0.3173   0.3489   0.3601
     0.3878   0.3940   0.4082   0.4307   0.4447   0.4659   0.4834   0.5048
     0.5103   0.5262   0.5377   0.5444   0.5701   0.6015   0.6500   0.6706
     0.6870   0.7079   0.7159   0.7328   0.7452   0.7652   0.7860   0.8027
     0.8053   0.8167   0.8343   0.8474   0.8639   0.8732   0.8803   0.8871
     0.9029   0.9144   0.9237   0.9324   0.9455   0.9630   0.9760   0.9827
     0.9993   1.0105   1.0177   1.0257   1.0336   1.0559   1.0601   1.0633
     1.0792   1.0916   1.1072   1.1153   1.1307   1.1400   1.1463   1.1658
     1.1713   1.1826   1.1908   1.1991   1.2131   1.2217   1.2318   1.2497
     1.2580   1.2700   1.2824   1.2917   1.2998   1.3114   1.3143   1.3321
     1.3367   1.3668   1.3781   1.3893   1.3988   1.4065   1.4223   1.4294
     1.4435   1.4601   1.4658   1.4789   1.4945   1.5049   1.5198   1.5399
     1.5573   1.5741   1.5887   1.6011   1.6123   1.6182   1.6366   1.6609
     1.6877   1.6997   1.7341   1.7485   1.7845   1.8148   1.8840   1.9111
     1.9728   2.0148   2.0818   2.0939   2.1385   2.1829   2.3635   2.3773
     4.0837   4.2070   4.5122   4.5766   4.6467   4.6720   4.8673   4.9301
     5.1320   5.2128   5.3688   5.3998   5.4700   5.4879   5.5427   5.6506
     5.6845   5.7153   5.8248   5.8580   5.8889   5.9494   6.1335   6.1877
     6.4946   6.5427   6.7327   6.7794   6.9573   6.9985   7.0796   7.1222
     7.1373   7.1703   7.2227   7.2807   7.3147   7.3659   7.5038   7.5579
     7.5887   7.6567   7.6926   7.7257   7.7473   7.7689   7.7880   7.8339
     7.8615   7.8707   7.9359   7.9774   8.0051   8.0376   8.0448   8.0762
     8.0947   8.1175   8.1551   8.1652   8.1858   8.2069   8.2243   8.2573
     8.2826   8.2987   8.3150   8.3344   8.3434   8.3690   8.3853   8.4079
     8.4494   8.4681   8.4942   8.5076   8.5249   8.5528   8.5730   8.5810
     8.5882   8.6077   8.6187   8.6418   8.6572   8.6722   8.6896   8.7188
     8.7338   8.7576   8.7629   8.7766   8.7979   8.8127   8.8339   8.8541
     8.8653   8.8920   8.9018   8.9149   8.9494   8.9636   8.9797   8.9949
     9.0071   9.0213   9.0700   9.0860   9.1027   9.1196   9.1499   9.1545
     9.1750   9.1956   9.2082   9.2313   9.2605   9.2680   9.3051   9.3191
     9.3438   9.3594   9.3701   9.3821   9.4147   9.4289   9.4616   9.4730
     9.4808   9.4967   9.5285   9.5419   9.5522   9.5617   9.5891   9.6005
     9.6137   9.6392   9.6559   9.6724   9.7078   9.7260   9.7524   9.7564
     9.8627   9.8683   9.9128   9.9365

     occupation numbers 
     1.0000   1.0000   1.0000   1.0000   1.0000   1.0000   1.0000   1.0000
     1.0000   1.0000   1.0000   1.0000   1.0000   1.0000   1.0000   1.0000
     1.0000   1.0000   1.0000   1.0000   1.0000   1.0000   1.0000   1.0000
     1.0000   1.0000   1.0000   1.0000   1.0000   1.0000   1.0000   1.0000
     1.0000   1.0000   1.0000   1.0000   1.0000   1.0000   1.0000   1.0000
     1.0000   1.0000   1.0000   1.0000   1.0000   1.0000   1.0000   1.0000
     1.0000   1.0000   1.0000   1.0000   1.0000   1.0000   1.0000   1.0000
     1.0000   1.0000   1.0000   1.0000   1.0000   1.0000   1.0000   1.0000
     1.0000   1.0000   1.0000   1.0000   1.0000   1.0000   1.0000   1.0000
     1.0000   1.0000   1.0000   1.0000   1.0000   1.0000   1.0000   1.0000
     1.0000   1.0000   1.0000   1.0000   1.0000   1.0000   1.0000   1.0000
     1.0000   1.0000   1.0000   1.0000   1.0000   1.0000   1.0000   1.0000
     1.0000   1.0000   1.0000   1.0000   1.0000   1.0000   1.0000   1.0000
     1.0000   1.0000   1.0000   1.0000   1.0000   1.0000   1.0000   1.0000
     1.0000   1.0000   1.0000   1.0000   1.0000   1.0000   1.0000   1.0000
     1.0000   1.0000   1.0000   1.0000   1.0000   1.0000   1.0000   1.0000
     1.0000   1.0000   1.0000   1.0000   1.0000   1.0000   1.0000   1.0000
     1.0000   1.0000   1.0000   1.0000   1.0000   1.0000   1.0000   1.0000
     1.0000   1.0000   1.0000   1.0000   1.0000   1.0000   1.0000   1.0000
     1.0000   1.0000   1.0000   1.0000   1.0000   1.0000   1.0000   1.0000
     1.0000   1.0000   1.0000   1.0000   1.0000   1.0000   1.0000   1.0000
     1.0000   1.0000   1.0000   1.0000   1.0000   1.0000   1.0000   1.0000
     1.0000   1.0000   1.0000   1.0000   1.0000   1.0000   1.0000   1.0000
     1.0000   1.0000   1.0000   1.0000   1.0000   1.0000   1.0000   1.0000
     1.0000   1.0000   1.0000   1.0000   1.0000   1.0000   1.0000   1.0000
     1.0000   1.0000   1.0000   1.0000   1.0000   1.0000   1.0000   1.0000
     1.0000   1.0000   1.0000   1.0000   1.0000   1.0000   1.0000   1.0000
     1.0000   1.0000   1.0000   1.0000   1.0000   1.0000   1.0000   1.0000
     1.0000   1.0000   1.0000   1.0000   1.0000   1.0000   1.0000   1.0000
     1.0000   1.0000   1.0000   1.0000   1.0000   1.0000   1.0000   1.0000
     1.0000   1.0000   1.0000   1.0000   1.0000   1.0000   1.0000   1.0000
     1.0000   1.0000   1.0000   1.0000   1.0000   1.0000   1.0000   1.0000
     1.0000   1.0000   1.0000   1.0000   1.0000   1.0000   1.0000   1.0000
     1.0000   1.0000   1.0000   1.0000   1.0000   1.0000   1.0000   1.0000
     1.0000   1.0000   1.0000   1.0000   1.0000   1.0000   1.0000   1.0000
     1.0000   1.0000   1.0000   1.0000   1.0000   1.0000   1.0000   1.0000
     1.0000   1.0000   1.0000   1.0000   1.0000   1.0000   1.0000   1.0000
     1.0000   1.0000   1.0000   1.0000   1.0000   1.0000   1.0000   1.0000
     1.0000   1.0000   1.0000   1.0000   1.0000   1.0000   1.0000   1.0000
     1.0000   1.0000   1.0000   1.0000   1.0000   1.0000   1.0000   1.0000
     1.0000   1.0000   1.0000   1.0000   1.0000   1.0000   1.0000   1.0000
     1.0000   1.0000   1.0000   1.0000   1.0000   1.0000   1.0000   1.0000
     1.0000   1.0000   1.0000   1.0000   1.0000   1.0000   1.0000   1.0000
     1.0000   1.0000   1.0000   1.0000   1.0000   1.0000   1.0000   1.0000
     0.0000   0.0000   0.0000   0.0000   0.0000   0.0000   0.0000   0.0000
     0.0000   0.0000   0.0000   0.0000   0.0000   0.0000   0.0000   0.0000
     0.0000   0.0000   0.0000   0.0000   0.0000   0.0000   0.0000   0.0000
     0.0000   0.0000   0.0000   0.0000   0.0000   0.0000   0.0000   0.0000
     0.0000   0.0000   0.0000   0.0000   0.0000   0.0000   0.0000   0.0000
     0.0000   0.0000   0.0000   0.0000   0.0000   0.0000   0.0000   0.0000
     0.0000   0.0000   0.0000   0.0000   0.0000   0.0000   0.0000   0.0000
     0.0000   0.0000   0.0000   0.0000   0.0000   0.0000   0.0000   0.0000
     0.0000   0.0000   0.0000   0.0000   0.0000   0.0000   0.0000   0.0000
     0.0000   0.0000   0.0000   0.0000   0.0000   0.0000   0.0000   0.0000
     0.0000   0.0000   0.0000   0.0000   0.0000   0.0000   0.0000   0.0000
     0.0000   0.0000   0.0000   0.0000   0.0000   0.0000   0.0000   0.0000
     0.0000   0.0000   0.0000   0.0000   0.0000   0.0000   0.0000   0.0000
     0.0000   0.0000   0.0000   0.0000   0.0000   0.0000   0.0000   0.0000
     0.0000   0.0000   0.0000   0.0000   0.0000   0.0000   0.0000   0.0000
     0.0000   0.0000   0.0000   0.0000   0.0000   0.0000   0.0000   0.0000
     0.0000   0.0000   0.0000   0.0000   0.0000   0.0000   0.0000   0.0000
     0.0000   0.0000   0.0000   0.0000   0.0000   0.0000   0.0000   0.0000
     0.0000   0.0000   0.0000   0.0000

          k = 0.2500 0.7500 0.2500 ( 73932 PWs)   bands (ev):

   -18.1281 -18.1281 -18.0397 -18.0397 -17.9993 -17.9993 -17.9954 -17.9954
   -17.9651 -17.9651 -17.9608 -17.9608 -17.8047 -17.8047 -17.7796 -17.7796
   -15.3216 -15.3216 -15.3009 -15.3009 -15.2532 -15.2525 -15.2495 -15.2489
   -15.2402 -15.2401 -15.2354 -15.2351 -15.2228 -15.2228 -15.2149 -15.2149
   -15.1849 -15.1848 -15.1675 -15.1675 -15.0949 -15.0948 -15.0876 -15.0876
   -15.0734 -15.0733 -15.0688 -15.0687 -15.0092 -15.0092 -15.0005 -15.0005
   -12.7916 -12.7897 -12.7728 -12.7702 -12.7691 -12.7681 -12.7354 -12.7314
   -12.7269 -12.7264 -12.7238 -12.7219 -12.7148 -12.7134 -12.6958 -12.6953
   -12.6832 -12.6825 -12.6578 -12.6571 -12.6568 -12.6566 -12.6486 -12.6469
   -12.6444 -12.6434 -12.6337 -12.6336 -12.5937 -12.5930 -12.5901 -12.5899
   -12.5702 -12.5693 -12.5619 -12.5611 -12.5403 -12.5390 -12.5068 -12.5061
   -12.4985 -12.4983 -12.4915 -12.4912 -12.4901 -12.4895 -12.4173 -12.4172
   -11.4015 -11.4004 -11.3520 -11.3507 -11.2714 -11.2704 -11.2323 -11.2303
   -11.2054 -11.2035 -11.1641 -11.1636 -11.1084 -11.1074 -11.0742 -11.0727
   -11.0495 -11.0458 -11.0256 -11.0231 -11.0051 -11.0024 -10.9746 -10.9739
   -10.9560 -10.9527 -10.9166 -10.9140 -10.8869 -10.8847 -10.8598 -10.8562
   -10.8222 -10.8206 -10.7920 -10.7910 -10.7614 -10.7589 -10.6810 -10.6804
   -10.6428 -10.6419 -10.6337 -10.6328 -10.5851 -10.5843 -10.5428 -10.5419
    -6.0981  -6.0979  -6.0136  -6.0132  -5.9769  -5.9762  -5.9725  -5.9722
    -5.9425  -5.9396  -5.9372  -5.9342  -5.7960  -5.7958  -5.7737  -5.7733
    -5.1977  -5.1967  -4.9072  -4.9060  -4.8767  -4.8756  -4.8255  -4.8242
    -4.5817  -4.5785  -4.5582  -4.5555  -4.5055  -4.5031  -4.4963  -4.4922
    -4.4765  -4.4743  -4.4171  -4.4144  -4.3999  -4.3963  -4.3857  -4.3838
    -4.3767  -4.3756  -4.3677  -4.3624  -4.3607  -4.3561  -4.3517  -4.3503
    -4.3423  -4.3394  -4.3212  -4.3177  -4.3172  -4.3134  -4.2233  -4.2211
    -4.2085  -4.2044  -4.1878  -4.1859  -4.1796  -4.1748  -4.1683  -4.1642
    -0.8255  -0.7921  -0.6992  -0.6743  -0.6212  -0.6104  -0.5749  -0.5419
    -0.5213  -0.5040  -0.4772  -0.4622  -0.4344  -0.4135  -0.3915  -0.3825
    -0.3698  -0.3500  -0.2985  -0.2756  -0.2035  -0.1854  -0.1629  -0.1196
     0.2103   0.2237   0.2556   0.2787   0.2871   0.3134   0.3333   0.3439
     0.3606   0.3848   0.3974   0.4032   0.4132   0.4268   0.4482   0.4575
     0.4750   0.4931   0.5043   0.5242   0.5386   0.5495   0.5791   0.6242
     0.6737   0.6861   0.7023   0.7242   0.7355   0.7466   0.7719   0.7841
     0.7948   0.8066   0.8204   0.8299   0.8351   0.8570   0.8652   0.8689
     0.8866   0.9078   0.9140   0.9234   0.9390   0.9439   0.9534   0.9623
     0.9759   0.9851   0.9989   1.0112   1.0224   1.0283   1.0430   1.0596
     1.0731   1.0828   1.0939   1.1045   1.1158   1.1219   1.1433   1.1507
     1.1690   1.1801   1.1898   1.1967   1.2052   1.2255   1.2358   1.2448
     1.2656   1.2769   1.2831   1.2923   1.3008   1.3191   1.3254   1.3327
     1.3477   1.3686   1.3784   1.3899   1.4016   1.4138   1.4229   1.4300
     1.4460   1.4558   1.4702   1.4785   1.4899   1.5015   1.5194   1.5307
     1.5447   1.5668   1.5776   1.5855   1.6028   1.6156   1.6369   1.6530
     1.6761   1.6939   1.7069   1.7230   1.7574   1.7862   1.8392   1.8619
     1.9166   1.9484   1.9783   2.0007   2.0415   2.0643   2.2211   2.2331
     4.2789   4.3840   4.7053   4.7798   4.8461   4.8698   4.9562   4.9922
     5.3112   5.3418   5.4065   5.4188   5.4758   5.5448   5.6402   5.7351
     5.7926   5.8879   5.9693   6.0145   6.0573   6.1010   6.1339   6.2020
     6.4280   6.5001   6.8130   6.8553   6.8953   6.9904   7.0277   7.0652
     7.1075   7.1678   7.2050   7.2382   7.2834   7.3270   7.3812   7.4276
     7.4688   7.4979   7.5914   7.6278   7.6765   7.6994   7.7370   7.7831
     7.8193   7.8471   7.8727   7.9205   7.9348   7.9592   7.9821   7.9967
     8.0367   8.0593   8.0718   8.0898   8.1245   8.1789   8.2020   8.2238
     8.2400   8.2802   8.2826   8.3004   8.3421   8.3574   8.3893   8.3962
     8.4369   8.4504   8.4805   8.4950   8.5083   8.5197   8.5254   8.5478
     8.5885   8.5944   8.6025   8.6277   8.6549   8.6793   8.6943   8.7241
     8.7456   8.7726   8.7901   8.7961   8.8046   8.8241   8.8448   8.8607
     8.8823   8.8963   8.9170   8.9243   8.9463   8.9616   8.9719   8.9801
     9.0175   9.0398   9.0447   9.0657   9.0744   9.0879   9.0957   9.1274
     9.1496   9.1609   9.2163   9.2281   9.2594   9.2773   9.3087   9.3277
     9.3449   9.3621   9.3762   9.3868   9.3936   9.4004   9.4382   9.4491
     9.4713   9.4805   9.5191   9.5273   9.5377   9.5536   9.5677   9.5765
     9.5912   9.6025   9.6324   9.6550   9.6713   9.6812   9.7118   9.7245
     9.8813   9.8959   9.9759  10.0061

     occupation numbers 
     1.0000   1.0000   1.0000   1.0000   1.0000   1.0000   1.0000   1.0000
     1.0000   1.0000   1.0000   1.0000   1.0000   1.0000   1.0000   1.0000
     1.0000   1.0000   1.0000   1.0000   1.0000   1.0000   1.0000   1.0000
     1.0000   1.0000   1.0000   1.0000   1.0000   1.0000   1.0000   1.0000
     1.0000   1.0000   1.0000   1.0000   1.0000   1.0000   1.0000   1.0000
     1.0000   1.0000   1.0000   1.0000   1.0000   1.0000   1.0000   1.0000
     1.0000   1.0000   1.0000   1.0000   1.0000   1.0000   1.0000   1.0000
     1.0000   1.0000   1.0000   1.0000   1.0000   1.0000   1.0000   1.0000
     1.0000   1.0000   1.0000   1.0000   1.0000   1.0000   1.0000   1.0000
     1.0000   1.0000   1.0000   1.0000   1.0000   1.0000   1.0000   1.0000
     1.0000   1.0000   1.0000   1.0000   1.0000   1.0000   1.0000   1.0000
     1.0000   1.0000   1.0000   1.0000   1.0000   1.0000   1.0000   1.0000
     1.0000   1.0000   1.0000   1.0000   1.0000   1.0000   1.0000   1.0000
     1.0000   1.0000   1.0000   1.0000   1.0000   1.0000   1.0000   1.0000
     1.0000   1.0000   1.0000   1.0000   1.0000   1.0000   1.0000   1.0000
     1.0000   1.0000   1.0000   1.0000   1.0000   1.0000   1.0000   1.0000
     1.0000   1.0000   1.0000   1.0000   1.0000   1.0000   1.0000   1.0000
     1.0000   1.0000   1.0000   1.0000   1.0000   1.0000   1.0000   1.0000
     1.0000   1.0000   1.0000   1.0000   1.0000   1.0000   1.0000   1.0000
     1.0000   1.0000   1.0000   1.0000   1.0000   1.0000   1.0000   1.0000
     1.0000   1.0000   1.0000   1.0000   1.0000   1.0000   1.0000   1.0000
     1.0000   1.0000   1.0000   1.0000   1.0000   1.0000   1.0000   1.0000
     1.0000   1.0000   1.0000   1.0000   1.0000   1.0000   1.0000   1.0000
     1.0000   1.0000   1.0000   1.0000   1.0000   1.0000   1.0000   1.0000
     1.0000   1.0000   1.0000   1.0000   1.0000   1.0000   1.0000   1.0000
     1.0000   1.0000   1.0000   1.0000   1.0000   1.0000   1.0000   1.0000
     1.0000   1.0000   1.0000   1.0000   1.0000   1.0000   1.0000   1.0000
     1.0000   1.0000   1.0000   1.0000   1.0000   1.0000   1.0000   1.0000
     1.0000   1.0000   1.0000   1.0000   1.0000   1.0000   1.0000   1.0000
     1.0000   1.0000   1.0000   1.0000   1.0000   1.0000   1.0000   1.0000
     1.0000   1.0000   1.0000   1.0000   1.0000   1.0000   1.0000   1.0000
     1.0000   1.0000   1.0000   1.0000   1.0000   1.0000   1.0000   1.0000
     1.0000   1.0000   1.0000   1.0000   1.0000   1.0000   1.0000   1.0000
     1.0000   1.0000   1.0000   1.0000   1.0000   1.0000   1.0000   1.0000
     1.0000   1.0000   1.0000   1.0000   1.0000   1.0000   1.0000   1.0000
     1.0000   1.0000   1.0000   1.0000   1.0000   1.0000   1.0000   1.0000
     1.0000   1.0000   1.0000   1.0000   1.0000   1.0000   1.0000   1.0000
     1.0000   1.0000   1.0000   1.0000   1.0000   1.0000   1.0000   1.0000
     1.0000   1.0000   1.0000   1.0000   1.0000   1.0000   1.0000   1.0000
     1.0000   1.0000   1.0000   1.0000   1.0000   1.0000   1.0000   1.0000
     1.0000   1.0000   1.0000   1.0000   1.0000   1.0000   1.0000   1.0000
     1.0000   1.0000   1.0000   1.0000   1.0000   1.0000   1.0000   1.0000
     1.0000   1.0000   1.0000   1.0000   1.0000   1.0000   1.0000   1.0000
     1.0000   1.0000   1.0000   1.0000   1.0000   1.0000   1.0000   1.0000
     0.0000   0.0000   0.0000   0.0000   0.0000   0.0000   0.0000   0.0000
     0.0000   0.0000   0.0000   0.0000   0.0000   0.0000   0.0000   0.0000
     0.0000   0.0000   0.0000   0.0000   0.0000   0.0000   0.0000   0.0000
     0.0000   0.0000   0.0000   0.0000   0.0000   0.0000   0.0000   0.0000
     0.0000   0.0000   0.0000   0.0000   0.0000   0.0000   0.0000   0.0000
     0.0000   0.0000   0.0000   0.0000   0.0000   0.0000   0.0000   0.0000
     0.0000   0.0000   0.0000   0.0000   0.0000   0.0000   0.0000   0.0000
     0.0000   0.0000   0.0000   0.0000   0.0000   0.0000   0.0000   0.0000
     0.0000   0.0000   0.0000   0.0000   0.0000   0.0000   0.0000   0.0000
     0.0000   0.0000   0.0000   0.0000   0.0000   0.0000   0.0000   0.0000
     0.0000   0.0000   0.0000   0.0000   0.0000   0.0000   0.0000   0.0000
     0.0000   0.0000   0.0000   0.0000   0.0000   0.0000   0.0000   0.0000
     0.0000   0.0000   0.0000   0.0000   0.0000   0.0000   0.0000   0.0000
     0.0000   0.0000   0.0000   0.0000   0.0000   0.0000   0.0000   0.0000
     0.0000   0.0000   0.0000   0.0000   0.0000   0.0000   0.0000   0.0000
     0.0000   0.0000   0.0000   0.0000   0.0000   0.0000   0.0000   0.0000
     0.0000   0.0000   0.0000   0.0000   0.0000   0.0000   0.0000   0.0000
     0.0000   0.0000   0.0000   0.0000   0.0000   0.0000   0.0000   0.0000
     0.0000   0.0000   0.0000   0.0000

          k = 0.2500 0.7500 0.5000 ( 73882 PWs)   bands (ev):

   -18.1281 -18.1281 -18.0397 -18.0397 -17.9993 -17.9993 -17.9954 -17.9954
   -17.9651 -17.9651 -17.9608 -17.9608 -17.8047 -17.8047 -17.7796 -17.7796
   -15.3216 -15.3216 -15.3009 -15.3008 -15.2516 -15.2515 -15.2502 -15.2502
   -15.2402 -15.2402 -15.2356 -15.2355 -15.2228 -15.2228 -15.2148 -15.2148
   -15.1849 -15.1848 -15.1675 -15.1675 -15.0949 -15.0948 -15.0876 -15.0876
   -15.0733 -15.0732 -15.0688 -15.0687 -15.0092 -15.0092 -15.0005 -15.0005
   -12.7908 -12.7889 -12.7691 -12.7684 -12.7587 -12.7583 -12.7441 -12.7439
   -12.7269 -12.7264 -12.7258 -12.7243 -12.7150 -12.7134 -12.6953 -12.6945
   -12.6827 -12.6822 -12.6577 -12.6573 -12.6570 -12.6565 -12.6488 -12.6475
   -12.6452 -12.6446 -12.6337 -12.6336 -12.5939 -12.5935 -12.5900 -12.5899
   -12.5700 -12.5691 -12.5606 -12.5599 -12.5407 -12.5392 -12.5078 -12.5073
   -12.4984 -12.4982 -12.4924 -12.4919 -12.4906 -12.4902 -12.4173 -12.4172
   -11.3904 -11.3898 -11.3672 -11.3669 -11.2706 -11.2693 -11.2323 -11.2306
   -11.2104 -11.2084 -11.1633 -11.1625 -11.1074 -11.1060 -11.0680 -11.0668
   -11.0485 -11.0445 -11.0284 -11.0261 -11.0012 -10.9992 -10.9696 -10.9684
   -10.9539 -10.9508 -10.9250 -10.9223 -10.8843 -10.8830 -10.8597 -10.8562
   -10.8152 -10.8134 -10.7900 -10.7896 -10.7612 -10.7589 -10.6845 -10.6843
   -10.6458 -10.6451 -10.6208 -10.6202 -10.5972 -10.5959 -10.5458 -10.5452
    -6.0980  -6.0979  -6.0135  -6.0131  -5.9765  -5.9763  -5.9724  -5.9721
    -5.9427  -5.9398  -5.9373  -5.9343  -5.7960  -5.7958  -5.7735  -5.7734
    -5.0537  -5.0529  -5.0393  -5.0386  -4.7983  -4.7962  -4.7548  -4.7527
    -4.6907  -4.6896  -4.6265  -4.6248  -4.5022  -4.5011  -4.4852  -4.4830
    -4.4299  -4.4265  -4.4167  -4.4054  -4.3979  -4.3900  -4.3865  -4.3825
    -4.3789  -4.3769  -4.3727  -4.3673  -4.3588  -4.3571  -4.3517  -4.3501
    -4.3474  -4.3437  -4.3323  -4.3280  -4.3184  -4.3161  -4.3145  -4.3107
    -4.2142  -4.2138  -4.1880  -4.1870  -4.1846  -4.1838  -4.1750  -4.1746
    -0.7274  -0.6947  -0.6288  -0.6200  -0.5743  -0.5529  -0.5135  -0.5023
    -0.4782  -0.4721  -0.4322  -0.4179  -0.3737  -0.3601  -0.2911  -0.2531
    -0.2170  -0.2060  -0.0818  -0.0651  -0.0547  -0.0390  -0.0152  -0.0084
     0.0411   0.0577   0.1466   0.1623   0.2290   0.2349   0.2558   0.2854
     0.3018   0.3165   0.3229   0.3331   0.3460   0.3679   0.3820   0.4028
     0.4097   0.4241   0.4360   0.4887   0.4990   0.5256   0.5572   0.5728
     0.6524   0.6770   0.6884   0.7090   0.7206   0.7393   0.7469   0.7588
     0.7807   0.7887   0.7999   0.8149   0.8195   0.8305   0.8403   0.8501
     0.8785   0.8865   0.8943   0.9119   0.9173   0.9260   0.9432   0.9543
     0.9578   0.9807   0.9878   0.9996   1.0170   1.0298   1.0418   1.0442
     1.0635   1.0732   1.0799   1.1006   1.1018   1.1237   1.1331   1.1473
     1.1608   1.1734   1.1805   1.1898   1.2090   1.2267   1.2343   1.2442
     1.2474   1.2744   1.2855   1.2988   1.3048   1.3170   1.3306   1.3365
     1.3515   1.3650   1.3679   1.3866   1.4046   1.4112   1.4189   1.4417
     1.4454   1.4539   1.4674   1.4881   1.4965   1.5064   1.5168   1.5318
     1.5389   1.5589   1.5718   1.5875   1.6006   1.6104   1.6254   1.6448
     1.6633   1.6818   1.7002   1.7073   1.7376   1.7431   1.7713   1.7910
     1.8258   1.8356   1.9378   1.9570   2.0397   2.0708   2.1045   2.1364
     4.4510   4.5356   4.7850   4.8183   5.0194   5.0856   5.1049   5.1463
     5.2366   5.3037   5.3187   5.4100   5.6402   5.7400   5.8744   5.9420
     6.0233   6.0645   6.1403   6.2092   6.4014   6.4515   6.4746   6.5358
     6.5530   6.5808   6.6056   6.6504   6.6769   6.7133   6.7563   6.8405
     7.0409   7.0668   7.0933   7.1448   7.2342   7.2917   7.3048   7.3169
     7.3656   7.4112   7.4437   7.5181   7.5397   7.5822   7.5908   7.6503
     7.7890   7.8262   7.8865   7.9057   7.9252   7.9490   7.9636   7.9838
     8.0223   8.0342   8.0500   8.0693   8.0916   8.1170   8.1383   8.1616
     8.1913   8.2129   8.2467   8.2726   8.2874   8.3051   8.3752   8.3865
     8.4120   8.4248   8.4576   8.4715   8.4825   8.4982   8.5309   8.5409
     8.5577   8.5821   8.6195   8.6295   8.6416   8.6538   8.6659   8.6772
     8.6910   8.6996   8.7350   8.7543   8.8008   8.8141   8.8277   8.8476
     8.8612   8.8787   8.9136   8.9273   8.9510   8.9598   9.0094   9.0309
     9.0484   9.0606   9.0685   9.0828   9.1109   9.1181   9.1378   9.1513
     9.1618   9.1831   9.2060   9.2178   9.2536   9.2612   9.2888   9.3004
     9.3214   9.3306   9.3412   9.3489   9.3979   9.4089   9.4418   9.4524
     9.4688   9.4782   9.5024   9.5129   9.5372   9.5495   9.5631   9.5755
     9.5931   9.6062   9.6468   9.6637   9.6810   9.6928   9.6967   9.7047
     9.9378   9.9413  10.0129  10.0274

     occupation numbers 
     1.0000   1.0000   1.0000   1.0000   1.0000   1.0000   1.0000   1.0000
     1.0000   1.0000   1.0000   1.0000   1.0000   1.0000   1.0000   1.0000
     1.0000   1.0000   1.0000   1.0000   1.0000   1.0000   1.0000   1.0000
     1.0000   1.0000   1.0000   1.0000   1.0000   1.0000   1.0000   1.0000
     1.0000   1.0000   1.0000   1.0000   1.0000   1.0000   1.0000   1.0000
     1.0000   1.0000   1.0000   1.0000   1.0000   1.0000   1.0000   1.0000
     1.0000   1.0000   1.0000   1.0000   1.0000   1.0000   1.0000   1.0000
     1.0000   1.0000   1.0000   1.0000   1.0000   1.0000   1.0000   1.0000
     1.0000   1.0000   1.0000   1.0000   1.0000   1.0000   1.0000   1.0000
     1.0000   1.0000   1.0000   1.0000   1.0000   1.0000   1.0000   1.0000
     1.0000   1.0000   1.0000   1.0000   1.0000   1.0000   1.0000   1.0000
     1.0000   1.0000   1.0000   1.0000   1.0000   1.0000   1.0000   1.0000
     1.0000   1.0000   1.0000   1.0000   1.0000   1.0000   1.0000   1.0000
     1.0000   1.0000   1.0000   1.0000   1.0000   1.0000   1.0000   1.0000
     1.0000   1.0000   1.0000   1.0000   1.0000   1.0000   1.0000   1.0000
     1.0000   1.0000   1.0000   1.0000   1.0000   1.0000   1.0000   1.0000
     1.0000   1.0000   1.0000   1.0000   1.0000   1.0000   1.0000   1.0000
     1.0000   1.0000   1.0000   1.0000   1.0000   1.0000   1.0000   1.0000
     1.0000   1.0000   1.0000   1.0000   1.0000   1.0000   1.0000   1.0000
     1.0000   1.0000   1.0000   1.0000   1.0000   1.0000   1.0000   1.0000
     1.0000   1.0000   1.0000   1.0000   1.0000   1.0000   1.0000   1.0000
     1.0000   1.0000   1.0000   1.0000   1.0000   1.0000   1.0000   1.0000
     1.0000   1.0000   1.0000   1.0000   1.0000   1.0000   1.0000   1.0000
     1.0000   1.0000   1.0000   1.0000   1.0000   1.0000   1.0000   1.0000
     1.0000   1.0000   1.0000   1.0000   1.0000   1.0000   1.0000   1.0000
     1.0000   1.0000   1.0000   1.0000   1.0000   1.0000   1.0000   1.0000
     1.0000   1.0000   1.0000   1.0000   1.0000   1.0000   1.0000   1.0000
     1.0000   1.0000   1.0000   1.0000   1.0000   1.0000   1.0000   1.0000
     1.0000   1.0000   1.0000   1.0000   1.0000   1.0000   1.0000   1.0000
     1.0000   1.0000   1.0000   1.0000   1.0000   1.0000   1.0000   1.0000
     1.0000   1.0000   1.0000   1.0000   1.0000   1.0000   1.0000   1.0000
     1.0000   1.0000   1.0000   1.0000   1.0000   1.0000   1.0000   1.0000
     1.0000   1.0000   1.0000   1.0000   1.0000   1.0000   1.0000   1.0000
     1.0000   1.0000   1.0000   1.0000   1.0000   1.0000   1.0000   1.0000
     1.0000   1.0000   1.0000   1.0000   1.0000   1.0000   1.0000   1.0000
     1.0000   1.0000   1.0000   1.0000   1.0000   1.0000   1.0000   1.0000
     1.0000   1.0000   1.0000   1.0000   1.0000   1.0000   1.0000   1.0000
     1.0000   1.0000   1.0000   1.0000   1.0000   1.0000   1.0000   1.0000
     1.0000   1.0000   1.0000   1.0000   1.0000   1.0000   1.0000   1.0000
     1.0000   1.0000   1.0000   1.0000   1.0000   1.0000   1.0000   1.0000
     1.0000   1.0000   1.0000   1.0000   1.0000   1.0000   1.0000   1.0000
     1.0000   1.0000   1.0000   1.0000   1.0000   1.0000   1.0000   1.0000
     1.0000   1.0000   1.0000   1.0000   1.0000   1.0000   1.0000   1.0000
     1.0000   1.0000   1.0000   1.0000   1.0000   1.0000   1.0000   1.0000
     0.0000   0.0000   0.0000   0.0000   0.0000   0.0000   0.0000   0.0000
     0.0000   0.0000   0.0000   0.0000   0.0000   0.0000   0.0000   0.0000
     0.0000   0.0000   0.0000   0.0000   0.0000   0.0000   0.0000   0.0000
     0.0000   0.0000   0.0000   0.0000   0.0000   0.0000   0.0000   0.0000
     0.0000   0.0000   0.0000   0.0000   0.0000   0.0000   0.0000   0.0000
     0.0000   0.0000   0.0000   0.0000   0.0000   0.0000   0.0000   0.0000
     0.0000   0.0000   0.0000   0.0000   0.0000   0.0000   0.0000   0.0000
     0.0000   0.0000   0.0000   0.0000   0.0000   0.0000   0.0000   0.0000
     0.0000   0.0000   0.0000   0.0000   0.0000   0.0000   0.0000   0.0000
     0.0000   0.0000   0.0000   0.0000   0.0000   0.0000   0.0000   0.0000
     0.0000   0.0000   0.0000   0.0000   0.0000   0.0000   0.0000   0.0000
     0.0000   0.0000   0.0000   0.0000   0.0000   0.0000   0.0000   0.0000
     0.0000   0.0000   0.0000   0.0000   0.0000   0.0000   0.0000   0.0000
     0.0000   0.0000   0.0000   0.0000   0.0000   0.0000   0.0000   0.0000
     0.0000   0.0000   0.0000   0.0000   0.0000   0.0000   0.0000   0.0000
     0.0000   0.0000   0.0000   0.0000   0.0000   0.0000   0.0000   0.0000
     0.0000   0.0000   0.0000   0.0000   0.0000   0.0000   0.0000   0.0000
     0.0000   0.0000   0.0000   0.0000   0.0000   0.0000   0.0000   0.0000
     0.0000   0.0000   0.0000   0.0000

          k = 0.2500 0.7500 0.7500 ( 73932 PWs)   bands (ev):

   -18.1281 -18.1281 -18.0397 -18.0397 -17.9993 -17.9993 -17.9954 -17.9954
   -17.9651 -17.9651 -17.9608 -17.9608 -17.8047 -17.8047 -17.7796 -17.7796
   -15.3216 -15.3216 -15.3009 -15.3008 -15.2532 -15.2525 -15.2495 -15.2489
   -15.2402 -15.2401 -15.2353 -15.2352 -15.2228 -15.2228 -15.2149 -15.2149
   -15.1849 -15.1848 -15.1675 -15.1675 -15.0949 -15.0948 -15.0876 -15.0876
   -15.0734 -15.0733 -15.0688 -15.0687 -15.0092 -15.0092 -15.0005 -15.0005
   -12.7916 -12.7897 -12.7730 -12.7701 -12.7692 -12.7679 -12.7349 -12.7318
   -12.7270 -12.7265 -12.7236 -12.7222 -12.7148 -12.7134 -12.6962 -12.6950
   -12.6831 -12.6826 -12.6576 -12.6575 -12.6571 -12.6563 -12.6485 -12.6468
   -12.6445 -12.6434 -12.6337 -12.6336 -12.5936 -12.5932 -12.5901 -12.5899
   -12.5702 -12.5693 -12.5619 -12.5612 -12.5405 -12.5388 -12.5067 -12.5062
   -12.4985 -12.4983 -12.4915 -12.4911 -12.4902 -12.4895 -12.4173 -12.4172
   -11.4032 -11.4019 -11.3461 -11.3449 -11.2759 -11.2747 -11.2257 -11.2249
   -11.2142 -11.2122 -11.1700 -11.1692 -11.0969 -11.0957 -11.0758 -11.0736
   -11.0471 -11.0446 -11.0310 -11.0289 -11.0047 -11.0026 -10.9707 -10.9696
   -10.9514 -10.9480 -10.9193 -10.9169 -10.8903 -10.8883 -10.8602 -10.8566
   -10.8225 -10.8205 -10.7898 -10.7892 -10.7632 -10.7609 -10.6883 -10.6876
   -10.6426 -10.6422 -10.6197 -10.6186 -10.5911 -10.5906 -10.5431 -10.5427
    -6.0981  -6.0979  -6.0136  -6.0132  -5.9766  -5.9764  -5.9724  -5.9721
    -5.9425  -5.9397  -5.9372  -5.9342  -5.7959  -5.7958  -5.7737  -5.7733
    -5.1931  -5.1927  -4.9066  -4.9055  -4.8820  -4.8811  -4.8355  -4.8345
    -4.5802  -4.5771  -4.5346  -4.5312  -4.5145  -4.5116  -4.4981  -4.4949
    -4.4757  -4.4742  -4.4179  -4.4162  -4.4011  -4.3969  -4.3866  -4.3828
    -4.3775  -4.3747  -4.3682  -4.3645  -4.3594  -4.3578  -4.3528  -4.3490
    -4.3430  -4.3402  -4.3227  -4.3183  -4.3162  -4.3131  -4.2224  -4.2178
    -4.2072  -4.1974  -4.1876  -4.1864  -4.1845  -4.1780  -4.1692  -4.1649
    -0.8987  -0.8121  -0.7015  -0.6623  -0.6051  -0.5921  -0.5546  -0.5330
    -0.5065  -0.5015  -0.4799  -0.4500  -0.4132  -0.4086  -0.3879  -0.3653
    -0.3581  -0.3339  -0.3223  -0.3142  -0.1931  -0.1708  -0.1492  -0.1254
     0.1726   0.2348   0.2471   0.2779   0.2828   0.3165   0.3392   0.3462
     0.3503   0.3715   0.3890   0.3996   0.4115   0.4298   0.4561   0.4631
     0.4841   0.4889   0.5054   0.5152   0.5512   0.5587   0.6105   0.6256
     0.6664   0.6809   0.7046   0.7173   0.7387   0.7482   0.7599   0.7662
     0.7837   0.7988   0.8203   0.8294   0.8339   0.8483   0.8629   0.8744
     0.8778   0.8982   0.9040   0.9192   0.9340   0.9475   0.9532   0.9636
     0.9797   0.9896   1.0026   1.0159   1.0229   1.0409   1.0546   1.0623
     1.0769   1.0805   1.0945   1.1114   1.1197   1.1300   1.1428   1.1534
     1.1651   1.1747   1.1813   1.1961   1.2064   1.2198   1.2290   1.2443
     1.2627   1.2705   1.2778   1.2891   1.2983   1.3174   1.3256   1.3336
     1.3568   1.3642   1.3693   1.3840   1.3919   1.4054   1.4232   1.4314
     1.4392   1.4679   1.4738   1.4800   1.4909   1.5063   1.5191   1.5410
     1.5492   1.5740   1.5896   1.5941   1.6156   1.6188   1.6373   1.6469
     1.6677   1.6839   1.7043   1.7298   1.7394   1.7574   1.8150   1.8625
     1.9098   1.9456   1.9748   2.0272   2.0650   2.1001   2.2236   2.2420
     4.2870   4.3743   4.7281   4.7733   4.8348   4.8612   4.9265   4.9947
     5.3113   5.3262   5.3857   5.4401   5.4723   5.5396   5.6612   5.7459
     5.7946   5.8816   5.9914   6.0068   6.0360   6.1138   6.1673   6.1992
     6.4337   6.4767   6.7939   6.8483   6.9451   6.9999   7.0352   7.0509
     7.1217   7.1432   7.1840   7.2485   7.2673   7.3068   7.3846   7.4280
     7.5138   7.5305   7.6005   7.6257   7.6768   7.7085   7.7563   7.7818
     7.8046   7.8540   7.8760   7.8871   7.9198   7.9466   7.9734   8.0169
     8.0614   8.0714   8.0903   8.1186   8.1266   8.1426   8.1908   8.2149
     8.2576   8.2824   8.3005   8.3108   8.3353   8.3597   8.3669   8.3981
     8.4168   8.4359   8.4440   8.4699   8.5009   8.5214   8.5362   8.5496
     8.5824   8.5866   8.6170   8.6265   8.6455   8.6667   8.6773   8.6980
     8.7154   8.7374   8.7552   8.7756   8.7981   8.7997   8.8203   8.8323
     8.8478   8.8652   8.8863   8.9043   8.9360   8.9585   8.9760   8.9897
     9.0042   9.0225   9.0609   9.0762   9.1097   9.1244   9.1377   9.1599
     9.1720   9.1903   9.2161   9.2288   9.2489   9.2636   9.2770   9.3039
     9.3115   9.3285   9.3524   9.3719   9.4147   9.4264   9.4733   9.4937
     9.5075   9.5102   9.5340   9.5448   9.5554   9.5673   9.5864   9.6168
     9.6437   9.6564   9.6762   9.6865   9.7316   9.7427   9.7565   9.7663
     9.9308   9.9528   9.9601   9.9769

     occupation numbers 
     1.0000   1.0000   1.0000   1.0000   1.0000   1.0000   1.0000   1.0000
     1.0000   1.0000   1.0000   1.0000   1.0000   1.0000   1.0000   1.0000
     1.0000   1.0000   1.0000   1.0000   1.0000   1.0000   1.0000   1.0000
     1.0000   1.0000   1.0000   1.0000   1.0000   1.0000   1.0000   1.0000
     1.0000   1.0000   1.0000   1.0000   1.0000   1.0000   1.0000   1.0000
     1.0000   1.0000   1.0000   1.0000   1.0000   1.0000   1.0000   1.0000
     1.0000   1.0000   1.0000   1.0000   1.0000   1.0000   1.0000   1.0000
     1.0000   1.0000   1.0000   1.0000   1.0000   1.0000   1.0000   1.0000
     1.0000   1.0000   1.0000   1.0000   1.0000   1.0000   1.0000   1.0000
     1.0000   1.0000   1.0000   1.0000   1.0000   1.0000   1.0000   1.0000
     1.0000   1.0000   1.0000   1.0000   1.0000   1.0000   1.0000   1.0000
     1.0000   1.0000   1.0000   1.0000   1.0000   1.0000   1.0000   1.0000
     1.0000   1.0000   1.0000   1.0000   1.0000   1.0000   1.0000   1.0000
     1.0000   1.0000   1.0000   1.0000   1.0000   1.0000   1.0000   1.0000
     1.0000   1.0000   1.0000   1.0000   1.0000   1.0000   1.0000   1.0000
     1.0000   1.0000   1.0000   1.0000   1.0000   1.0000   1.0000   1.0000
     1.0000   1.0000   1.0000   1.0000   1.0000   1.0000   1.0000   1.0000
     1.0000   1.0000   1.0000   1.0000   1.0000   1.0000   1.0000   1.0000
     1.0000   1.0000   1.0000   1.0000   1.0000   1.0000   1.0000   1.0000
     1.0000   1.0000   1.0000   1.0000   1.0000   1.0000   1.0000   1.0000
     1.0000   1.0000   1.0000   1.0000   1.0000   1.0000   1.0000   1.0000
     1.0000   1.0000   1.0000   1.0000   1.0000   1.0000   1.0000   1.0000
     1.0000   1.0000   1.0000   1.0000   1.0000   1.0000   1.0000   1.0000
     1.0000   1.0000   1.0000   1.0000   1.0000   1.0000   1.0000   1.0000
     1.0000   1.0000   1.0000   1.0000   1.0000   1.0000   1.0000   1.0000
     1.0000   1.0000   1.0000   1.0000   1.0000   1.0000   1.0000   1.0000
     1.0000   1.0000   1.0000   1.0000   1.0000   1.0000   1.0000   1.0000
     1.0000   1.0000   1.0000   1.0000   1.0000   1.0000   1.0000   1.0000
     1.0000   1.0000   1.0000   1.0000   1.0000   1.0000   1.0000   1.0000
     1.0000   1.0000   1.0000   1.0000   1.0000   1.0000   1.0000   1.0000
     1.0000   1.0000   1.0000   1.0000   1.0000   1.0000   1.0000   1.0000
     1.0000   1.0000   1.0000   1.0000   1.0000   1.0000   1.0000   1.0000
     1.0000   1.0000   1.0000   1.0000   1.0000   1.0000   1.0000   1.0000
     1.0000   1.0000   1.0000   1.0000   1.0000   1.0000   1.0000   1.0000
     1.0000   1.0000   1.0000   1.0000   1.0000   1.0000   1.0000   1.0000
     1.0000   1.0000   1.0000   1.0000   1.0000   1.0000   1.0000   1.0000
     1.0000   1.0000   1.0000   1.0000   1.0000   1.0000   1.0000   1.0000
     1.0000   1.0000   1.0000   1.0000   1.0000   1.0000   1.0000   1.0000
     1.0000   1.0000   1.0000   1.0000   1.0000   1.0000   1.0000   1.0000
     1.0000   1.0000   1.0000   1.0000   1.0000   1.0000   1.0000   1.0000
     1.0000   1.0000   1.0000   1.0000   1.0000   1.0000   1.0000   1.0000
     1.0000   1.0000   1.0000   1.0000   1.0000   1.0000   1.0000   1.0000
     1.0000   1.0000   1.0000   1.0000   1.0000   1.0000   1.0000   1.0000
     1.0000   1.0000   1.0000   1.0000   1.0000   1.0000   1.0000   1.0000
     0.0000   0.0000   0.0000   0.0000   0.0000   0.0000   0.0000   0.0000
     0.0000   0.0000   0.0000   0.0000   0.0000   0.0000   0.0000   0.0000
     0.0000   0.0000   0.0000   0.0000   0.0000   0.0000   0.0000   0.0000
     0.0000   0.0000   0.0000   0.0000   0.0000   0.0000   0.0000   0.0000
     0.0000   0.0000   0.0000   0.0000   0.0000   0.0000   0.0000   0.0000
     0.0000   0.0000   0.0000   0.0000   0.0000   0.0000   0.0000   0.0000
     0.0000   0.0000   0.0000   0.0000   0.0000   0.0000   0.0000   0.0000
     0.0000   0.0000   0.0000   0.0000   0.0000   0.0000   0.0000   0.0000
     0.0000   0.0000   0.0000   0.0000   0.0000   0.0000   0.0000   0.0000
     0.0000   0.0000   0.0000   0.0000   0.0000   0.0000   0.0000   0.0000
     0.0000   0.0000   0.0000   0.0000   0.0000   0.0000   0.0000   0.0000
     0.0000   0.0000   0.0000   0.0000   0.0000   0.0000   0.0000   0.0000
     0.0000   0.0000   0.0000   0.0000   0.0000   0.0000   0.0000   0.0000
     0.0000   0.0000   0.0000   0.0000   0.0000   0.0000   0.0000   0.0000
     0.0000   0.0000   0.0000   0.0000   0.0000   0.0000   0.0000   0.0000
     0.0000   0.0000   0.0000   0.0000   0.0000   0.0000   0.0000   0.0000
     0.0000   0.0000   0.0000   0.0000   0.0000   0.0000   0.0000   0.0000
     0.0000   0.0000   0.0000   0.0000   0.0000   0.0000   0.0000   0.0000
     0.0000   0.0000   0.0000   0.0000

          k = 0.5000 0.0000 0.0000 ( 73956 PWs)   bands (ev):

   -18.1281 -18.1281 -18.0397 -18.0397 -17.9993 -17.9993 -17.9954 -17.9954
   -17.9651 -17.9651 -17.9608 -17.9608 -17.8047 -17.8047 -17.7796 -17.7796
   -15.3216 -15.3216 -15.3008 -15.3008 -15.2537 -15.2537 -15.2487 -15.2487
   -15.2402 -15.2402 -15.2349 -15.2349 -15.2229 -15.2229 -15.2149 -15.2149
   -15.1849 -15.1849 -15.1674 -15.1674 -15.0948 -15.0948 -15.0876 -15.0876
   -15.0732 -15.0732 -15.0690 -15.0690 -15.0092 -15.0092 -15.0005 -15.0005
   -12.7874 -12.7874 -12.7790 -12.7790 -12.7704 -12.7704 -12.7289 -12.7289
   -12.7264 -12.7264 -12.7208 -12.7208 -12.7158 -12.7158 -12.6994 -12.6994
   -12.6839 -12.6839 -12.6579 -12.6579 -12.6569 -12.6569 -12.6466 -12.6466
   -12.6408 -12.6408 -12.6335 -12.6335 -12.5913 -12.5913 -12.5899 -12.5899
   -12.5683 -12.5683 -12.5601 -12.5601 -12.5431 -12.5431 -12.5053 -12.5053
   -12.4986 -12.4986 -12.4911 -12.4911 -12.4893 -12.4893 -12.4172 -12.4172
   -11.4046 -11.4046 -11.3403 -11.3403 -11.2839 -11.2839 -11.2239 -11.2239
   -11.1981 -11.1981 -11.1673 -11.1673 -11.0976 -11.0976 -11.0816 -11.0816
   -11.0376 -11.0376 -11.0149 -11.0149 -11.0006 -11.0006 -10.9885 -10.9885
   -10.9762 -10.9762 -10.9199 -10.9199 -10.8946 -10.8946 -10.8480 -10.8480
   -10.8234 -10.8234 -10.7928 -10.7928 -10.7539 -10.7539 -10.6856 -10.6856
   -10.6438 -10.6438 -10.6219 -10.6219 -10.5906 -10.5906 -10.5358 -10.5358
    -6.0981  -6.0981  -6.0135  -6.0135  -5.9761  -5.9761  -5.9730  -5.9730
    -5.9413  -5.9413  -5.9351  -5.9351  -5.7958  -5.7958  -5.7736  -5.7736
    -5.1972  -5.1972  -5.1112  -5.1112  -4.7333  -4.7333  -4.7096  -4.7096
    -4.6904  -4.6904  -4.6472  -4.6472  -4.5019  -4.5019  -4.4801  -4.4801
    -4.4201  -4.4201  -4.4021  -4.4021  -4.3869  -4.3869  -4.3779  -4.3779
    -4.3700  -4.3700  -4.3613  -4.3613  -4.3525  -4.3525  -4.3431  -4.3431
    -4.3207  -4.3207  -4.3138  -4.3138  -4.2387  -4.2387  -4.2188  -4.2188
    -4.2020  -4.2020  -4.1868  -4.1868  -4.1789  -4.1789  -4.1644  -4.1644
    -1.0034  -1.0034  -0.7650  -0.7650  -0.7324  -0.7324  -0.6801  -0.6801
    -0.6150  -0.6150  -0.5385  -0.5385  -0.4710  -0.4710  -0.4523  -0.4523
    -0.1936  -0.1936  -0.1634  -0.1634   0.0012   0.0012   0.0272   0.0272
     0.0962   0.0962   0.1361   0.1361   0.1807   0.1807   0.2787   0.2787
     0.3018   0.3018   0.3710   0.3710   0.4209   0.4209   0.4605   0.4605
     0.4773   0.4773   0.4955   0.4955   0.5979   0.5979   0.6608   0.6608
     0.6889   0.6889   0.7218   0.7218   0.7592   0.7592   0.7882   0.7882
     0.8204   0.8204   0.8410   0.8410   0.8755   0.8755   0.8984   0.8984
     0.9226   0.9226   0.9457   0.9457   0.9717   0.9717   1.0000   1.0000
     1.0059   1.0059   1.0346   1.0346   1.0588   1.0588   1.0730   1.0730
     1.0951   1.0951   1.1203   1.1203   1.1270   1.1270   1.1576   1.1576
     1.1771   1.1771   1.1982   1.1982   1.2222   1.2222   1.2373   1.2373
     1.2684   1.2684   1.2906   1.2906   1.3034   1.3034   1.3330   1.3330
     1.3625   1.3625   1.3784   1.3784   1.3969   1.3969   1.4275   1.4275
     1.4505   1.4505   1.4716   1.4716   1.4988   1.4988   1.5439   1.5439
     1.5754   1.5754   1.5862   1.5862   1.6061   1.6061   1.6369   1.6369
     1.6824   1.6824   1.7649   1.7649   1.8444   1.8444   1.8762   1.8762
     1.9878   1.9878   2.0216   2.0216   2.3162   2.3162   2.3584   2.3584
     4.1925   4.1925   4.2557   4.2557   4.7872   4.7872   4.8967   4.8967
     5.1094   5.1094   5.1688   5.1688   5.4651   5.4651   5.5040   5.5040
     6.0309   6.0309   6.1687   6.1687   6.2698   6.2698   6.3836   6.3836
     6.4634   6.4634   6.5920   6.5920   6.6612   6.6612   6.7736   6.7736
     6.9836   6.9836   7.0754   7.0754   7.4033   7.4033   7.5674   7.5674
     7.6638   7.6638   7.7952   7.7952   7.8395   7.8395   7.8798   7.8798
     7.9407   7.9407   7.9803   7.9803   8.0398   8.0398   8.0720   8.0720
     8.1149   8.1149   8.1652   8.1652   8.2351   8.2351   8.2604   8.2604
     8.2934   8.2934   8.3576   8.3576   8.3923   8.3923   8.4151   8.4151
     8.4338   8.4338   8.4721   8.4721   8.4988   8.4988   8.5509   8.5509
     8.5674   8.5674   8.6287   8.6287   8.6555   8.6555   8.6879   8.6880
     8.7352   8.7352   8.7950   8.7950   8.8115   8.8115   8.8418   8.8418
     8.8668   8.8668   8.8968   8.8968   8.9192   8.9192   8.9572   8.9572
     8.9880   8.9880   8.9989   8.9989   9.0639   9.0639   9.1148   9.1148
     9.1394   9.1394   9.2042   9.2042   9.2561   9.2561   9.2938   9.2938
     9.3496   9.3496   9.3869   9.3869   9.4314   9.4314   9.4887   9.4887
     9.5061   9.5061   9.5197   9.5197   9.5601   9.5601   9.5891   9.5891
     9.6256   9.6256   9.6586   9.6586   9.6814   9.6814   9.7122   9.7122
     9.7439   9.7439   9.9249   9.9249

     occupation numbers 
     1.0000   1.0000   1.0000   1.0000   1.0000   1.0000   1.0000   1.0000
     1.0000   1.0000   1.0000   1.0000   1.0000   1.0000   1.0000   1.0000
     1.0000   1.0000   1.0000   1.0000   1.0000   1.0000   1.0000   1.0000
     1.0000   1.0000   1.0000   1.0000   1.0000   1.0000   1.0000   1.0000
     1.0000   1.0000   1.0000   1.0000   1.0000   1.0000   1.0000   1.0000
     1.0000   1.0000   1.0000   1.0000   1.0000   1.0000   1.0000   1.0000
     1.0000   1.0000   1.0000   1.0000   1.0000   1.0000   1.0000   1.0000
     1.0000   1.0000   1.0000   1.0000   1.0000   1.0000   1.0000   1.0000
     1.0000   1.0000   1.0000   1.0000   1.0000   1.0000   1.0000   1.0000
     1.0000   1.0000   1.0000   1.0000   1.0000   1.0000   1.0000   1.0000
     1.0000   1.0000   1.0000   1.0000   1.0000   1.0000   1.0000   1.0000
     1.0000   1.0000   1.0000   1.0000   1.0000   1.0000   1.0000   1.0000
     1.0000   1.0000   1.0000   1.0000   1.0000   1.0000   1.0000   1.0000
     1.0000   1.0000   1.0000   1.0000   1.0000   1.0000   1.0000   1.0000
     1.0000   1.0000   1.0000   1.0000   1.0000   1.0000   1.0000   1.0000
     1.0000   1.0000   1.0000   1.0000   1.0000   1.0000   1.0000   1.0000
     1.0000   1.0000   1.0000   1.0000   1.0000   1.0000   1.0000   1.0000
     1.0000   1.0000   1.0000   1.0000   1.0000   1.0000   1.0000   1.0000
     1.0000   1.0000   1.0000   1.0000   1.0000   1.0000   1.0000   1.0000
     1.0000   1.0000   1.0000   1.0000   1.0000   1.0000   1.0000   1.0000
     1.0000   1.0000   1.0000   1.0000   1.0000   1.0000   1.0000   1.0000
     1.0000   1.0000   1.0000   1.0000   1.0000   1.0000   1.0000   1.0000
     1.0000   1.0000   1.0000   1.0000   1.0000   1.0000   1.0000   1.0000
     1.0000   1.0000   1.0000   1.0000   1.0000   1.0000   1.0000   1.0000
     1.0000   1.0000   1.0000   1.0000   1.0000   1.0000   1.0000   1.0000
     1.0000   1.0000   1.0000   1.0000   1.0000   1.0000   1.0000   1.0000
     1.0000   1.0000   1.0000   1.0000   1.0000   1.0000   1.0000   1.0000
     1.0000   1.0000   1.0000   1.0000   1.0000   1.0000   1.0000   1.0000
     1.0000   1.0000   1.0000   1.0000   1.0000   1.0000   1.0000   1.0000
     1.0000   1.0000   1.0000   1.0000   1.0000   1.0000   1.0000   1.0000
     1.0000   1.0000   1.0000   1.0000   1.0000   1.0000   1.0000   1.0000
     1.0000   1.0000   1.0000   1.0000   1.0000   1.0000   1.0000   1.0000
     1.0000   1.0000   1.0000   1.0000   1.0000   1.0000   1.0000   1.0000
     1.0000   1.0000   1.0000   1.0000   1.0000   1.0000   1.0000   1.0000
     1.0000   1.0000   1.0000   1.0000   1.0000   1.0000   1.0000   1.0000
     1.0000   1.0000   1.0000   1.0000   1.0000   1.0000   1.0000   1.0000
     1.0000   1.0000   1.0000   1.0000   1.0000   1.0000   1.0000   1.0000
     1.0000   1.0000   1.0000   1.0000   1.0000   1.0000   1.0000   1.0000
     1.0000   1.0000   1.0000   1.0000   1.0000   1.0000   1.0000   1.0000
     1.0000   1.0000   1.0000   1.0000   1.0000   1.0000   1.0000   1.0000
     1.0000   1.0000   1.0000   1.0000   1.0000   1.0000   1.0000   1.0000
     1.0000   1.0000   1.0000   1.0000   1.0000   1.0000   1.0000   1.0000
     1.0000   1.0000   1.0000   1.0000   1.0000   1.0000   1.0000   1.0000
     1.0000   1.0000   1.0000   1.0000   1.0000   1.0000   1.0000   1.0000
     0.0000   0.0000   0.0000   0.0000   0.0000   0.0000   0.0000   0.0000
     0.0000   0.0000   0.0000   0.0000   0.0000   0.0000   0.0000   0.0000
     0.0000   0.0000   0.0000   0.0000   0.0000   0.0000   0.0000   0.0000
     0.0000   0.0000   0.0000   0.0000   0.0000   0.0000   0.0000   0.0000
     0.0000   0.0000   0.0000   0.0000   0.0000   0.0000   0.0000   0.0000
     0.0000   0.0000   0.0000   0.0000   0.0000   0.0000   0.0000   0.0000
     0.0000   0.0000   0.0000   0.0000   0.0000   0.0000   0.0000   0.0000
     0.0000   0.0000   0.0000   0.0000   0.0000   0.0000   0.0000   0.0000
     0.0000   0.0000   0.0000   0.0000   0.0000   0.0000   0.0000   0.0000
     0.0000   0.0000   0.0000   0.0000   0.0000   0.0000   0.0000   0.0000
     0.0000   0.0000   0.0000   0.0000   0.0000   0.0000   0.0000   0.0000
     0.0000   0.0000   0.0000   0.0000   0.0000   0.0000   0.0000   0.0000
     0.0000   0.0000   0.0000   0.0000   0.0000   0.0000   0.0000   0.0000
     0.0000   0.0000   0.0000   0.0000   0.0000   0.0000   0.0000   0.0000
     0.0000   0.0000   0.0000   0.0000   0.0000   0.0000   0.0000   0.0000
     0.0000   0.0000   0.0000   0.0000   0.0000   0.0000   0.0000   0.0000
     0.0000   0.0000   0.0000   0.0000   0.0000   0.0000   0.0000   0.0000
     0.0000   0.0000   0.0000   0.0000   0.0000   0.0000   0.0000   0.0000
     0.0000   0.0000   0.0000   0.0000

          k = 0.5000 0.0000 0.2500 ( 73986 PWs)   bands (ev):

   -18.1281 -18.1281 -18.0397 -18.0397 -17.9993 -17.9993 -17.9954 -17.9954
   -17.9651 -17.9651 -17.9608 -17.9608 -17.8047 -17.8047 -17.7796 -17.7796
   -15.3216 -15.3216 -15.3008 -15.3008 -15.2533 -15.2525 -15.2495 -15.2490
   -15.2402 -15.2401 -15.2353 -15.2351 -15.2229 -15.2229 -15.2149 -15.2149
   -15.1849 -15.1849 -15.1674 -15.1674 -15.0948 -15.0948 -15.0876 -15.0876
   -15.0732 -15.0732 -15.0690 -15.0690 -15.0092 -15.0092 -15.0005 -15.0005
   -12.7869 -12.7866 -12.7741 -12.7701 -12.7698 -12.7690 -12.7355 -12.7313
   -12.7265 -12.7264 -12.7231 -12.7223 -12.7175 -12.7172 -12.6990 -12.6987
   -12.6835 -12.6832 -12.6581 -12.6578 -12.6571 -12.6569 -12.6474 -12.6469
   -12.6416 -12.6413 -12.6336 -12.6335 -12.5918 -12.5916 -12.5900 -12.5898
   -12.5677 -12.5677 -12.5589 -12.5587 -12.5444 -12.5438 -12.5063 -12.5061
   -12.4985 -12.4985 -12.4916 -12.4914 -12.4906 -12.4903 -12.4172 -12.4172
   -11.3996 -11.3985 -11.3501 -11.3492 -11.2851 -11.2845 -11.2299 -11.2292
   -11.2020 -11.2016 -11.1606 -11.1599 -11.0917 -11.0902 -11.0766 -11.0746
   -11.0413 -11.0405 -11.0192 -11.0182 -10.9993 -10.9980 -10.9874 -10.9863
   -10.9773 -10.9755 -10.9245 -10.9236 -10.8936 -10.8931 -10.8479 -10.8474
   -10.8135 -10.8132 -10.7900 -10.7896 -10.7555 -10.7552 -10.6872 -10.6867
   -10.6418 -10.6415 -10.6241 -10.6237 -10.5951 -10.5949 -10.5400 -10.5394
    -6.0981  -6.0980  -6.0135  -6.0132  -5.9762  -5.9758  -5.9730  -5.9728
    -5.9417  -5.9415  -5.9352  -5.9351  -5.7959  -5.7958  -5.7738  -5.7734
    -5.1396  -5.1385  -5.0580  -5.0569  -4.8141  -4.8120  -4.7643  -4.7620
    -4.6440  -4.6423  -4.6085  -4.6070  -4.5021  -4.5016  -4.4802  -4.4792
    -4.4220  -4.4197  -4.4040  -4.4021  -4.3886  -4.3868  -4.3803  -4.3788
    -4.3741  -4.3682  -4.3640  -4.3618  -4.3547  -4.3529  -4.3447  -4.3440
    -4.3256  -4.3233  -4.3168  -4.3145  -4.3022  -4.2971  -4.2772  -4.2724
    -4.2135  -4.2108  -4.1879  -4.1863  -4.1843  -4.1807  -4.1747  -4.1722
    -0.8719  -0.8169  -0.7475  -0.7291  -0.6955  -0.6723  -0.6563  -0.6270
    -0.5615  -0.5293  -0.4501  -0.4339  -0.3801  -0.3716  -0.3353  -0.3232
    -0.2171  -0.2093  -0.1380  -0.1331  -0.0113  -0.0048   0.0408   0.0501
     0.0775   0.0936   0.1189   0.1288   0.1801   0.1965   0.2588   0.2743
     0.2830   0.3253   0.3357   0.3637   0.3960   0.4128   0.4349   0.4438
     0.4518   0.4650   0.4813   0.4999   0.5345   0.5573   0.5966   0.6216
     0.6594   0.6680   0.6887   0.7047   0.7217   0.7414   0.7507   0.7618
     0.7741   0.7992   0.8111   0.8285   0.8426   0.8564   0.8772   0.8871
     0.8967   0.9112   0.9178   0.9329   0.9476   0.9648   0.9688   0.9768
     0.9907   0.9937   1.0118   1.0196   1.0305   1.0446   1.0518   1.0623
     1.0703   1.0773   1.1022   1.1084   1.1268   1.1362   1.1431   1.1521
     1.1646   1.1766   1.1835   1.2093   1.2173   1.2241   1.2395   1.2520
     1.2588   1.2703   1.2824   1.2958   1.3029   1.3213   1.3279   1.3377
     1.3494   1.3664   1.3764   1.3875   1.4019   1.4119   1.4236   1.4311
     1.4406   1.4477   1.4614   1.4868   1.4972   1.5052   1.5232   1.5413
     1.5577   1.5709   1.5761   1.5822   1.6007   1.6201   1.6287   1.6464
     1.6704   1.6901   1.7005   1.7155   1.7482   1.7733   1.8254   1.8576
     1.9280   1.9699   2.0051   2.0194   2.1607   2.1719   2.2198   2.2347
     4.3397   4.3838   4.4275   4.4923   4.8314   4.8697   4.9218   4.9247
     5.2606   5.3043   5.3630   5.4223   5.6263   5.6887   5.7232   5.7900
     5.9707   6.0180   6.1451   6.1727   6.2694   6.3221   6.3785   6.4013
     6.5036   6.5116   6.5799   6.6102   6.6566   6.6795   6.7827   6.8254
     7.0276   7.0440   7.0890   7.1167   7.2689   7.3261   7.3923   7.4305
     7.5024   7.5254   7.6635   7.6959   7.7126   7.7422   7.7808   7.8326
     7.8678   7.8963   7.9253   7.9380   7.9757   7.9860   8.0044   8.0223
     8.0423   8.0788   8.0985   8.1249   8.1580   8.1821   8.2030   8.2171
     8.2331   8.2550   8.2790   8.2984   8.3092   8.3483   8.3824   8.3988
     8.4246   8.4329   8.4567   8.4793   8.4853   8.5069   8.5400   8.5543
     8.5631   8.5935   8.6096   8.6181   8.6382   8.6667   8.6899   8.7024
     8.7328   8.7586   8.7693   8.7869   8.7922   8.8042   8.8190   8.8282
     8.8614   8.8697   8.9071   8.9182   8.9334   8.9602   8.9659   8.9754
     8.9820   9.0142   9.0264   9.0392   9.1078   9.1231   9.1407   9.1584
     9.1630   9.1711   9.1887   9.2086   9.2392   9.2648   9.2808   9.3169
     9.3215   9.3379   9.3514   9.3758   9.3937   9.4134   9.4359   9.4486
     9.4597   9.4740   9.4940   9.4990   9.5109   9.5336   9.5441   9.5563
     9.5807   9.6007   9.6364   9.6468   9.6590   9.6744   9.7290   9.7366
     9.8487   9.8598   9.9587   9.9717

     occupation numbers 
     1.0000   1.0000   1.0000   1.0000   1.0000   1.0000   1.0000   1.0000
     1.0000   1.0000   1.0000   1.0000   1.0000   1.0000   1.0000   1.0000
     1.0000   1.0000   1.0000   1.0000   1.0000   1.0000   1.0000   1.0000
     1.0000   1.0000   1.0000   1.0000   1.0000   1.0000   1.0000   1.0000
     1.0000   1.0000   1.0000   1.0000   1.0000   1.0000   1.0000   1.0000
     1.0000   1.0000   1.0000   1.0000   1.0000   1.0000   1.0000   1.0000
     1.0000   1.0000   1.0000   1.0000   1.0000   1.0000   1.0000   1.0000
     1.0000   1.0000   1.0000   1.0000   1.0000   1.0000   1.0000   1.0000
     1.0000   1.0000   1.0000   1.0000   1.0000   1.0000   1.0000   1.0000
     1.0000   1.0000   1.0000   1.0000   1.0000   1.0000   1.0000   1.0000
     1.0000   1.0000   1.0000   1.0000   1.0000   1.0000   1.0000   1.0000
     1.0000   1.0000   1.0000   1.0000   1.0000   1.0000   1.0000   1.0000
     1.0000   1.0000   1.0000   1.0000   1.0000   1.0000   1.0000   1.0000
     1.0000   1.0000   1.0000   1.0000   1.0000   1.0000   1.0000   1.0000
     1.0000   1.0000   1.0000   1.0000   1.0000   1.0000   1.0000   1.0000
     1.0000   1.0000   1.0000   1.0000   1.0000   1.0000   1.0000   1.0000
     1.0000   1.0000   1.0000   1.0000   1.0000   1.0000   1.0000   1.0000
     1.0000   1.0000   1.0000   1.0000   1.0000   1.0000   1.0000   1.0000
     1.0000   1.0000   1.0000   1.0000   1.0000   1.0000   1.0000   1.0000
     1.0000   1.0000   1.0000   1.0000   1.0000   1.0000   1.0000   1.0000
     1.0000   1.0000   1.0000   1.0000   1.0000   1.0000   1.0000   1.0000
     1.0000   1.0000   1.0000   1.0000   1.0000   1.0000   1.0000   1.0000
     1.0000   1.0000   1.0000   1.0000   1.0000   1.0000   1.0000   1.0000
     1.0000   1.0000   1.0000   1.0000   1.0000   1.0000   1.0000   1.0000
     1.0000   1.0000   1.0000   1.0000   1.0000   1.0000   1.0000   1.0000
     1.0000   1.0000   1.0000   1.0000   1.0000   1.0000   1.0000   1.0000
     1.0000   1.0000   1.0000   1.0000   1.0000   1.0000   1.0000   1.0000
     1.0000   1.0000   1.0000   1.0000   1.0000   1.0000   1.0000   1.0000
     1.0000   1.0000   1.0000   1.0000   1.0000   1.0000   1.0000   1.0000
     1.0000   1.0000   1.0000   1.0000   1.0000   1.0000   1.0000   1.0000
     1.0000   1.0000   1.0000   1.0000   1.0000   1.0000   1.0000   1.0000
     1.0000   1.0000   1.0000   1.0000   1.0000   1.0000   1.0000   1.0000
     1.0000   1.0000   1.0000   1.0000   1.0000   1.0000   1.0000   1.0000
     1.0000   1.0000   1.0000   1.0000   1.0000   1.0000   1.0000   1.0000
     1.0000   1.0000   1.0000   1.0000   1.0000   1.0000   1.0000   1.0000
     1.0000   1.0000   1.0000   1.0000   1.0000   1.0000   1.0000   1.0000
     1.0000   1.0000   1.0000   1.0000   1.0000   1.0000   1.0000   1.0000
     1.0000   1.0000   1.0000   1.0000   1.0000   1.0000   1.0000   1.0000
     1.0000   1.0000   1.0000   1.0000   1.0000   1.0000   1.0000   1.0000
     1.0000   1.0000   1.0000   1.0000   1.0000   1.0000   1.0000   1.0000
     1.0000   1.0000   1.0000   1.0000   1.0000   1.0000   1.0000   1.0000
     1.0000   1.0000   1.0000   1.0000   1.0000   1.0000   1.0000   1.0000
     1.0000   1.0000   1.0000   1.0000   1.0000   1.0000   1.0000   1.0000
     1.0000   1.0000   1.0000   1.0000   1.0000   1.0000   1.0000   1.0000
     0.0000   0.0000   0.0000   0.0000   0.0000   0.0000   0.0000   0.0000
     0.0000   0.0000   0.0000   0.0000   0.0000   0.0000   0.0000   0.0000
     0.0000   0.0000   0.0000   0.0000   0.0000   0.0000   0.0000   0.0000
     0.0000   0.0000   0.0000   0.0000   0.0000   0.0000   0.0000   0.0000
     0.0000   0.0000   0.0000   0.0000   0.0000   0.0000   0.0000   0.0000
     0.0000   0.0000   0.0000   0.0000   0.0000   0.0000   0.0000   0.0000
     0.0000   0.0000   0.0000   0.0000   0.0000   0.0000   0.0000   0.0000
     0.0000   0.0000   0.0000   0.0000   0.0000   0.0000   0.0000   0.0000
     0.0000   0.0000   0.0000   0.0000   0.0000   0.0000   0.0000   0.0000
     0.0000   0.0000   0.0000   0.0000   0.0000   0.0000   0.0000   0.0000
     0.0000   0.0000   0.0000   0.0000   0.0000   0.0000   0.0000   0.0000
     0.0000   0.0000   0.0000   0.0000   0.0000   0.0000   0.0000   0.0000
     0.0000   0.0000   0.0000   0.0000   0.0000   0.0000   0.0000   0.0000
     0.0000   0.0000   0.0000   0.0000   0.0000   0.0000   0.0000   0.0000
     0.0000   0.0000   0.0000   0.0000   0.0000   0.0000   0.0000   0.0000
     0.0000   0.0000   0.0000   0.0000   0.0000   0.0000   0.0000   0.0000
     0.0000   0.0000   0.0000   0.0000   0.0000   0.0000   0.0000   0.0000
     0.0000   0.0000   0.0000   0.0000   0.0000   0.0000   0.0000   0.0000
     0.0000   0.0000   0.0000   0.0000

          k = 0.5000 0.0000 0.5000 ( 73872 PWs)   bands (ev):

   -18.1281 -18.1281 -18.0397 -18.0397 -17.9993 -17.9993 -17.9954 -17.9954
   -17.9651 -17.9651 -17.9608 -17.9608 -17.8047 -17.8047 -17.7796 -17.7796
   -15.3215 -15.3215 -15.3008 -15.3008 -15.2516 -15.2516 -15.2502 -15.2502
   -15.2402 -15.2402 -15.2355 -15.2355 -15.2229 -15.2229 -15.2149 -15.2149
   -15.1849 -15.1849 -15.1674 -15.1674 -15.0947 -15.0947 -15.0876 -15.0876
   -15.0731 -15.0731 -15.0690 -15.0690 -15.0092 -15.0092 -15.0005 -15.0005
   -12.7863 -12.7863 -12.7689 -12.7689 -12.7590 -12.7590 -12.7450 -12.7450
   -12.7264 -12.7264 -12.7239 -12.7239 -12.7178 -12.7178 -12.6984 -12.6984
   -12.6828 -12.6828 -12.6580 -12.6580 -12.6570 -12.6570 -12.6478 -12.6478
   -12.6420 -12.6420 -12.6335 -12.6335 -12.5921 -12.5921 -12.5899 -12.5899
   -12.5673 -12.5673 -12.5572 -12.5572 -12.5450 -12.5450 -12.5073 -12.5073
   -12.4984 -12.4984 -12.4926 -12.4926 -12.4907 -12.4907 -12.4172 -12.4172
   -11.3899 -11.3899 -11.3634 -11.3634 -11.2801 -11.2801 -11.2433 -11.2433
   -11.2000 -11.2000 -11.1547 -11.1547 -11.0884 -11.0884 -11.0647 -11.0647
   -11.0440 -11.0440 -11.0219 -11.0219 -10.9971 -10.9971 -10.9861 -10.9861
   -10.9770 -10.9770 -10.9286 -10.9286 -10.8919 -10.8919 -10.8466 -10.8466
   -10.8038 -10.8038 -10.7864 -10.7864 -10.7572 -10.7572 -10.6881 -10.6881
   -10.6400 -10.6400 -10.6249 -10.6249 -10.6002 -10.6002 -10.5437 -10.5437
    -6.0980  -6.0980  -6.0133  -6.0133  -5.9759  -5.9759  -5.9728  -5.9728
    -5.9418  -5.9418  -5.9352  -5.9352  -5.7958  -5.7958  -5.7736  -5.7736
    -4.9994  -4.9994  -4.9735  -4.9735  -4.9281  -4.9281  -4.9059  -4.9059
    -4.5424  -4.5424  -4.5220  -4.5220  -4.4945  -4.4945  -4.4738  -4.4738
    -4.4480  -4.4480  -4.4373  -4.4373  -4.4123  -4.4123  -4.3912  -4.3912
    -4.3834  -4.3834  -4.3738  -4.3738  -4.3628  -4.3628  -4.3548  -4.3548
    -4.3497  -4.3497  -4.3394  -4.3394  -4.3193  -4.3193  -4.3127  -4.3127
    -4.2140  -4.2140  -4.1874  -4.1874  -4.1837  -4.1837  -4.1749  -4.1749
    -0.7638  -0.7638  -0.7124  -0.7124  -0.6683  -0.6683  -0.5365  -0.5365
    -0.3878  -0.3878  -0.3108  -0.3108  -0.2268  -0.2268  -0.2005  -0.2005
    -0.1137  -0.1137  -0.0717  -0.0717  -0.0086  -0.0086   0.0479   0.0479
     0.0899   0.0899   0.1227   0.1227   0.1856   0.1856   0.1998   0.1998
     0.2567   0.2567   0.2787   0.2787   0.3161   0.3161   0.3669   0.3669
     0.4069   0.4069   0.4363   0.4363   0.4853   0.4853   0.5264   0.5264
     0.6343   0.6343   0.6640   0.6640   0.7037   0.7037   0.7165   0.7165
     0.7490   0.7490   0.7907   0.7907   0.8253   0.8253   0.8666   0.8666
     0.8907   0.8907   0.9122   0.9122   0.9374   0.9374   0.9611   0.9611
     0.9767   0.9767   1.0052   1.0052   1.0253   1.0253   1.0425   1.0425
     1.0800   1.0800   1.0988   1.0988   1.1177   1.1177   1.1456   1.1456
     1.1651   1.1651   1.1996   1.1996   1.2122   1.2122   1.2381   1.2381
     1.2740   1.2740   1.2934   1.2934   1.3104   1.3104   1.3352   1.3352
     1.3637   1.3637   1.3850   1.3850   1.4040   1.4040   1.4295   1.4295
     1.4429   1.4429   1.4707   1.4707   1.5031   1.5031   1.5247   1.5247
     1.5488   1.5488   1.5683   1.5683   1.6021   1.6021   1.6406   1.6406
     1.6576   1.6576   1.6716   1.6716   1.7205   1.7205   1.8140   1.8140
     1.9562   1.9562   2.0158   2.0158   2.0536   2.0536   2.1077   2.1077
     4.5568   4.5568   4.6002   4.6002   4.8096   4.8096   4.8780   4.8780
     5.6312   5.6312   5.7011   5.7011   5.8205   5.8205   5.9300   5.9300
     6.1282   6.1282   6.1833   6.1833   6.3398   6.3398   6.4660   6.4660
     6.5754   6.5754   6.6637   6.6637   6.7524   6.7524   6.8229   6.8229
     6.9487   6.9487   7.0115   7.0115   7.0462   7.0462   7.0975   7.0975
     7.4444   7.4444   7.5305   7.5305   7.6169   7.6169   7.6669   7.6669
     7.7639   7.7639   7.8794   7.8794   7.9457   7.9457   7.9973   7.9973
     8.0313   8.0313   8.0639   8.0639   8.1175   8.1175   8.1978   8.1978
     8.2122   8.2122   8.2727   8.2727   8.3417   8.3417   8.3672   8.3672
     8.3988   8.3988   8.4626   8.4626   8.4924   8.4924   8.5229   8.5229
     8.5726   8.5726   8.5874   8.5874   8.6274   8.6274   8.6800   8.6800
     8.6981   8.6981   8.7541   8.7541   8.8082   8.8082   8.8335   8.8335
     8.8520   8.8520   8.8883   8.8883   8.9712   8.9712   9.0139   9.0139
     9.0577   9.0577   9.0775   9.0775   9.0914   9.0915   9.1508   9.1508
     9.1797   9.1797   9.2324   9.2324   9.2764   9.2764   9.3014   9.3014
     9.3131   9.3131   9.3612   9.3612   9.3901   9.3901   9.4252   9.4252
     9.4549   9.4549   9.4830   9.4830   9.5061   9.5062   9.5344   9.5344
     9.5722   9.5722   9.6375   9.6375   9.6869   9.6869   9.6974   9.6975
     9.9230   9.9231  10.0278  10.0284

     occupation numbers 
     1.0000   1.0000   1.0000   1.0000   1.0000   1.0000   1.0000   1.0000
     1.0000   1.0000   1.0000   1.0000   1.0000   1.0000   1.0000   1.0000
     1.0000   1.0000   1.0000   1.0000   1.0000   1.0000   1.0000   1.0000
     1.0000   1.0000   1.0000   1.0000   1.0000   1.0000   1.0000   1.0000
     1.0000   1.0000   1.0000   1.0000   1.0000   1.0000   1.0000   1.0000
     1.0000   1.0000   1.0000   1.0000   1.0000   1.0000   1.0000   1.0000
     1.0000   1.0000   1.0000   1.0000   1.0000   1.0000   1.0000   1.0000
     1.0000   1.0000   1.0000   1.0000   1.0000   1.0000   1.0000   1.0000
     1.0000   1.0000   1.0000   1.0000   1.0000   1.0000   1.0000   1.0000
     1.0000   1.0000   1.0000   1.0000   1.0000   1.0000   1.0000   1.0000
     1.0000   1.0000   1.0000   1.0000   1.0000   1.0000   1.0000   1.0000
     1.0000   1.0000   1.0000   1.0000   1.0000   1.0000   1.0000   1.0000
     1.0000   1.0000   1.0000   1.0000   1.0000   1.0000   1.0000   1.0000
     1.0000   1.0000   1.0000   1.0000   1.0000   1.0000   1.0000   1.0000
     1.0000   1.0000   1.0000   1.0000   1.0000   1.0000   1.0000   1.0000
     1.0000   1.0000   1.0000   1.0000   1.0000   1.0000   1.0000   1.0000
     1.0000   1.0000   1.0000   1.0000   1.0000   1.0000   1.0000   1.0000
     1.0000   1.0000   1.0000   1.0000   1.0000   1.0000   1.0000   1.0000
     1.0000   1.0000   1.0000   1.0000   1.0000   1.0000   1.0000   1.0000
     1.0000   1.0000   1.0000   1.0000   1.0000   1.0000   1.0000   1.0000
     1.0000   1.0000   1.0000   1.0000   1.0000   1.0000   1.0000   1.0000
     1.0000   1.0000   1.0000   1.0000   1.0000   1.0000   1.0000   1.0000
     1.0000   1.0000   1.0000   1.0000   1.0000   1.0000   1.0000   1.0000
     1.0000   1.0000   1.0000   1.0000   1.0000   1.0000   1.0000   1.0000
     1.0000   1.0000   1.0000   1.0000   1.0000   1.0000   1.0000   1.0000
     1.0000   1.0000   1.0000   1.0000   1.0000   1.0000   1.0000   1.0000
     1.0000   1.0000   1.0000   1.0000   1.0000   1.0000   1.0000   1.0000
     1.0000   1.0000   1.0000   1.0000   1.0000   1.0000   1.0000   1.0000
     1.0000   1.0000   1.0000   1.0000   1.0000   1.0000   1.0000   1.0000
     1.0000   1.0000   1.0000   1.0000   1.0000   1.0000   1.0000   1.0000
     1.0000   1.0000   1.0000   1.0000   1.0000   1.0000   1.0000   1.0000
     1.0000   1.0000   1.0000   1.0000   1.0000   1.0000   1.0000   1.0000
     1.0000   1.0000   1.0000   1.0000   1.0000   1.0000   1.0000   1.0000
     1.0000   1.0000   1.0000   1.0000   1.0000   1.0000   1.0000   1.0000
     1.0000   1.0000   1.0000   1.0000   1.0000   1.0000   1.0000   1.0000
     1.0000   1.0000   1.0000   1.0000   1.0000   1.0000   1.0000   1.0000
     1.0000   1.0000   1.0000   1.0000   1.0000   1.0000   1.0000   1.0000
     1.0000   1.0000   1.0000   1.0000   1.0000   1.0000   1.0000   1.0000
     1.0000   1.0000   1.0000   1.0000   1.0000   1.0000   1.0000   1.0000
     1.0000   1.0000   1.0000   1.0000   1.0000   1.0000   1.0000   1.0000
     1.0000   1.0000   1.0000   1.0000   1.0000   1.0000   1.0000   1.0000
     1.0000   1.0000   1.0000   1.0000   1.0000   1.0000   1.0000   1.0000
     1.0000   1.0000   1.0000   1.0000   1.0000   1.0000   1.0000   1.0000
     1.0000   1.0000   1.0000   1.0000   1.0000   1.0000   1.0000   1.0000
     0.0000   0.0000   0.0000   0.0000   0.0000   0.0000   0.0000   0.0000
     0.0000   0.0000   0.0000   0.0000   0.0000   0.0000   0.0000   0.0000
     0.0000   0.0000   0.0000   0.0000   0.0000   0.0000   0.0000   0.0000
     0.0000   0.0000   0.0000   0.0000   0.0000   0.0000   0.0000   0.0000
     0.0000   0.0000   0.0000   0.0000   0.0000   0.0000   0.0000   0.0000
     0.0000   0.0000   0.0000   0.0000   0.0000   0.0000   0.0000   0.0000
     0.0000   0.0000   0.0000   0.0000   0.0000   0.0000   0.0000   0.0000
     0.0000   0.0000   0.0000   0.0000   0.0000   0.0000   0.0000   0.0000
     0.0000   0.0000   0.0000   0.0000   0.0000   0.0000   0.0000   0.0000
     0.0000   0.0000   0.0000   0.0000   0.0000   0.0000   0.0000   0.0000
     0.0000   0.0000   0.0000   0.0000   0.0000   0.0000   0.0000   0.0000
     0.0000   0.0000   0.0000   0.0000   0.0000   0.0000   0.0000   0.0000
     0.0000   0.0000   0.0000   0.0000   0.0000   0.0000   0.0000   0.0000
     0.0000   0.0000   0.0000   0.0000   0.0000   0.0000   0.0000   0.0000
     0.0000   0.0000   0.0000   0.0000   0.0000   0.0000   0.0000   0.0000
     0.0000   0.0000   0.0000   0.0000   0.0000   0.0000   0.0000   0.0000
     0.0000   0.0000   0.0000   0.0000   0.0000   0.0000   0.0000   0.0000
     0.0000   0.0000   0.0000   0.0000   0.0000   0.0000   0.0000   0.0000
     0.0000   0.0000   0.0000   0.0000

          k = 0.5000 0.0000 0.7500 ( 73986 PWs)   bands (ev):

   -18.1281 -18.1281 -18.0397 -18.0397 -17.9993 -17.9993 -17.9954 -17.9954
   -17.9651 -17.9651 -17.9608 -17.9608 -17.8047 -17.8047 -17.7796 -17.7796
   -15.3216 -15.3216 -15.3008 -15.3008 -15.2533 -15.2525 -15.2495 -15.2490
   -15.2402 -15.2401 -15.2353 -15.2351 -15.2229 -15.2229 -15.2149 -15.2149
   -15.1849 -15.1849 -15.1674 -15.1674 -15.0948 -15.0948 -15.0876 -15.0876
   -15.0732 -15.0732 -15.0690 -15.0690 -15.0092 -15.0092 -15.0005 -15.0005
   -12.7869 -12.7866 -12.7741 -12.7701 -12.7698 -12.7690 -12.7355 -12.7313
   -12.7265 -12.7264 -12.7231 -12.7223 -12.7175 -12.7172 -12.6990 -12.6987
   -12.6835 -12.6832 -12.6581 -12.6578 -12.6571 -12.6569 -12.6474 -12.6469
   -12.6416 -12.6413 -12.6336 -12.6335 -12.5918 -12.5916 -12.5900 -12.5898
   -12.5677 -12.5677 -12.5589 -12.5587 -12.5444 -12.5438 -12.5063 -12.5061
   -12.4985 -12.4985 -12.4916 -12.4914 -12.4906 -12.4903 -12.4172 -12.4172
   -11.3996 -11.3985 -11.3501 -11.3492 -11.2851 -11.2845 -11.2299 -11.2292
   -11.2020 -11.2016 -11.1606 -11.1599 -11.0917 -11.0902 -11.0766 -11.0746
   -11.0413 -11.0405 -11.0192 -11.0182 -10.9993 -10.9980 -10.9874 -10.9863
   -10.9773 -10.9755 -10.9245 -10.9236 -10.8936 -10.8931 -10.8479 -10.8474
   -10.8135 -10.8132 -10.7900 -10.7896 -10.7555 -10.7552 -10.6872 -10.6867
   -10.6418 -10.6415 -10.6241 -10.6237 -10.5951 -10.5949 -10.5400 -10.5394
    -6.0981  -6.0980  -6.0135  -6.0132  -5.9762  -5.9758  -5.9730  -5.9728
    -5.9417  -5.9415  -5.9352  -5.9351  -5.7959  -5.7958  -5.7738  -5.7734
    -5.1396  -5.1385  -5.0580  -5.0569  -4.8141  -4.8120  -4.7643  -4.7620
    -4.6440  -4.6423  -4.6085  -4.6070  -4.5021  -4.5016  -4.4802  -4.4792
    -4.4220  -4.4197  -4.4040  -4.4021  -4.3886  -4.3868  -4.3803  -4.3788
    -4.3741  -4.3682  -4.3640  -4.3618  -4.3547  -4.3529  -4.3447  -4.3440
    -4.3256  -4.3233  -4.3168  -4.3145  -4.3022  -4.2971  -4.2772  -4.2724
    -4.2135  -4.2108  -4.1879  -4.1863  -4.1843  -4.1807  -4.1747  -4.1722
    -0.8719  -0.8169  -0.7475  -0.7291  -0.6955  -0.6723  -0.6563  -0.6270
    -0.5615  -0.5293  -0.4501  -0.4339  -0.3801  -0.3716  -0.3353  -0.3232
    -0.2171  -0.2093  -0.1380  -0.1331  -0.0113  -0.0048   0.0408   0.0501
     0.0775   0.0936   0.1189   0.1288   0.1801   0.1965   0.2588   0.2743
     0.2830   0.3253   0.3357   0.3637   0.3960   0.4128   0.4349   0.4438
     0.4518   0.4650   0.4813   0.4999   0.5345   0.5573   0.5966   0.6216
     0.6594   0.6680   0.6887   0.7047   0.7217   0.7414   0.7507   0.7618
     0.7741   0.7992   0.8111   0.8285   0.8426   0.8564   0.8772   0.8871
     0.8967   0.9112   0.9178   0.9329   0.9476   0.9648   0.9688   0.9768
     0.9907   0.9937   1.0118   1.0196   1.0305   1.0446   1.0518   1.0623
     1.0703   1.0773   1.1022   1.1084   1.1268   1.1362   1.1431   1.1521
     1.1646   1.1766   1.1835   1.2093   1.2173   1.2241   1.2395   1.2520
     1.2588   1.2703   1.2824   1.2958   1.3029   1.3213   1.3279   1.3377
     1.3494   1.3664   1.3764   1.3875   1.4019   1.4119   1.4236   1.4311
     1.4406   1.4477   1.4614   1.4868   1.4972   1.5052   1.5232   1.5413
     1.5577   1.5709   1.5761   1.5822   1.6007   1.6201   1.6287   1.6464
     1.6704   1.6901   1.7005   1.7155   1.7482   1.7733   1.8254   1.8576
     1.9280   1.9699   2.0051   2.0194   2.1607   2.1719   2.2198   2.2347
     4.3397   4.3838   4.4275   4.4923   4.8314   4.8697   4.9218   4.9247
     5.2606   5.3043   5.3630   5.4223   5.6263   5.6887   5.7232   5.7900
     5.9707   6.0180   6.1451   6.1727   6.2694   6.3221   6.3785   6.4013
     6.5036   6.5116   6.5799   6.6102   6.6566   6.6795   6.7827   6.8254
     7.0276   7.0440   7.0890   7.1167   7.2689   7.3261   7.3923   7.4305
     7.5024   7.5254   7.6635   7.6959   7.7126   7.7422   7.7808   7.8326
     7.8678   7.8963   7.9253   7.9380   7.9757   7.9860   8.0044   8.0223
     8.0423   8.0788   8.0985   8.1249   8.1580   8.1821   8.2030   8.2171
     8.2331   8.2550   8.2790   8.2984   8.3092   8.3483   8.3824   8.3988
     8.4246   8.4329   8.4567   8.4793   8.4853   8.5069   8.5400   8.5543
     8.5631   8.5935   8.6096   8.6181   8.6382   8.6667   8.6899   8.7024
     8.7328   8.7586   8.7693   8.7869   8.7922   8.8042   8.8190   8.8282
     8.8614   8.8697   8.9071   8.9182   8.9334   8.9602   8.9659   8.9754
     8.9820   9.0142   9.0264   9.0392   9.1078   9.1231   9.1407   9.1584
     9.1630   9.1711   9.1887   9.2086   9.2392   9.2648   9.2808   9.3169
     9.3215   9.3379   9.3514   9.3758   9.3937   9.4134   9.4359   9.4486
     9.4597   9.4740   9.4940   9.4989   9.5109   9.5336   9.5441   9.5563
     9.5808   9.6007   9.6364   9.6469   9.6590   9.6744   9.7290   9.7366
     9.8488   9.8599   9.9587   9.9718

     occupation numbers 
     1.0000   1.0000   1.0000   1.0000   1.0000   1.0000   1.0000   1.0000
     1.0000   1.0000   1.0000   1.0000   1.0000   1.0000   1.0000   1.0000
     1.0000   1.0000   1.0000   1.0000   1.0000   1.0000   1.0000   1.0000
     1.0000   1.0000   1.0000   1.0000   1.0000   1.0000   1.0000   1.0000
     1.0000   1.0000   1.0000   1.0000   1.0000   1.0000   1.0000   1.0000
     1.0000   1.0000   1.0000   1.0000   1.0000   1.0000   1.0000   1.0000
     1.0000   1.0000   1.0000   1.0000   1.0000   1.0000   1.0000   1.0000
     1.0000   1.0000   1.0000   1.0000   1.0000   1.0000   1.0000   1.0000
     1.0000   1.0000   1.0000   1.0000   1.0000   1.0000   1.0000   1.0000
     1.0000   1.0000   1.0000   1.0000   1.0000   1.0000   1.0000   1.0000
     1.0000   1.0000   1.0000   1.0000   1.0000   1.0000   1.0000   1.0000
     1.0000   1.0000   1.0000   1.0000   1.0000   1.0000   1.0000   1.0000
     1.0000   1.0000   1.0000   1.0000   1.0000   1.0000   1.0000   1.0000
     1.0000   1.0000   1.0000   1.0000   1.0000   1.0000   1.0000   1.0000
     1.0000   1.0000   1.0000   1.0000   1.0000   1.0000   1.0000   1.0000
     1.0000   1.0000   1.0000   1.0000   1.0000   1.0000   1.0000   1.0000
     1.0000   1.0000   1.0000   1.0000   1.0000   1.0000   1.0000   1.0000
     1.0000   1.0000   1.0000   1.0000   1.0000   1.0000   1.0000   1.0000
     1.0000   1.0000   1.0000   1.0000   1.0000   1.0000   1.0000   1.0000
     1.0000   1.0000   1.0000   1.0000   1.0000   1.0000   1.0000   1.0000
     1.0000   1.0000   1.0000   1.0000   1.0000   1.0000   1.0000   1.0000
     1.0000   1.0000   1.0000   1.0000   1.0000   1.0000   1.0000   1.0000
     1.0000   1.0000   1.0000   1.0000   1.0000   1.0000   1.0000   1.0000
     1.0000   1.0000   1.0000   1.0000   1.0000   1.0000   1.0000   1.0000
     1.0000   1.0000   1.0000   1.0000   1.0000   1.0000   1.0000   1.0000
     1.0000   1.0000   1.0000   1.0000   1.0000   1.0000   1.0000   1.0000
     1.0000   1.0000   1.0000   1.0000   1.0000   1.0000   1.0000   1.0000
     1.0000   1.0000   1.0000   1.0000   1.0000   1.0000   1.0000   1.0000
     1.0000   1.0000   1.0000   1.0000   1.0000   1.0000   1.0000   1.0000
     1.0000   1.0000   1.0000   1.0000   1.0000   1.0000   1.0000   1.0000
     1.0000   1.0000   1.0000   1.0000   1.0000   1.0000   1.0000   1.0000
     1.0000   1.0000   1.0000   1.0000   1.0000   1.0000   1.0000   1.0000
     1.0000   1.0000   1.0000   1.0000   1.0000   1.0000   1.0000   1.0000
     1.0000   1.0000   1.0000   1.0000   1.0000   1.0000   1.0000   1.0000
     1.0000   1.0000   1.0000   1.0000   1.0000   1.0000   1.0000   1.0000
     1.0000   1.0000   1.0000   1.0000   1.0000   1.0000   1.0000   1.0000
     1.0000   1.0000   1.0000   1.0000   1.0000   1.0000   1.0000   1.0000
     1.0000   1.0000   1.0000   1.0000   1.0000   1.0000   1.0000   1.0000
     1.0000   1.0000   1.0000   1.0000   1.0000   1.0000   1.0000   1.0000
     1.0000   1.0000   1.0000   1.0000   1.0000   1.0000   1.0000   1.0000
     1.0000   1.0000   1.0000   1.0000   1.0000   1.0000   1.0000   1.0000
     1.0000   1.0000   1.0000   1.0000   1.0000   1.0000   1.0000   1.0000
     1.0000   1.0000   1.0000   1.0000   1.0000   1.0000   1.0000   1.0000
     1.0000   1.0000   1.0000   1.0000   1.0000   1.0000   1.0000   1.0000
     0.0000   0.0000   0.0000   0.0000   0.0000   0.0000   0.0000   0.0000
     0.0000   0.0000   0.0000   0.0000   0.0000   0.0000   0.0000   0.0000
     0.0000   0.0000   0.0000   0.0000   0.0000   0.0000   0.0000   0.0000
     0.0000   0.0000   0.0000   0.0000   0.0000   0.0000   0.0000   0.0000
     0.0000   0.0000   0.0000   0.0000   0.0000   0.0000   0.0000   0.0000
     0.0000   0.0000   0.0000   0.0000   0.0000   0.0000   0.0000   0.0000
     0.0000   0.0000   0.0000   0.0000   0.0000   0.0000   0.0000   0.0000
     0.0000   0.0000   0.0000   0.0000   0.0000   0.0000   0.0000   0.0000
     0.0000   0.0000   0.0000   0.0000   0.0000   0.0000   0.0000   0.0000
     0.0000   0.0000   0.0000   0.0000   0.0000   0.0000   0.0000   0.0000
     0.0000   0.0000   0.0000   0.0000   0.0000   0.0000   0.0000   0.0000
     0.0000   0.0000   0.0000   0.0000   0.0000   0.0000   0.0000   0.0000
     0.0000   0.0000   0.0000   0.0000   0.0000   0.0000   0.0000   0.0000
     0.0000   0.0000   0.0000   0.0000   0.0000   0.0000   0.0000   0.0000
     0.0000   0.0000   0.0000   0.0000   0.0000   0.0000   0.0000   0.0000
     0.0000   0.0000   0.0000   0.0000   0.0000   0.0000   0.0000   0.0000
     0.0000   0.0000   0.0000   0.0000   0.0000   0.0000   0.0000   0.0000
     0.0000   0.0000   0.0000   0.0000   0.0000   0.0000   0.0000   0.0000
     0.0000   0.0000   0.0000   0.0000

          k = 0.5000 0.2500 0.0000 ( 73986 PWs)   bands (ev):

   -18.1281 -18.1281 -18.0397 -18.0397 -17.9993 -17.9993 -17.9954 -17.9954
   -17.9651 -17.9651 -17.9608 -17.9608 -17.8047 -17.8047 -17.7796 -17.7796
   -15.3216 -15.3216 -15.3009 -15.3008 -15.2537 -15.2537 -15.2487 -15.2487
   -15.2401 -15.2401 -15.2349 -15.2349 -15.2229 -15.2228 -15.2149 -15.2149
   -15.1849 -15.1849 -15.1675 -15.1674 -15.0948 -15.0948 -15.0876 -15.0876
   -15.0732 -15.0732 -15.0690 -15.0690 -15.0092 -15.0092 -15.0005 -15.0005
   -12.7874 -12.7873 -12.7790 -12.7789 -12.7704 -12.7698 -12.7288 -12.7287
   -12.7263 -12.7263 -12.7206 -12.7203 -12.7150 -12.7144 -12.6968 -12.6960
   -12.6827 -12.6826 -12.6583 -12.6581 -12.6570 -12.6569 -12.6486 -12.6479
   -12.6434 -12.6430 -12.6337 -12.6336 -12.5922 -12.5914 -12.5900 -12.5899
   -12.5700 -12.5693 -12.5602 -12.5602 -12.5431 -12.5431 -12.5062 -12.5055
   -12.4987 -12.4986 -12.4912 -12.4911 -12.4894 -12.4893 -12.4172 -12.4172
   -11.4034 -11.4029 -11.3394 -11.3391 -11.2793 -11.2788 -11.2275 -11.2269
   -11.2144 -11.2134 -11.1730 -11.1722 -11.1066 -11.1053 -11.0784 -11.0761
   -11.0427 -11.0413 -11.0219 -11.0195 -10.9901 -10.9887 -10.9790 -10.9782
   -10.9550 -10.9519 -10.9152 -10.9131 -10.8932 -10.8918 -10.8468 -10.8458
   -10.8323 -10.8306 -10.7922 -10.7918 -10.7643 -10.7624 -10.6848 -10.6848
   -10.6456 -10.6454 -10.6199 -10.6196 -10.5922 -10.5920 -10.5402 -10.5396
    -6.0981  -6.0980  -6.0135  -6.0134  -5.9761  -5.9757  -5.9732  -5.9728
    -5.9423  -5.9394  -5.9371  -5.9341  -5.7959  -5.7958  -5.7736  -5.7735
    -5.1544  -5.1537  -5.0624  -5.0621  -4.7845  -4.7833  -4.7452  -4.7434
    -4.6710  -4.6688  -4.6102  -4.6071  -4.5016  -4.5009  -4.4806  -4.4798
    -4.4232  -4.4204  -4.4075  -4.4035  -4.3889  -4.3863  -4.3811  -4.3783
    -4.3725  -4.3681  -4.3627  -4.3614  -4.3574  -4.3518  -4.3438  -4.3412
    -4.3248  -4.3216  -4.3170  -4.3156  -4.2984  -4.2956  -4.2703  -4.2667
    -4.2132  -4.2114  -4.1882  -4.1877  -4.1842  -4.1815  -4.1744  -4.1733
    -1.0226  -0.9893  -0.7006  -0.6780  -0.6462  -0.5991  -0.5660  -0.5576
    -0.5454  -0.5378  -0.4594  -0.4396  -0.4065  -0.3921  -0.3655  -0.3583
    -0.1986  -0.1848  -0.1629  -0.1547  -0.0125  -0.0012   0.0257   0.0356
     0.0630   0.0887   0.1253   0.1375   0.1896   0.2043   0.2502   0.2671
     0.2905   0.3213   0.3476   0.3731   0.3908   0.4108   0.4170   0.4351
     0.4548   0.4780   0.4912   0.5060   0.5252   0.5723   0.6014   0.6178
     0.6783   0.6899   0.7037   0.7176   0.7282   0.7461   0.7678   0.7700
     0.7898   0.8099   0.8192   0.8274   0.8408   0.8542   0.8690   0.8787
     0.8902   0.9007   0.9211   0.9272   0.9415   0.9509   0.9649   0.9761
     0.9868   1.0007   1.0104   1.0199   1.0266   1.0390   1.0479   1.0575
     1.0774   1.0913   1.1001   1.1138   1.1238   1.1350   1.1492   1.1569
     1.1678   1.1783   1.1909   1.2045   1.2156   1.2234   1.2337   1.2429
     1.2511   1.2636   1.2878   1.2926   1.3017   1.3134   1.3296   1.3352
     1.3492   1.3626   1.3742   1.3821   1.3958   1.4021   1.4231   1.4333
     1.4386   1.4557   1.4603   1.4796   1.4958   1.5081   1.5199   1.5353
     1.5490   1.5713   1.5811   1.5887   1.6015   1.6093   1.6325   1.6422
     1.6788   1.6864   1.7073   1.7330   1.7896   1.8196   1.8547   1.8839
     1.9023   1.9259   1.9980   2.0194   2.1628   2.1773   2.2090   2.2300
     4.3493   4.3662   4.4709   4.5319   4.7808   4.8417   4.9343   5.0262
     5.2355   5.2663   5.3349   5.3799   5.6138   5.6359   5.7075   5.7599
     5.9650   6.0248   6.1172   6.1782   6.2757   6.2971   6.3722   6.4061
     6.4377   6.4750   6.5808   6.6315   6.6526   6.6855   6.7806   6.8255
     7.0009   7.0514   7.0865   7.1242   7.1966   7.2803   7.3612   7.3910
     7.5433   7.5969   7.6823   7.7073   7.7516   7.7876   7.8003   7.8303
     7.8667   7.9248   7.9378   7.9671   7.9805   8.0008   8.0162   8.0312
     8.0455   8.0627   8.0908   8.1067   8.1355   8.1544   8.1839   8.2080
     8.2578   8.2742   8.2858   8.3025   8.3459   8.3543   8.3679   8.3934
     8.4226   8.4278   8.4656   8.4812   8.4969   8.5158   8.5640   8.5683
     8.5992   8.6123   8.6269   8.6399   8.6529   8.6690   8.6913   8.7068
     8.7381   8.7493   8.7799   8.7942   8.7985   8.8051   8.8295   8.8458
     8.8592   8.8659   8.9013   8.9174   8.9504   8.9721   8.9820   9.0063
     9.0146   9.0318   9.0487   9.0614   9.0906   9.1055   9.1205   9.1407
     9.1635   9.1700   9.2122   9.2302   9.2423   9.2606   9.2773   9.2919
     9.3357   9.3518   9.3533   9.3763   9.3924   9.3999   9.4182   9.4380
     9.4498   9.4645   9.4871   9.4987   9.5097   9.5163   9.5507   9.5636
     9.5819   9.5928   9.6340   9.6387   9.6592   9.6629   9.7491   9.7577
     9.8877   9.9020   9.9554   9.9708

     occupation numbers 
     1.0000   1.0000   1.0000   1.0000   1.0000   1.0000   1.0000   1.0000
     1.0000   1.0000   1.0000   1.0000   1.0000   1.0000   1.0000   1.0000
     1.0000   1.0000   1.0000   1.0000   1.0000   1.0000   1.0000   1.0000
     1.0000   1.0000   1.0000   1.0000   1.0000   1.0000   1.0000   1.0000
     1.0000   1.0000   1.0000   1.0000   1.0000   1.0000   1.0000   1.0000
     1.0000   1.0000   1.0000   1.0000   1.0000   1.0000   1.0000   1.0000
     1.0000   1.0000   1.0000   1.0000   1.0000   1.0000   1.0000   1.0000
     1.0000   1.0000   1.0000   1.0000   1.0000   1.0000   1.0000   1.0000
     1.0000   1.0000   1.0000   1.0000   1.0000   1.0000   1.0000   1.0000
     1.0000   1.0000   1.0000   1.0000   1.0000   1.0000   1.0000   1.0000
     1.0000   1.0000   1.0000   1.0000   1.0000   1.0000   1.0000   1.0000
     1.0000   1.0000   1.0000   1.0000   1.0000   1.0000   1.0000   1.0000
     1.0000   1.0000   1.0000   1.0000   1.0000   1.0000   1.0000   1.0000
     1.0000   1.0000   1.0000   1.0000   1.0000   1.0000   1.0000   1.0000
     1.0000   1.0000   1.0000   1.0000   1.0000   1.0000   1.0000   1.0000
     1.0000   1.0000   1.0000   1.0000   1.0000   1.0000   1.0000   1.0000
     1.0000   1.0000   1.0000   1.0000   1.0000   1.0000   1.0000   1.0000
     1.0000   1.0000   1.0000   1.0000   1.0000   1.0000   1.0000   1.0000
     1.0000   1.0000   1.0000   1.0000   1.0000   1.0000   1.0000   1.0000
     1.0000   1.0000   1.0000   1.0000   1.0000   1.0000   1.0000   1.0000
     1.0000   1.0000   1.0000   1.0000   1.0000   1.0000   1.0000   1.0000
     1.0000   1.0000   1.0000   1.0000   1.0000   1.0000   1.0000   1.0000
     1.0000   1.0000   1.0000   1.0000   1.0000   1.0000   1.0000   1.0000
     1.0000   1.0000   1.0000   1.0000   1.0000   1.0000   1.0000   1.0000
     1.0000   1.0000   1.0000   1.0000   1.0000   1.0000   1.0000   1.0000
     1.0000   1.0000   1.0000   1.0000   1.0000   1.0000   1.0000   1.0000
     1.0000   1.0000   1.0000   1.0000   1.0000   1.0000   1.0000   1.0000
     1.0000   1.0000   1.0000   1.0000   1.0000   1.0000   1.0000   1.0000
     1.0000   1.0000   1.0000   1.0000   1.0000   1.0000   1.0000   1.0000
     1.0000   1.0000   1.0000   1.0000   1.0000   1.0000   1.0000   1.0000
     1.0000   1.0000   1.0000   1.0000   1.0000   1.0000   1.0000   1.0000
     1.0000   1.0000   1.0000   1.0000   1.0000   1.0000   1.0000   1.0000
     1.0000   1.0000   1.0000   1.0000   1.0000   1.0000   1.0000   1.0000
     1.0000   1.0000   1.0000   1.0000   1.0000   1.0000   1.0000   1.0000
     1.0000   1.0000   1.0000   1.0000   1.0000   1.0000   1.0000   1.0000
     1.0000   1.0000   1.0000   1.0000   1.0000   1.0000   1.0000   1.0000
     1.0000   1.0000   1.0000   1.0000   1.0000   1.0000   1.0000   1.0000
     1.0000   1.0000   1.0000   1.0000   1.0000   1.0000   1.0000   1.0000
     1.0000   1.0000   1.0000   1.0000   1.0000   1.0000   1.0000   1.0000
     1.0000   1.0000   1.0000   1.0000   1.0000   1.0000   1.0000   1.0000
     1.0000   1.0000   1.0000   1.0000   1.0000   1.0000   1.0000   1.0000
     1.0000   1.0000   1.0000   1.0000   1.0000   1.0000   1.0000   1.0000
     1.0000   1.0000   1.0000   1.0000   1.0000   1.0000   1.0000   1.0000
     1.0000   1.0000   1.0000   1.0000   1.0000   1.0000   1.0000   1.0000
     0.0000   0.0000   0.0000   0.0000   0.0000   0.0000   0.0000   0.0000
     0.0000   0.0000   0.0000   0.0000   0.0000   0.0000   0.0000   0.0000
     0.0000   0.0000   0.0000   0.0000   0.0000   0.0000   0.0000   0.0000
     0.0000   0.0000   0.0000   0.0000   0.0000   0.0000   0.0000   0.0000
     0.0000   0.0000   0.0000   0.0000   0.0000   0.0000   0.0000   0.0000
     0.0000   0.0000   0.0000   0.0000   0.0000   0.0000   0.0000   0.0000
     0.0000   0.0000   0.0000   0.0000   0.0000   0.0000   0.0000   0.0000
     0.0000   0.0000   0.0000   0.0000   0.0000   0.0000   0.0000   0.0000
     0.0000   0.0000   0.0000   0.0000   0.0000   0.0000   0.0000   0.0000
     0.0000   0.0000   0.0000   0.0000   0.0000   0.0000   0.0000   0.0000
     0.0000   0.0000   0.0000   0.0000   0.0000   0.0000   0.0000   0.0000
     0.0000   0.0000   0.0000   0.0000   0.0000   0.0000   0.0000   0.0000
     0.0000   0.0000   0.0000   0.0000   0.0000   0.0000   0.0000   0.0000
     0.0000   0.0000   0.0000   0.0000   0.0000   0.0000   0.0000   0.0000
     0.0000   0.0000   0.0000   0.0000   0.0000   0.0000   0.0000   0.0000
     0.0000   0.0000   0.0000   0.0000   0.0000   0.0000   0.0000   0.0000
     0.0000   0.0000   0.0000   0.0000   0.0000   0.0000   0.0000   0.0000
     0.0000   0.0000   0.0000   0.0000   0.0000   0.0000   0.0000   0.0000
     0.0000   0.0000   0.0000   0.0000

          k = 0.5000 0.2500 0.2500 ( 73882 PWs)   bands (ev):

   -18.1281 -18.1281 -18.0397 -18.0397 -17.9993 -17.9993 -17.9954 -17.9954
   -17.9651 -17.9651 -17.9608 -17.9608 -17.8047 -17.8047 -17.7796 -17.7796
   -15.3216 -15.3215 -15.3008 -15.3008 -15.2532 -15.2525 -15.2495 -15.2489
   -15.2402 -15.2401 -15.2353 -15.2351 -15.2228 -15.2228 -15.2149 -15.2148
   -15.1849 -15.1849 -15.1675 -15.1675 -15.0948 -15.0948 -15.0876 -15.0876
   -15.0732 -15.0732 -15.0690 -15.0690 -15.0092 -15.0092 -15.0005 -15.0005
   -12.7869 -12.7866 -12.7741 -12.7699 -12.7694 -12.7687 -12.7354 -12.7312
   -12.7264 -12.7263 -12.7227 -12.7219 -12.7166 -12.7158 -12.6963 -12.6951
   -12.6824 -12.6822 -12.6583 -12.6582 -12.6571 -12.6569 -12.6488 -12.6480
   -12.6446 -12.6440 -12.6337 -12.6336 -12.5925 -12.5918 -12.5900 -12.5898
   -12.5695 -12.5687 -12.5590 -12.5587 -12.5444 -12.5438 -12.5070 -12.5064
   -12.4986 -12.4985 -12.4917 -12.4915 -12.4906 -12.4903 -12.4172 -12.4172
   -11.3984 -11.3973 -11.3497 -11.3486 -11.2771 -11.2766 -11.2413 -11.2409
   -11.2099 -11.2085 -11.1660 -11.1655 -11.1013 -11.1005 -11.0773 -11.0756
   -11.0417 -11.0390 -11.0287 -11.0256 -10.9892 -10.9878 -10.9736 -10.9722
   -10.9510 -10.9481 -10.9210 -10.9199 -10.8953 -10.8937 -10.8451 -10.8440
   -10.8234 -10.8216 -10.7895 -10.7888 -10.7652 -10.7633 -10.6874 -10.6869
   -10.6427 -10.6426 -10.6213 -10.6208 -10.5974 -10.5971 -10.5435 -10.5431
    -6.0980  -6.0980  -6.0135  -6.0132  -5.9761  -5.9756  -5.9731  -5.9726
    -5.9425  -5.9396  -5.9372  -5.9342  -5.7960  -5.7958  -5.7738  -5.7734
    -5.0938  -5.0925  -5.0064  -5.0050  -4.7946  -4.7925  -4.7664  -4.7650
    -4.6804  -4.6774  -4.6191  -4.6166  -4.5029  -4.5020  -4.4810  -4.4802
    -4.4303  -4.4285  -4.4179  -4.4110  -4.4012  -4.3947  -4.3879  -4.3832
    -4.3781  -4.3759  -4.3662  -4.3654  -4.3620  -4.3551  -4.3525  -4.3491
    -4.3443  -4.3411  -4.3304  -4.3268  -4.3174  -4.3159  -4.3124  -4.3108
    -4.2142  -4.2130  -4.1886  -4.1872  -4.1854  -4.1840  -4.1755  -4.1735
    -0.8719  -0.8007  -0.6077  -0.5972  -0.5484  -0.5263  -0.5086  -0.4934
    -0.4687  -0.4219  -0.3942  -0.3766  -0.3588  -0.3448  -0.3278  -0.3131
    -0.2180  -0.2046  -0.1411  -0.1291  -0.0196  -0.0096   0.0245   0.0378
     0.0528   0.0764   0.1337   0.1489   0.1886   0.1996   0.2371   0.2460
     0.2729   0.3157   0.3391   0.3612   0.3766   0.3857   0.3954   0.4160
     0.4350   0.4540   0.4727   0.4781   0.4916   0.5342   0.5519   0.5844
     0.6517   0.6680   0.6796   0.6963   0.7093   0.7393   0.7519   0.7629
     0.7706   0.7886   0.8019   0.8105   0.8222   0.8344   0.8479   0.8605
     0.8722   0.8871   0.9055   0.9155   0.9270   0.9322   0.9453   0.9526
     0.9655   0.9851   0.9941   1.0059   1.0137   1.0282   1.0363   1.0453
     1.0604   1.0723   1.0888   1.0970   1.1125   1.1305   1.1421   1.1491
     1.1526   1.1641   1.1798   1.1914   1.2123   1.2298   1.2332   1.2425
     1.2475   1.2687   1.2758   1.2839   1.3019   1.3174   1.3324   1.3432
     1.3564   1.3679   1.3708   1.3797   1.4010   1.4110   1.4220   1.4329
     1.4423   1.4575   1.4736   1.4868   1.4886   1.5078   1.5203   1.5411
     1.5485   1.5554   1.5757   1.5890   1.5977   1.6076   1.6208   1.6349
     1.6546   1.6762   1.6974   1.7072   1.7261   1.7393   1.7486   1.7914
     1.8703   1.8977   1.9283   1.9891   2.0350   2.0602   2.0735   2.0997
     4.5511   4.5978   4.6851   4.7620   4.9930   5.0613   5.0957   5.2057
     5.2593   5.3187   5.4068   5.4329   5.7537   5.7743   5.8264   5.8939
     5.9845   6.0280   6.1015   6.2059   6.2966   6.3630   6.4085   6.4328
     6.4854   6.5371   6.5770   6.6512   6.6779   6.7078   6.7641   6.8159
     6.9995   7.0470   7.0946   7.1325   7.1926   7.2589   7.3126   7.3523
     7.4260   7.4879   7.5095   7.5554   7.5786   7.6331   7.6615   7.7135
     7.8002   7.8155   7.8711   7.8966   7.9461   7.9821   7.9903   8.0131
     8.0204   8.0435   8.0545   8.0730   8.1118   8.1262   8.1366   8.1649
     8.1820   8.2071   8.2482   8.2589   8.2837   8.2905   8.3575   8.3881
     8.3933   8.4127   8.4207   8.4367   8.4961   8.5041   8.5262   8.5373
     8.5671   8.5814   8.5894   8.5992   8.6398   8.6544   8.6719   8.6913
     8.7191   8.7328   8.7562   8.7581   8.7706   8.7882   8.8096   8.8325
     8.8712   8.8948   8.9102   8.9315   8.9785   8.9828   9.0036   9.0064
     9.0311   9.0499   9.0756   9.0816   9.1078   9.1113   9.1482   9.1601
     9.1811   9.1984   9.2377   9.2494   9.2715   9.2917   9.2980   9.3180
     9.3337   9.3500   9.3805   9.3953   9.4057   9.4135   9.4303   9.4431
     9.4565   9.4749   9.5056   9.5211   9.5343   9.5393   9.5647   9.5748
     9.5934   9.6035   9.6409   9.6551   9.7223   9.7348   9.7555   9.7641
     9.8725   9.8773   9.9938  10.0033

     occupation numbers 
     1.0000   1.0000   1.0000   1.0000   1.0000   1.0000   1.0000   1.0000
     1.0000   1.0000   1.0000   1.0000   1.0000   1.0000   1.0000   1.0000
     1.0000   1.0000   1.0000   1.0000   1.0000   1.0000   1.0000   1.0000
     1.0000   1.0000   1.0000   1.0000   1.0000   1.0000   1.0000   1.0000
     1.0000   1.0000   1.0000   1.0000   1.0000   1.0000   1.0000   1.0000
     1.0000   1.0000   1.0000   1.0000   1.0000   1.0000   1.0000   1.0000
     1.0000   1.0000   1.0000   1.0000   1.0000   1.0000   1.0000   1.0000
     1.0000   1.0000   1.0000   1.0000   1.0000   1.0000   1.0000   1.0000
     1.0000   1.0000   1.0000   1.0000   1.0000   1.0000   1.0000   1.0000
     1.0000   1.0000   1.0000   1.0000   1.0000   1.0000   1.0000   1.0000
     1.0000   1.0000   1.0000   1.0000   1.0000   1.0000   1.0000   1.0000
     1.0000   1.0000   1.0000   1.0000   1.0000   1.0000   1.0000   1.0000
     1.0000   1.0000   1.0000   1.0000   1.0000   1.0000   1.0000   1.0000
     1.0000   1.0000   1.0000   1.0000   1.0000   1.0000   1.0000   1.0000
     1.0000   1.0000   1.0000   1.0000   1.0000   1.0000   1.0000   1.0000
     1.0000   1.0000   1.0000   1.0000   1.0000   1.0000   1.0000   1.0000
     1.0000   1.0000   1.0000   1.0000   1.0000   1.0000   1.0000   1.0000
     1.0000   1.0000   1.0000   1.0000   1.0000   1.0000   1.0000   1.0000
     1.0000   1.0000   1.0000   1.0000   1.0000   1.0000   1.0000   1.0000
     1.0000   1.0000   1.0000   1.0000   1.0000   1.0000   1.0000   1.0000
     1.0000   1.0000   1.0000   1.0000   1.0000   1.0000   1.0000   1.0000
     1.0000   1.0000   1.0000   1.0000   1.0000   1.0000   1.0000   1.0000
     1.0000   1.0000   1.0000   1.0000   1.0000   1.0000   1.0000   1.0000
     1.0000   1.0000   1.0000   1.0000   1.0000   1.0000   1.0000   1.0000
     1.0000   1.0000   1.0000   1.0000   1.0000   1.0000   1.0000   1.0000
     1.0000   1.0000   1.0000   1.0000   1.0000   1.0000   1.0000   1.0000
     1.0000   1.0000   1.0000   1.0000   1.0000   1.0000   1.0000   1.0000
     1.0000   1.0000   1.0000   1.0000   1.0000   1.0000   1.0000   1.0000
     1.0000   1.0000   1.0000   1.0000   1.0000   1.0000   1.0000   1.0000
     1.0000   1.0000   1.0000   1.0000   1.0000   1.0000   1.0000   1.0000
     1.0000   1.0000   1.0000   1.0000   1.0000   1.0000   1.0000   1.0000
     1.0000   1.0000   1.0000   1.0000   1.0000   1.0000   1.0000   1.0000
     1.0000   1.0000   1.0000   1.0000   1.0000   1.0000   1.0000   1.0000
     1.0000   1.0000   1.0000   1.0000   1.0000   1.0000   1.0000   1.0000
     1.0000   1.0000   1.0000   1.0000   1.0000   1.0000   1.0000   1.0000
     1.0000   1.0000   1.0000   1.0000   1.0000   1.0000   1.0000   1.0000
     1.0000   1.0000   1.0000   1.0000   1.0000   1.0000   1.0000   1.0000
     1.0000   1.0000   1.0000   1.0000   1.0000   1.0000   1.0000   1.0000
     1.0000   1.0000   1.0000   1.0000   1.0000   1.0000   1.0000   1.0000
     1.0000   1.0000   1.0000   1.0000   1.0000   1.0000   1.0000   1.0000
     1.0000   1.0000   1.0000   1.0000   1.0000   1.0000   1.0000   1.0000
     1.0000   1.0000   1.0000   1.0000   1.0000   1.0000   1.0000   1.0000
     1.0000   1.0000   1.0000   1.0000   1.0000   1.0000   1.0000   1.0000
     1.0000   1.0000   1.0000   1.0000   1.0000   1.0000   1.0000   1.0000
     0.0000   0.0000   0.0000   0.0000   0.0000   0.0000   0.0000   0.0000
     0.0000   0.0000   0.0000   0.0000   0.0000   0.0000   0.0000   0.0000
     0.0000   0.0000   0.0000   0.0000   0.0000   0.0000   0.0000   0.0000
     0.0000   0.0000   0.0000   0.0000   0.0000   0.0000   0.0000   0.0000
     0.0000   0.0000   0.0000   0.0000   0.0000   0.0000   0.0000   0.0000
     0.0000   0.0000   0.0000   0.0000   0.0000   0.0000   0.0000   0.0000
     0.0000   0.0000   0.0000   0.0000   0.0000   0.0000   0.0000   0.0000
     0.0000   0.0000   0.0000   0.0000   0.0000   0.0000   0.0000   0.0000
     0.0000   0.0000   0.0000   0.0000   0.0000   0.0000   0.0000   0.0000
     0.0000   0.0000   0.0000   0.0000   0.0000   0.0000   0.0000   0.0000
     0.0000   0.0000   0.0000   0.0000   0.0000   0.0000   0.0000   0.0000
     0.0000   0.0000   0.0000   0.0000   0.0000   0.0000   0.0000   0.0000
     0.0000   0.0000   0.0000   0.0000   0.0000   0.0000   0.0000   0.0000
     0.0000   0.0000   0.0000   0.0000   0.0000   0.0000   0.0000   0.0000
     0.0000   0.0000   0.0000   0.0000   0.0000   0.0000   0.0000   0.0000
     0.0000   0.0000   0.0000   0.0000   0.0000   0.0000   0.0000   0.0000
     0.0000   0.0000   0.0000   0.0000   0.0000   0.0000   0.0000   0.0000
     0.0000   0.0000   0.0000   0.0000   0.0000   0.0000   0.0000   0.0000
     0.0000   0.0000   0.0000   0.0000

          k = 0.5000 0.2500 0.5000 ( 73972 PWs)   bands (ev):

   -18.1281 -18.1281 -18.0397 -18.0397 -17.9993 -17.9993 -17.9954 -17.9954
   -17.9651 -17.9651 -17.9608 -17.9608 -17.8047 -17.8047 -17.7796 -17.7796
   -15.3216 -15.3215 -15.3008 -15.3008 -15.2516 -15.2516 -15.2502 -15.2502
   -15.2402 -15.2402 -15.2355 -15.2355 -15.2228 -15.2228 -15.2148 -15.2148
   -15.1849 -15.1849 -15.1675 -15.1675 -15.0948 -15.0948 -15.0876 -15.0876
   -15.0732 -15.0731 -15.0690 -15.0690 -15.0093 -15.0093 -15.0005 -15.0005
   -12.7863 -12.7862 -12.7689 -12.7683 -12.7591 -12.7589 -12.7450 -12.7449
   -12.7264 -12.7263 -12.7236 -12.7232 -12.7171 -12.7165 -12.6955 -12.6946
   -12.6820 -12.6819 -12.6584 -12.6581 -12.6571 -12.6570 -12.6490 -12.6484
   -12.6456 -12.6451 -12.6337 -12.6336 -12.5929 -12.5922 -12.5900 -12.5899
   -12.5690 -12.5683 -12.5573 -12.5573 -12.5450 -12.5450 -12.5081 -12.5075
   -12.4985 -12.4984 -12.4928 -12.4927 -12.4908 -12.4907 -12.4172 -12.4172
   -11.3907 -11.3903 -11.3618 -11.3616 -11.2812 -11.2810 -11.2362 -11.2355
   -11.2083 -11.2067 -11.1677 -11.1670 -11.1064 -11.1057 -11.0705 -11.0703
   -11.0418 -11.0379 -11.0236 -11.0203 -10.9879 -10.9871 -10.9689 -10.9673
   -10.9552 -10.9528 -10.9282 -10.9274 -10.8923 -10.8903 -10.8445 -10.8437
   -10.8141 -10.8125 -10.7875 -10.7873 -10.7654 -10.7636 -10.6837 -10.6833
   -10.6435 -10.6430 -10.6287 -10.6282 -10.5993 -10.5990 -10.5464 -10.5458
    -6.0980  -6.0980  -6.0133  -6.0133  -5.9759  -5.9756  -5.9729  -5.9727
    -5.9427  -5.9398  -5.9373  -5.9343  -5.7960  -5.7959  -5.7736  -5.7735
    -4.9488  -4.9480  -4.9359  -4.9348  -4.8816  -4.8804  -4.8637  -4.8612
    -4.6118  -4.6107  -4.5710  -4.5670  -4.5103  -4.5073  -4.5066  -4.4975
    -4.4958  -4.4891  -4.4770  -4.4757  -4.4153  -4.4151  -4.3943  -4.3928
    -4.3849  -4.3833  -4.3769  -4.3750  -4.3641  -4.3623  -4.3579  -4.3562
    -4.3508  -4.3499  -4.3420  -4.3389  -4.3214  -4.3176  -4.3153  -4.3132
    -4.2146  -4.2143  -4.1879  -4.1874  -4.1852  -4.1842  -4.1757  -4.1749
    -0.6536  -0.5995  -0.5681  -0.5381  -0.5124  -0.5082  -0.4259  -0.4213
    -0.3838  -0.3545  -0.3070  -0.2883  -0.2285  -0.2206  -0.1987  -0.1870
    -0.1227  -0.1121  -0.0860  -0.0756  -0.0308  -0.0198   0.0276   0.0448
     0.0693   0.0801   0.1143   0.1353   0.1497   0.1812   0.1863   0.2031
     0.2168   0.2404   0.2696   0.2799   0.2999   0.3102   0.3446   0.3598
     0.3808   0.3941   0.4010   0.4299   0.4625   0.4770   0.4922   0.5260
     0.6349   0.6660   0.6707   0.6817   0.7006   0.7137   0.7234   0.7302
     0.7540   0.7698   0.7806   0.7928   0.8009   0.8216   0.8305   0.8410
     0.8684   0.8762   0.8957   0.9055   0.9133   0.9162   0.9372   0.9456
     0.9507   0.9644   0.9763   0.9880   0.9998   1.0143   1.0174   1.0357
     1.0497   1.0587   1.0665   1.0859   1.1024   1.1144   1.1250   1.1398
     1.1507   1.1570   1.1719   1.1906   1.2033   1.2092   1.2191   1.2480
     1.2541   1.2713   1.2785   1.2969   1.3070   1.3152   1.3353   1.3506
     1.3564   1.3633   1.3821   1.3945   1.3995   1.4111   1.4197   1.4282
     1.4408   1.4488   1.4704   1.4830   1.4906   1.5011   1.5092   1.5214
     1.5371   1.5447   1.5672   1.5821   1.5877   1.5976   1.6047   1.6220
     1.6369   1.6632   1.6698   1.6800   1.7044   1.7126   1.7357   1.7694
     1.8178   1.8442   1.8830   1.8966   1.9344   1.9674   2.0238   2.0402
     4.7750   4.8108   4.8980   4.9404   4.9958   5.0790   5.1380   5.2038
     5.5433   5.5892   5.6516   5.6762   5.7463   5.7905   5.8610   5.9404
     6.1626   6.2147   6.2599   6.3124   6.3752   6.4683   6.4967   6.5589
     6.5863   6.6378   6.6758   6.7117   6.7450   6.7718   6.8171   6.8335
     6.9053   6.9460   6.9918   6.9925   7.0103   7.0250   7.0708   7.0871
     7.2700   7.3637   7.3968   7.4063   7.4490   7.4832   7.5233   7.5592
     7.7477   7.7838   7.7996   7.8366   7.8606   7.8878   7.9360   7.9641
     7.9842   8.0139   8.0346   8.0489   8.0674   8.0820   8.1205   8.1314
     8.1716   8.1881   8.2548   8.2771   8.2822   8.3165   8.3204   8.3409
     8.3720   8.3892   8.4081   8.4357   8.4576   8.4753   8.4978   8.5038
     8.5105   8.5392   8.5731   8.5965   8.6147   8.6317   8.6513   8.6608
     8.6716   8.6864   8.7018   8.7096   8.7753   8.8056   8.8506   8.8573
     8.9025   8.9117   8.9388   8.9519   8.9893   8.9954   9.0398   9.0436
     9.0886   9.1044   9.1109   9.1263   9.1553   9.1608   9.1802   9.1925
     9.2091   9.2140   9.2341   9.2486   9.2758   9.2823   9.3100   9.3309
     9.3458   9.3568   9.3684   9.3830   9.3973   9.4155   9.4275   9.4353
     9.4812   9.4878   9.5045   9.5139   9.5192   9.5381   9.5696   9.5829
     9.6042   9.6232   9.6388   9.6510   9.6617   9.6775   9.7036   9.7140
     9.9357   9.9464  10.0601  10.0662

     occupation numbers 
     1.0000   1.0000   1.0000   1.0000   1.0000   1.0000   1.0000   1.0000
     1.0000   1.0000   1.0000   1.0000   1.0000   1.0000   1.0000   1.0000
     1.0000   1.0000   1.0000   1.0000   1.0000   1.0000   1.0000   1.0000
     1.0000   1.0000   1.0000   1.0000   1.0000   1.0000   1.0000   1.0000
     1.0000   1.0000   1.0000   1.0000   1.0000   1.0000   1.0000   1.0000
     1.0000   1.0000   1.0000   1.0000   1.0000   1.0000   1.0000   1.0000
     1.0000   1.0000   1.0000   1.0000   1.0000   1.0000   1.0000   1.0000
     1.0000   1.0000   1.0000   1.0000   1.0000   1.0000   1.0000   1.0000
     1.0000   1.0000   1.0000   1.0000   1.0000   1.0000   1.0000   1.0000
     1.0000   1.0000   1.0000   1.0000   1.0000   1.0000   1.0000   1.0000
     1.0000   1.0000   1.0000   1.0000   1.0000   1.0000   1.0000   1.0000
     1.0000   1.0000   1.0000   1.0000   1.0000   1.0000   1.0000   1.0000
     1.0000   1.0000   1.0000   1.0000   1.0000   1.0000   1.0000   1.0000
     1.0000   1.0000   1.0000   1.0000   1.0000   1.0000   1.0000   1.0000
     1.0000   1.0000   1.0000   1.0000   1.0000   1.0000   1.0000   1.0000
     1.0000   1.0000   1.0000   1.0000   1.0000   1.0000   1.0000   1.0000
     1.0000   1.0000   1.0000   1.0000   1.0000   1.0000   1.0000   1.0000
     1.0000   1.0000   1.0000   1.0000   1.0000   1.0000   1.0000   1.0000
     1.0000   1.0000   1.0000   1.0000   1.0000   1.0000   1.0000   1.0000
     1.0000   1.0000   1.0000   1.0000   1.0000   1.0000   1.0000   1.0000
     1.0000   1.0000   1.0000   1.0000   1.0000   1.0000   1.0000   1.0000
     1.0000   1.0000   1.0000   1.0000   1.0000   1.0000   1.0000   1.0000
     1.0000   1.0000   1.0000   1.0000   1.0000   1.0000   1.0000   1.0000
     1.0000   1.0000   1.0000   1.0000   1.0000   1.0000   1.0000   1.0000
     1.0000   1.0000   1.0000   1.0000   1.0000   1.0000   1.0000   1.0000
     1.0000   1.0000   1.0000   1.0000   1.0000   1.0000   1.0000   1.0000
     1.0000   1.0000   1.0000   1.0000   1.0000   1.0000   1.0000   1.0000
     1.0000   1.0000   1.0000   1.0000   1.0000   1.0000   1.0000   1.0000
     1.0000   1.0000   1.0000   1.0000   1.0000   1.0000   1.0000   1.0000
     1.0000   1.0000   1.0000   1.0000   1.0000   1.0000   1.0000   1.0000
     1.0000   1.0000   1.0000   1.0000   1.0000   1.0000   1.0000   1.0000
     1.0000   1.0000   1.0000   1.0000   1.0000   1.0000   1.0000   1.0000
     1.0000   1.0000   1.0000   1.0000   1.0000   1.0000   1.0000   1.0000
     1.0000   1.0000   1.0000   1.0000   1.0000   1.0000   1.0000   1.0000
     1.0000   1.0000   1.0000   1.0000   1.0000   1.0000   1.0000   1.0000
     1.0000   1.0000   1.0000   1.0000   1.0000   1.0000   1.0000   1.0000
     1.0000   1.0000   1.0000   1.0000   1.0000   1.0000   1.0000   1.0000
     1.0000   1.0000   1.0000   1.0000   1.0000   1.0000   1.0000   1.0000
     1.0000   1.0000   1.0000   1.0000   1.0000   1.0000   1.0000   1.0000
     1.0000   1.0000   1.0000   1.0000   1.0000   1.0000   1.0000   1.0000
     1.0000   1.0000   1.0000   1.0000   1.0000   1.0000   1.0000   1.0000
     1.0000   1.0000   1.0000   1.0000   1.0000   1.0000   1.0000   1.0000
     1.0000   1.0000   1.0000   1.0000   1.0000   1.0000   1.0000   1.0000
     1.0000   1.0000   1.0000   1.0000   1.0000   1.0000   1.0000   1.0000
     0.0000   0.0000   0.0000   0.0000   0.0000   0.0000   0.0000   0.0000
     0.0000   0.0000   0.0000   0.0000   0.0000   0.0000   0.0000   0.0000
     0.0000   0.0000   0.0000   0.0000   0.0000   0.0000   0.0000   0.0000
     0.0000   0.0000   0.0000   0.0000   0.0000   0.0000   0.0000   0.0000
     0.0000   0.0000   0.0000   0.0000   0.0000   0.0000   0.0000   0.0000
     0.0000   0.0000   0.0000   0.0000   0.0000   0.0000   0.0000   0.0000
     0.0000   0.0000   0.0000   0.0000   0.0000   0.0000   0.0000   0.0000
     0.0000   0.0000   0.0000   0.0000   0.0000   0.0000   0.0000   0.0000
     0.0000   0.0000   0.0000   0.0000   0.0000   0.0000   0.0000   0.0000
     0.0000   0.0000   0.0000   0.0000   0.0000   0.0000   0.0000   0.0000
     0.0000   0.0000   0.0000   0.0000   0.0000   0.0000   0.0000   0.0000
     0.0000   0.0000   0.0000   0.0000   0.0000   0.0000   0.0000   0.0000
     0.0000   0.0000   0.0000   0.0000   0.0000   0.0000   0.0000   0.0000
     0.0000   0.0000   0.0000   0.0000   0.0000   0.0000   0.0000   0.0000
     0.0000   0.0000   0.0000   0.0000   0.0000   0.0000   0.0000   0.0000
     0.0000   0.0000   0.0000   0.0000   0.0000   0.0000   0.0000   0.0000
     0.0000   0.0000   0.0000   0.0000   0.0000   0.0000   0.0000   0.0000
     0.0000   0.0000   0.0000   0.0000   0.0000   0.0000   0.0000   0.0000
     0.0000   0.0000   0.0000   0.0000

          k = 0.5000 0.2500 0.7500 ( 73882 PWs)   bands (ev):

   -18.1281 -18.1281 -18.0397 -18.0397 -17.9993 -17.9993 -17.9954 -17.9954
   -17.9651 -17.9651 -17.9608 -17.9608 -17.8047 -17.8047 -17.7796 -17.7796
   -15.3216 -15.3215 -15.3008 -15.3008 -15.2532 -15.2525 -15.2495 -15.2489
   -15.2402 -15.2401 -15.2353 -15.2351 -15.2228 -15.2228 -15.2148 -15.2148
   -15.1849 -15.1849 -15.1675 -15.1675 -15.0948 -15.0948 -15.0876 -15.0876
   -15.0732 -15.0732 -15.0690 -15.0690 -15.0092 -15.0092 -15.0005 -15.0005
   -12.7869 -12.7866 -12.7740 -12.7699 -12.7695 -12.7686 -12.7355 -12.7312
   -12.7264 -12.7263 -12.7227 -12.7218 -12.7164 -12.7160 -12.6960 -12.6953
   -12.6824 -12.6823 -12.6585 -12.6579 -12.6571 -12.6569 -12.6487 -12.6481
   -12.6448 -12.6440 -12.6337 -12.6336 -12.5926 -12.5917 -12.5900 -12.5898
   -12.5695 -12.5687 -12.5589 -12.5588 -12.5444 -12.5438 -12.5070 -12.5064
   -12.4986 -12.4985 -12.4917 -12.4914 -12.4906 -12.4903 -12.4172 -12.4172
   -11.3992 -11.3979 -11.3491 -11.3483 -11.2852 -11.2844 -11.2232 -11.2219
   -11.2073 -11.2067 -11.1778 -11.1771 -11.1083 -11.1069 -11.0775 -11.0750
   -11.0414 -11.0387 -11.0181 -11.0147 -10.9892 -10.9882 -10.9779 -10.9764
   -10.9537 -10.9509 -10.9238 -10.9213 -10.8906 -10.8886 -10.8468 -10.8459
   -10.8225 -10.8210 -10.7904 -10.7902 -10.7644 -10.7628 -10.6812 -10.6807
   -10.6476 -10.6473 -10.6257 -10.6252 -10.5945 -10.5941 -10.5431 -10.5421
    -6.0981  -6.0980  -6.0135  -6.0132  -5.9761  -5.9756  -5.9731  -5.9727
    -5.9425  -5.9396  -5.9372  -5.9342  -5.7959  -5.7958  -5.7737  -5.7734
    -5.0974  -5.0966  -5.0124  -5.0118  -4.7660  -4.7633  -4.7338  -4.7320
    -4.6981  -4.6961  -4.6620  -4.6604  -4.5022  -4.5014  -4.4813  -4.4800
    -4.4303  -4.4236  -4.4152  -4.4092  -4.4004  -4.3950  -4.3854  -4.3813
    -4.3781  -4.3747  -4.3698  -4.3650  -4.3604  -4.3552  -4.3491  -4.3463
    -4.3428  -4.3411  -4.3316  -4.3292  -4.3189  -4.3147  -4.3137  -4.3094
    -4.2147  -4.2132  -4.1882  -4.1871  -4.1853  -4.1821  -4.1755  -4.1750
    -0.8265  -0.7877  -0.6263  -0.6048  -0.5569  -0.5342  -0.5137  -0.5023
    -0.4932  -0.4306  -0.4118  -0.3791  -0.3630  -0.3398  -0.3286  -0.2879
    -0.2143  -0.2050  -0.1355  -0.1247  -0.0179  -0.0037   0.0343   0.0525
     0.0682   0.0784   0.0982   0.1146   0.1804   0.2105   0.2350   0.2626
     0.2872   0.3011   0.3230   0.3481   0.3810   0.3891   0.4050   0.4185
     0.4392   0.4447   0.4685   0.4813   0.4956   0.5176   0.5608   0.5981
     0.6658   0.6806   0.6876   0.7056   0.7138   0.7320   0.7398   0.7569
     0.7764   0.7882   0.7991   0.8130   0.8191   0.8350   0.8456   0.8618
     0.8779   0.8893   0.9059   0.9167   0.9266   0.9330   0.9426   0.9585
     0.9717   0.9899   0.9933   1.0016   1.0111   1.0265   1.0377   1.0416
     1.0573   1.0713   1.0843   1.0945   1.1097   1.1224   1.1340   1.1517
     1.1692   1.1717   1.1904   1.1939   1.2028   1.2196   1.2347   1.2388
     1.2590   1.2670   1.2770   1.2937   1.3092   1.3157   1.3268   1.3408
     1.3482   1.3709   1.3820   1.3908   1.3997   1.4050   1.4167   1.4282
     1.4459   1.4505   1.4557   1.4790   1.4894   1.5042   1.5162   1.5321
     1.5415   1.5645   1.5754   1.5808   1.5943   1.6162   1.6256   1.6417
     1.6668   1.6824   1.6931   1.7016   1.7505   1.7612   1.7879   1.8111
     1.8708   1.8946   1.8992   1.9259   2.0087   2.0267   2.1030   2.1196
     4.5340   4.6194   4.6874   4.7517   4.9866   5.0631   5.1243   5.2024
     5.2976   5.3347   5.3799   5.4079   5.7105   5.8037   5.8126   5.9268
     5.9721   6.0537   6.1178   6.1517   6.2894   6.3478   6.3960   6.4478
     6.4827   6.5438   6.5946   6.6520   6.6758   6.7169   6.7587   6.8124
     7.0107   7.0689   7.0917   7.1376   7.1840   7.2407   7.2955   7.3703
     7.3938   7.4293   7.5398   7.5602   7.5844   7.6212   7.6675   7.7195
     7.8207   7.8427   7.8624   7.9087   7.9486   7.9700   7.9853   7.9984
     8.0114   8.0500   8.0662   8.0882   8.1014   8.1154   8.1344   8.1520
     8.1815   8.1944   8.2210   8.2468   8.2847   8.3023   8.3460   8.3515
     8.3996   8.4328   8.4499   8.4695   8.5006   8.5102   8.5405   8.5456
     8.5594   8.5773   8.5986   8.6113   8.6312   8.6471   8.6832   8.6998
     8.7135   8.7356   8.7615   8.7760   8.8269   8.8397   8.8642   8.8689
     8.8970   8.9183   8.9219   8.9303   8.9716   8.9920   9.0171   9.0287
     9.0397   9.0464   9.0644   9.0792   9.0892   9.1040   9.1348   9.1528
     9.1931   9.2023   9.2114   9.2363   9.2528   9.2648   9.2883   9.2989
     9.3353   9.3469   9.3839   9.3959   9.4086   9.4120   9.4262   9.4371
     9.4421   9.4617   9.4710   9.4838   9.4970   9.5092   9.5562   9.5687
     9.5787   9.5904   9.6139   9.6271   9.6624   9.6685   9.6975   9.7049
     9.9182   9.9383   9.9903   9.9955

     occupation numbers 
     1.0000   1.0000   1.0000   1.0000   1.0000   1.0000   1.0000   1.0000
     1.0000   1.0000   1.0000   1.0000   1.0000   1.0000   1.0000   1.0000
     1.0000   1.0000   1.0000   1.0000   1.0000   1.0000   1.0000   1.0000
     1.0000   1.0000   1.0000   1.0000   1.0000   1.0000   1.0000   1.0000
     1.0000   1.0000   1.0000   1.0000   1.0000   1.0000   1.0000   1.0000
     1.0000   1.0000   1.0000   1.0000   1.0000   1.0000   1.0000   1.0000
     1.0000   1.0000   1.0000   1.0000   1.0000   1.0000   1.0000   1.0000
     1.0000   1.0000   1.0000   1.0000   1.0000   1.0000   1.0000   1.0000
     1.0000   1.0000   1.0000   1.0000   1.0000   1.0000   1.0000   1.0000
     1.0000   1.0000   1.0000   1.0000   1.0000   1.0000   1.0000   1.0000
     1.0000   1.0000   1.0000   1.0000   1.0000   1.0000   1.0000   1.0000
     1.0000   1.0000   1.0000   1.0000   1.0000   1.0000   1.0000   1.0000
     1.0000   1.0000   1.0000   1.0000   1.0000   1.0000   1.0000   1.0000
     1.0000   1.0000   1.0000   1.0000   1.0000   1.0000   1.0000   1.0000
     1.0000   1.0000   1.0000   1.0000   1.0000   1.0000   1.0000   1.0000
     1.0000   1.0000   1.0000   1.0000   1.0000   1.0000   1.0000   1.0000
     1.0000   1.0000   1.0000   1.0000   1.0000   1.0000   1.0000   1.0000
     1.0000   1.0000   1.0000   1.0000   1.0000   1.0000   1.0000   1.0000
     1.0000   1.0000   1.0000   1.0000   1.0000   1.0000   1.0000   1.0000
     1.0000   1.0000   1.0000   1.0000   1.0000   1.0000   1.0000   1.0000
     1.0000   1.0000   1.0000   1.0000   1.0000   1.0000   1.0000   1.0000
     1.0000   1.0000   1.0000   1.0000   1.0000   1.0000   1.0000   1.0000
     1.0000   1.0000   1.0000   1.0000   1.0000   1.0000   1.0000   1.0000
     1.0000   1.0000   1.0000   1.0000   1.0000   1.0000   1.0000   1.0000
     1.0000   1.0000   1.0000   1.0000   1.0000   1.0000   1.0000   1.0000
     1.0000   1.0000   1.0000   1.0000   1.0000   1.0000   1.0000   1.0000
     1.0000   1.0000   1.0000   1.0000   1.0000   1.0000   1.0000   1.0000
     1.0000   1.0000   1.0000   1.0000   1.0000   1.0000   1.0000   1.0000
     1.0000   1.0000   1.0000   1.0000   1.0000   1.0000   1.0000   1.0000
     1.0000   1.0000   1.0000   1.0000   1.0000   1.0000   1.0000   1.0000
     1.0000   1.0000   1.0000   1.0000   1.0000   1.0000   1.0000   1.0000
     1.0000   1.0000   1.0000   1.0000   1.0000   1.0000   1.0000   1.0000
     1.0000   1.0000   1.0000   1.0000   1.0000   1.0000   1.0000   1.0000
     1.0000   1.0000   1.0000   1.0000   1.0000   1.0000   1.0000   1.0000
     1.0000   1.0000   1.0000   1.0000   1.0000   1.0000   1.0000   1.0000
     1.0000   1.0000   1.0000   1.0000   1.0000   1.0000   1.0000   1.0000
     1.0000   1.0000   1.0000   1.0000   1.0000   1.0000   1.0000   1.0000
     1.0000   1.0000   1.0000   1.0000   1.0000   1.0000   1.0000   1.0000
     1.0000   1.0000   1.0000   1.0000   1.0000   1.0000   1.0000   1.0000
     1.0000   1.0000   1.0000   1.0000   1.0000   1.0000   1.0000   1.0000
     1.0000   1.0000   1.0000   1.0000   1.0000   1.0000   1.0000   1.0000
     1.0000   1.0000   1.0000   1.0000   1.0000   1.0000   1.0000   1.0000
     1.0000   1.0000   1.0000   1.0000   1.0000   1.0000   1.0000   1.0000
     1.0000   1.0000   1.0000   1.0000   1.0000   1.0000   1.0000   1.0000
     0.0000   0.0000   0.0000   0.0000   0.0000   0.0000   0.0000   0.0000
     0.0000   0.0000   0.0000   0.0000   0.0000   0.0000   0.0000   0.0000
     0.0000   0.0000   0.0000   0.0000   0.0000   0.0000   0.0000   0.0000
     0.0000   0.0000   0.0000   0.0000   0.0000   0.0000   0.0000   0.0000
     0.0000   0.0000   0.0000   0.0000   0.0000   0.0000   0.0000   0.0000
     0.0000   0.0000   0.0000   0.0000   0.0000   0.0000   0.0000   0.0000
     0.0000   0.0000   0.0000   0.0000   0.0000   0.0000   0.0000   0.0000
     0.0000   0.0000   0.0000   0.0000   0.0000   0.0000   0.0000   0.0000
     0.0000   0.0000   0.0000   0.0000   0.0000   0.0000   0.0000   0.0000
     0.0000   0.0000   0.0000   0.0000   0.0000   0.0000   0.0000   0.0000
     0.0000   0.0000   0.0000   0.0000   0.0000   0.0000   0.0000   0.0000
     0.0000   0.0000   0.0000   0.0000   0.0000   0.0000   0.0000   0.0000
     0.0000   0.0000   0.0000   0.0000   0.0000   0.0000   0.0000   0.0000
     0.0000   0.0000   0.0000   0.0000   0.0000   0.0000   0.0000   0.0000
     0.0000   0.0000   0.0000   0.0000   0.0000   0.0000   0.0000   0.0000
     0.0000   0.0000   0.0000   0.0000   0.0000   0.0000   0.0000   0.0000
     0.0000   0.0000   0.0000   0.0000   0.0000   0.0000   0.0000   0.0000
     0.0000   0.0000   0.0000   0.0000   0.0000   0.0000   0.0000   0.0000
     0.0000   0.0000   0.0000   0.0000

          k = 0.5000 0.5000 0.0000 ( 73872 PWs)   bands (ev):

   -18.1281 -18.1281 -18.0397 -18.0397 -17.9993 -17.9993 -17.9954 -17.9954
   -17.9650 -17.9650 -17.9608 -17.9608 -17.8047 -17.8047 -17.7796 -17.7796
   -15.3216 -15.3216 -15.3008 -15.3008 -15.2537 -15.2537 -15.2487 -15.2487
   -15.2401 -15.2401 -15.2349 -15.2349 -15.2228 -15.2228 -15.2148 -15.2148
   -15.1849 -15.1849 -15.1675 -15.1675 -15.0948 -15.0948 -15.0876 -15.0876
   -15.0732 -15.0732 -15.0690 -15.0690 -15.0092 -15.0092 -15.0005 -15.0005
   -12.7873 -12.7873 -12.7789 -12.7789 -12.7697 -12.7697 -12.7286 -12.7286
   -12.7262 -12.7262 -12.7200 -12.7200 -12.7136 -12.7136 -12.6936 -12.6936
   -12.6802 -12.6802 -12.6590 -12.6590 -12.6570 -12.6570 -12.6519 -12.6519
   -12.6443 -12.6443 -12.6337 -12.6337 -12.5923 -12.5923 -12.5900 -12.5900
   -12.5711 -12.5711 -12.5602 -12.5602 -12.5432 -12.5432 -12.5064 -12.5064
   -12.4987 -12.4987 -12.4911 -12.4911 -12.4894 -12.4894 -12.4172 -12.4172
   -11.4017 -11.4017 -11.3382 -11.3382 -11.2700 -11.2700 -11.2396 -11.2396
   -11.2233 -11.2233 -11.1795 -11.1795 -11.1017 -11.1017 -11.0833 -11.0833
   -11.0416 -11.0416 -11.0327 -11.0327 -10.9796 -10.9796 -10.9620 -10.9620
   -10.9353 -10.9353 -10.9086 -10.9086 -10.8866 -10.8866 -10.8477 -10.8477
   -10.8389 -10.8389 -10.7916 -10.7916 -10.7750 -10.7750 -10.6837 -10.6837
   -10.6474 -10.6474 -10.6166 -10.6166 -10.5942 -10.5942 -10.5442 -10.5442
    -6.0980  -6.0980  -6.0135  -6.0135  -5.9758  -5.9758  -5.9729  -5.9729
    -5.9412  -5.9412  -5.9354  -5.9354  -5.7960  -5.7960  -5.7736  -5.7736
    -5.0929  -5.0929  -4.9646  -4.9646  -4.8955  -4.8955  -4.8192  -4.8192
    -4.5938  -4.5938  -4.5134  -4.5134  -4.4946  -4.4946  -4.4779  -4.4779
    -4.4643  -4.4643  -4.4260  -4.4260  -4.4076  -4.4076  -4.3850  -4.3850
    -4.3777  -4.3777  -4.3674  -4.3674  -4.3604  -4.3604  -4.3522  -4.3522
    -4.3451  -4.3451  -4.3380  -4.3380  -4.3180  -4.3180  -4.3127  -4.3127
    -4.2144  -4.2144  -4.1885  -4.1885  -4.1851  -4.1851  -4.1751  -4.1751
    -1.0075  -1.0075  -0.6649  -0.6649  -0.5835  -0.5835  -0.5389  -0.5389
    -0.2996  -0.2996  -0.2667  -0.2667  -0.2385  -0.2385  -0.1940  -0.1940
    -0.1488  -0.1488  -0.0943  -0.0943  -0.0338  -0.0338   0.0271   0.0271
     0.0707   0.0707   0.1310   0.1310   0.1885   0.1885   0.2250   0.2250
     0.2337   0.2337   0.2845   0.2845   0.3217   0.3217   0.3663   0.3663
     0.3923   0.3923   0.4447   0.4447   0.4858   0.4858   0.5554   0.5554
     0.6742   0.6742   0.6999   0.6999   0.7242   0.7242   0.7431   0.7431
     0.7709   0.7709   0.7927   0.7927   0.8383   0.8383   0.8633   0.8633
     0.8727   0.8727   0.8966   0.8966   0.9248   0.9248   0.9506   0.9506
     0.9760   0.9760   0.9958   0.9958   1.0211   1.0211   1.0353   1.0353
     1.0683   1.0683   1.1020   1.1020   1.1250   1.1250   1.1404   1.1404
     1.1632   1.1632   1.1934   1.1934   1.2207   1.2207   1.2311   1.2311
     1.2619   1.2619   1.2854   1.2854   1.3135   1.3135   1.3315   1.3315
     1.3507   1.3507   1.3798   1.3798   1.4001   1.4001   1.4259   1.4259
     1.4476   1.4476   1.4641   1.4641   1.5008   1.5008   1.5143   1.5143
     1.5550   1.5550   1.5788   1.5788   1.6099   1.6099   1.6403   1.6403
     1.6772   1.6772   1.6994   1.6994   1.7783   1.7783   1.8292   1.8292
     1.9102   1.9102   1.9986   1.9986   2.0674   2.0674   2.1027   2.1027
     4.5669   4.5669   4.6584   4.6584   4.7645   4.7645   4.9349   4.9349
     5.5348   5.5348   5.6749   5.6749   5.7986   5.7986   5.9432   5.9432
     6.0676   6.0676   6.1660   6.1660   6.2716   6.2716   6.4636   6.4636
     6.5058   6.5058   6.6027   6.6027   6.6638   6.6638   6.8356   6.8356
     6.8755   6.8755   7.0424   7.0424   7.0627   7.0627   7.1643   7.1643
     7.4719   7.4719   7.5453   7.5453   7.6438   7.6438   7.7308   7.7308
     7.8243   7.8243   7.9052   7.9052   7.9573   7.9573   7.9984   7.9984
     8.0568   8.0568   8.1045   8.1045   8.1329   8.1329   8.1630   8.1630
     8.2228   8.2228   8.2673   8.2673   8.3255   8.3255   8.3534   8.3534
     8.4136   8.4136   8.4454   8.4454   8.4801   8.4801   8.5384   8.5384
     8.5572   8.5572   8.6379   8.6379   8.6709   8.6709   8.7044   8.7044
     8.7410   8.7410   8.7663   8.7663   8.8030   8.8030   8.8521   8.8521
     8.8746   8.8746   8.9101   8.9101   9.0095   9.0095   9.0426   9.0426
     9.0537   9.0538   9.0966   9.0966   9.1407   9.1407   9.1690   9.1691
     9.1991   9.1992   9.2138   9.2138   9.2572   9.2573   9.3045   9.3045
     9.3260   9.3260   9.3590   9.3590   9.3808   9.3808   9.3972   9.3973
     9.4347   9.4347   9.4711   9.4711   9.5060   9.5060   9.5426   9.5426
     9.5722   9.5722   9.6315   9.6316   9.6495   9.6496   9.6799   9.6799
     9.9887   9.9891  10.0559  10.1020

     occupation numbers 
     1.0000   1.0000   1.0000   1.0000   1.0000   1.0000   1.0000   1.0000
     1.0000   1.0000   1.0000   1.0000   1.0000   1.0000   1.0000   1.0000
     1.0000   1.0000   1.0000   1.0000   1.0000   1.0000   1.0000   1.0000
     1.0000   1.0000   1.0000   1.0000   1.0000   1.0000   1.0000   1.0000
     1.0000   1.0000   1.0000   1.0000   1.0000   1.0000   1.0000   1.0000
     1.0000   1.0000   1.0000   1.0000   1.0000   1.0000   1.0000   1.0000
     1.0000   1.0000   1.0000   1.0000   1.0000   1.0000   1.0000   1.0000
     1.0000   1.0000   1.0000   1.0000   1.0000   1.0000   1.0000   1.0000
     1.0000   1.0000   1.0000   1.0000   1.0000   1.0000   1.0000   1.0000
     1.0000   1.0000   1.0000   1.0000   1.0000   1.0000   1.0000   1.0000
     1.0000   1.0000   1.0000   1.0000   1.0000   1.0000   1.0000   1.0000
     1.0000   1.0000   1.0000   1.0000   1.0000   1.0000   1.0000   1.0000
     1.0000   1.0000   1.0000   1.0000   1.0000   1.0000   1.0000   1.0000
     1.0000   1.0000   1.0000   1.0000   1.0000   1.0000   1.0000   1.0000
     1.0000   1.0000   1.0000   1.0000   1.0000   1.0000   1.0000   1.0000
     1.0000   1.0000   1.0000   1.0000   1.0000   1.0000   1.0000   1.0000
     1.0000   1.0000   1.0000   1.0000   1.0000   1.0000   1.0000   1.0000
     1.0000   1.0000   1.0000   1.0000   1.0000   1.0000   1.0000   1.0000
     1.0000   1.0000   1.0000   1.0000   1.0000   1.0000   1.0000   1.0000
     1.0000   1.0000   1.0000   1.0000   1.0000   1.0000   1.0000   1.0000
     1.0000   1.0000   1.0000   1.0000   1.0000   1.0000   1.0000   1.0000
     1.0000   1.0000   1.0000   1.0000   1.0000   1.0000   1.0000   1.0000
     1.0000   1.0000   1.0000   1.0000   1.0000   1.0000   1.0000   1.0000
     1.0000   1.0000   1.0000   1.0000   1.0000   1.0000   1.0000   1.0000
     1.0000   1.0000   1.0000   1.0000   1.0000   1.0000   1.0000   1.0000
     1.0000   1.0000   1.0000   1.0000   1.0000   1.0000   1.0000   1.0000
     1.0000   1.0000   1.0000   1.0000   1.0000   1.0000   1.0000   1.0000
     1.0000   1.0000   1.0000   1.0000   1.0000   1.0000   1.0000   1.0000
     1.0000   1.0000   1.0000   1.0000   1.0000   1.0000   1.0000   1.0000
     1.0000   1.0000   1.0000   1.0000   1.0000   1.0000   1.0000   1.0000
     1.0000   1.0000   1.0000   1.0000   1.0000   1.0000   1.0000   1.0000
     1.0000   1.0000   1.0000   1.0000   1.0000   1.0000   1.0000   1.0000
     1.0000   1.0000   1.0000   1.0000   1.0000   1.0000   1.0000   1.0000
     1.0000   1.0000   1.0000   1.0000   1.0000   1.0000   1.0000   1.0000
     1.0000   1.0000   1.0000   1.0000   1.0000   1.0000   1.0000   1.0000
     1.0000   1.0000   1.0000   1.0000   1.0000   1.0000   1.0000   1.0000
     1.0000   1.0000   1.0000   1.0000   1.0000   1.0000   1.0000   1.0000
     1.0000   1.0000   1.0000   1.0000   1.0000   1.0000   1.0000   1.0000
     1.0000   1.0000   1.0000   1.0000   1.0000   1.0000   1.0000   1.0000
     1.0000   1.0000   1.0000   1.0000   1.0000   1.0000   1.0000   1.0000
     1.0000   1.0000   1.0000   1.0000   1.0000   1.0000   1.0000   1.0000
     1.0000   1.0000   1.0000   1.0000   1.0000   1.0000   1.0000   1.0000
     1.0000   1.0000   1.0000   1.0000   1.0000   1.0000   1.0000   1.0000
     1.0000   1.0000   1.0000   1.0000   1.0000   1.0000   1.0000   1.0000
     0.0000   0.0000   0.0000   0.0000   0.0000   0.0000   0.0000   0.0000
     0.0000   0.0000   0.0000   0.0000   0.0000   0.0000   0.0000   0.0000
     0.0000   0.0000   0.0000   0.0000   0.0000   0.0000   0.0000   0.0000
     0.0000   0.0000   0.0000   0.0000   0.0000   0.0000   0.0000   0.0000
     0.0000   0.0000   0.0000   0.0000   0.0000   0.0000   0.0000   0.0000
     0.0000   0.0000   0.0000   0.0000   0.0000   0.0000   0.0000   0.0000
     0.0000   0.0000   0.0000   0.0000   0.0000   0.0000   0.0000   0.0000
     0.0000   0.0000   0.0000   0.0000   0.0000   0.0000   0.0000   0.0000
     0.0000   0.0000   0.0000   0.0000   0.0000   0.0000   0.0000   0.0000
     0.0000   0.0000   0.0000   0.0000   0.0000   0.0000   0.0000   0.0000
     0.0000   0.0000   0.0000   0.0000   0.0000   0.0000   0.0000   0.0000
     0.0000   0.0000   0.0000   0.0000   0.0000   0.0000   0.0000   0.0000
     0.0000   0.0000   0.0000   0.0000   0.0000   0.0000   0.0000   0.0000
     0.0000   0.0000   0.0000   0.0000   0.0000   0.0000   0.0000   0.0000
     0.0000   0.0000   0.0000   0.0000   0.0000   0.0000   0.0000   0.0000
     0.0000   0.0000   0.0000   0.0000   0.0000   0.0000   0.0000   0.0000
     0.0000   0.0000   0.0000   0.0000   0.0000   0.0000   0.0000   0.0000
     0.0000   0.0000   0.0000   0.0000   0.0000   0.0000   0.0000   0.0000
     0.0000   0.0000   0.0000   0.0000

          k = 0.5000 0.5000 0.2500 ( 73972 PWs)   bands (ev):

   -18.1281 -18.1281 -18.0397 -18.0397 -17.9993 -17.9993 -17.9954 -17.9954
   -17.9650 -17.9650 -17.9608 -17.9608 -17.8047 -17.8047 -17.7796 -17.7796
   -15.3216 -15.3216 -15.3008 -15.3008 -15.2532 -15.2525 -15.2495 -15.2489
   -15.2402 -15.2401 -15.2353 -15.2351 -15.2228 -15.2227 -15.2148 -15.2148
   -15.1850 -15.1849 -15.1676 -15.1675 -15.0948 -15.0948 -15.0876 -15.0876
   -15.0732 -15.0732 -15.0690 -15.0690 -15.0092 -15.0092 -15.0005 -15.0005
   -12.7868 -12.7866 -12.7740 -12.7697 -12.7692 -12.7685 -12.7353 -12.7312
   -12.7263 -12.7262 -12.7222 -12.7214 -12.7152 -12.7149 -12.6929 -12.6923
   -12.6801 -12.6800 -12.6591 -12.6589 -12.6571 -12.6570 -12.6521 -12.6520
   -12.6459 -12.6452 -12.6338 -12.6337 -12.5928 -12.5926 -12.5901 -12.5899
   -12.5706 -12.5705 -12.5590 -12.5588 -12.5444 -12.5438 -12.5073 -12.5072
   -12.4987 -12.4986 -12.4918 -12.4915 -12.4906 -12.4903 -12.4172 -12.4172
   -11.3979 -11.3969 -11.3485 -11.3476 -11.2772 -11.2765 -11.2338 -11.2336
   -11.2201 -11.2196 -11.1759 -11.1754 -11.1141 -11.1125 -11.0798 -11.0780
   -11.0418 -11.0382 -11.0302 -11.0258 -10.9788 -10.9781 -10.9591 -10.9582
   -10.9307 -10.9294 -10.9181 -10.9168 -10.8898 -10.8889 -10.8427 -10.8423
   -10.8343 -10.8337 -10.7905 -10.7901 -10.7741 -10.7740 -10.6810 -10.6805
   -10.6485 -10.6483 -10.6233 -10.6228 -10.5964 -10.5959 -10.5466 -10.5462
    -6.0980  -6.0980  -6.0135  -6.0132  -5.9759  -5.9756  -5.9729  -5.9728
    -5.9414  -5.9412  -5.9356  -5.9355  -5.7960  -5.7959  -5.7737  -5.7734
    -5.0324  -5.0318  -4.9140  -4.9133  -4.8485  -4.8475  -4.7803  -4.7790
    -4.6752  -4.6736  -4.5768  -4.5741  -4.5254  -4.5241  -4.4986  -4.4975
    -4.4792  -4.4781  -4.4641  -4.4610  -4.4151  -4.4125  -4.3926  -4.3898
    -4.3826  -4.3816  -4.3759  -4.3734  -4.3632  -4.3624  -4.3576  -4.3566
    -4.3505  -4.3501  -4.3397  -4.3390  -4.3197  -4.3190  -4.3148  -4.3136
    -4.2151  -4.2142  -4.1888  -4.1873  -4.1860  -4.1849  -4.1759  -4.1747
    -0.8258  -0.8020  -0.5286  -0.4983  -0.4615  -0.4470  -0.4093  -0.3892
    -0.2989  -0.2835  -0.2686  -0.2606  -0.2407  -0.2310  -0.2056  -0.1783
    -0.1434  -0.1330  -0.0959  -0.0773  -0.0554  -0.0488  -0.0109   0.0113
     0.0497   0.0716   0.1172   0.1377   0.1564   0.1884   0.2025   0.2150
     0.2309   0.2412   0.2614   0.2895   0.3086   0.3202   0.3326   0.3493
     0.3681   0.3812   0.4182   0.4256   0.4508   0.4693   0.5245   0.5612
     0.6614   0.6803   0.6828   0.7029   0.7166   0.7200   0.7377   0.7519
     0.7659   0.7763   0.7876   0.7946   0.8106   0.8317   0.8356   0.8434
     0.8534   0.8633   0.8787   0.8894   0.9057   0.9129   0.9280   0.9405
     0.9557   0.9595   0.9680   0.9826   0.9985   1.0042   1.0153   1.0335
     1.0491   1.0530   1.0706   1.0842   1.0986   1.1093   1.1245   1.1375
     1.1471   1.1585   1.1751   1.1863   1.1931   1.2108   1.2235   1.2421
     1.2512   1.2642   1.2738   1.2943   1.3010   1.3162   1.3312   1.3386
     1.3452   1.3567   1.3765   1.3846   1.4056   1.4105   1.4287   1.4346
     1.4409   1.4514   1.4638   1.4781   1.4907   1.4999   1.5095   1.5193
     1.5427   1.5518   1.5618   1.5790   1.5958   1.6106   1.6197   1.6419
     1.6493   1.6636   1.6793   1.6972   1.7205   1.7357   1.7583   1.7849
     1.7995   1.8180   1.8908   1.8948   1.9274   1.9597   2.0047   2.0293
     4.7668   4.8592   4.9335   4.9628   5.0041   5.0928   5.1738   5.1958
     5.4858   5.5316   5.6157   5.6488   5.7291   5.7861   5.9157   5.9366
     6.1329   6.1756   6.2453   6.3202   6.3312   6.4108   6.4776   6.5257
     6.5488   6.5839   6.6268   6.6447   6.6803   6.6932   6.8094   6.8277
     6.8661   6.8800   6.9912   7.0170   7.0361   7.0634   7.1394   7.1649
     7.3627   7.4022   7.4139   7.4522   7.4762   7.5153   7.5203   7.6126
     7.7623   7.7977   7.8169   7.8452   7.8747   7.9141   7.9321   7.9568
     8.0015   8.0092   8.0202   8.0399   8.0972   8.1002   8.1154   8.1305
     8.1744   8.1958   8.2267   8.2318   8.2919   8.3092   8.3237   8.3489
     8.3652   8.3789   8.4097   8.4389   8.4677   8.4862   8.5006   8.5113
     8.5369   8.5438   8.5787   8.5861   8.6114   8.6163   8.6526   8.6594
     8.6911   8.6942   8.7319   8.7569   8.8062   8.8237   8.8351   8.8507
     8.9099   8.9288   8.9783   8.9881   9.0023   9.0128   9.0280   9.0445
     9.0889   9.0978   9.1203   9.1410   9.1468   9.1630   9.1758   9.1954
     9.2025   9.2171   9.2563   9.2774   9.2964   9.3040   9.3186   9.3309
     9.3550   9.3643   9.3850   9.3934   9.3997   9.4080   9.4173   9.4334
     9.4513   9.4818   9.4962   9.5061   9.5220   9.5334   9.5518   9.5589
     9.6024   9.6167   9.6323   9.6402   9.6544   9.6607   9.7103   9.7199
     9.9223   9.9413  10.0007  10.0121

     occupation numbers 
     1.0000   1.0000   1.0000   1.0000   1.0000   1.0000   1.0000   1.0000
     1.0000   1.0000   1.0000   1.0000   1.0000   1.0000   1.0000   1.0000
     1.0000   1.0000   1.0000   1.0000   1.0000   1.0000   1.0000   1.0000
     1.0000   1.0000   1.0000   1.0000   1.0000   1.0000   1.0000   1.0000
     1.0000   1.0000   1.0000   1.0000   1.0000   1.0000   1.0000   1.0000
     1.0000   1.0000   1.0000   1.0000   1.0000   1.0000   1.0000   1.0000
     1.0000   1.0000   1.0000   1.0000   1.0000   1.0000   1.0000   1.0000
     1.0000   1.0000   1.0000   1.0000   1.0000   1.0000   1.0000   1.0000
     1.0000   1.0000   1.0000   1.0000   1.0000   1.0000   1.0000   1.0000
     1.0000   1.0000   1.0000   1.0000   1.0000   1.0000   1.0000   1.0000
     1.0000   1.0000   1.0000   1.0000   1.0000   1.0000   1.0000   1.0000
     1.0000   1.0000   1.0000   1.0000   1.0000   1.0000   1.0000   1.0000
     1.0000   1.0000   1.0000   1.0000   1.0000   1.0000   1.0000   1.0000
     1.0000   1.0000   1.0000   1.0000   1.0000   1.0000   1.0000   1.0000
     1.0000   1.0000   1.0000   1.0000   1.0000   1.0000   1.0000   1.0000
     1.0000   1.0000   1.0000   1.0000   1.0000   1.0000   1.0000   1.0000
     1.0000   1.0000   1.0000   1.0000   1.0000   1.0000   1.0000   1.0000
     1.0000   1.0000   1.0000   1.0000   1.0000   1.0000   1.0000   1.0000
     1.0000   1.0000   1.0000   1.0000   1.0000   1.0000   1.0000   1.0000
     1.0000   1.0000   1.0000   1.0000   1.0000   1.0000   1.0000   1.0000
     1.0000   1.0000   1.0000   1.0000   1.0000   1.0000   1.0000   1.0000
     1.0000   1.0000   1.0000   1.0000   1.0000   1.0000   1.0000   1.0000
     1.0000   1.0000   1.0000   1.0000   1.0000   1.0000   1.0000   1.0000
     1.0000   1.0000   1.0000   1.0000   1.0000   1.0000   1.0000   1.0000
     1.0000   1.0000   1.0000   1.0000   1.0000   1.0000   1.0000   1.0000
     1.0000   1.0000   1.0000   1.0000   1.0000   1.0000   1.0000   1.0000
     1.0000   1.0000   1.0000   1.0000   1.0000   1.0000   1.0000   1.0000
     1.0000   1.0000   1.0000   1.0000   1.0000   1.0000   1.0000   1.0000
     1.0000   1.0000   1.0000   1.0000   1.0000   1.0000   1.0000   1.0000
     1.0000   1.0000   1.0000   1.0000   1.0000   1.0000   1.0000   1.0000
     1.0000   1.0000   1.0000   1.0000   1.0000   1.0000   1.0000   1.0000
     1.0000   1.0000   1.0000   1.0000   1.0000   1.0000   1.0000   1.0000
     1.0000   1.0000   1.0000   1.0000   1.0000   1.0000   1.0000   1.0000
     1.0000   1.0000   1.0000   1.0000   1.0000   1.0000   1.0000   1.0000
     1.0000   1.0000   1.0000   1.0000   1.0000   1.0000   1.0000   1.0000
     1.0000   1.0000   1.0000   1.0000   1.0000   1.0000   1.0000   1.0000
     1.0000   1.0000   1.0000   1.0000   1.0000   1.0000   1.0000   1.0000
     1.0000   1.0000   1.0000   1.0000   1.0000   1.0000   1.0000   1.0000
     1.0000   1.0000   1.0000   1.0000   1.0000   1.0000   1.0000   1.0000
     1.0000   1.0000   1.0000   1.0000   1.0000   1.0000   1.0000   1.0000
     1.0000   1.0000   1.0000   1.0000   1.0000   1.0000   1.0000   1.0000
     1.0000   1.0000   1.0000   1.0000   1.0000   1.0000   1.0000   1.0000
     1.0000   1.0000   1.0000   1.0000   1.0000   1.0000   1.0000   1.0000
     1.0000   1.0000   1.0000   1.0000   1.0000   1.0000   1.0000   1.0000
     0.0000   0.0000   0.0000   0.0000   0.0000   0.0000   0.0000   0.0000
     0.0000   0.0000   0.0000   0.0000   0.0000   0.0000   0.0000   0.0000
     0.0000   0.0000   0.0000   0.0000   0.0000   0.0000   0.0000   0.0000
     0.0000   0.0000   0.0000   0.0000   0.0000   0.0000   0.0000   0.0000
     0.0000   0.0000   0.0000   0.0000   0.0000   0.0000   0.0000   0.0000
     0.0000   0.0000   0.0000   0.0000   0.0000   0.0000   0.0000   0.0000
     0.0000   0.0000   0.0000   0.0000   0.0000   0.0000   0.0000   0.0000
     0.0000   0.0000   0.0000   0.0000   0.0000   0.0000   0.0000   0.0000
     0.0000   0.0000   0.0000   0.0000   0.0000   0.0000   0.0000   0.0000
     0.0000   0.0000   0.0000   0.0000   0.0000   0.0000   0.0000   0.0000
     0.0000   0.0000   0.0000   0.0000   0.0000   0.0000   0.0000   0.0000
     0.0000   0.0000   0.0000   0.0000   0.0000   0.0000   0.0000   0.0000
     0.0000   0.0000   0.0000   0.0000   0.0000   0.0000   0.0000   0.0000
     0.0000   0.0000   0.0000   0.0000   0.0000   0.0000   0.0000   0.0000
     0.0000   0.0000   0.0000   0.0000   0.0000   0.0000   0.0000   0.0000
     0.0000   0.0000   0.0000   0.0000   0.0000   0.0000   0.0000   0.0000
     0.0000   0.0000   0.0000   0.0000   0.0000   0.0000   0.0000   0.0000
     0.0000   0.0000   0.0000   0.0000   0.0000   0.0000   0.0000   0.0000
     0.0000   0.0000   0.0000   0.0000

          k = 0.5000 0.5000 0.5000 ( 73992 PWs)   bands (ev):

   -18.1281 -18.1281 -18.0397 -18.0397 -17.9993 -17.9993 -17.9954 -17.9954
   -17.9650 -17.9650 -17.9608 -17.9608 -17.8047 -17.8047 -17.7796 -17.7796
   -15.3216 -15.3216 -15.3008 -15.3008 -15.2516 -15.2516 -15.2502 -15.2502
   -15.2402 -15.2402 -15.2355 -15.2355 -15.2227 -15.2227 -15.2148 -15.2148
   -15.1850 -15.1850 -15.1676 -15.1676 -15.0948 -15.0948 -15.0876 -15.0876
   -15.0732 -15.0732 -15.0690 -15.0690 -15.0093 -15.0093 -15.0005 -15.0005
   -12.7862 -12.7862 -12.7683 -12.7683 -12.7589 -12.7589 -12.7449 -12.7449
   -12.7263 -12.7263 -12.7229 -12.7229 -12.7157 -12.7157 -12.6916 -12.6916
   -12.6799 -12.6799 -12.6590 -12.6590 -12.6571 -12.6571 -12.6522 -12.6522
   -12.6468 -12.6468 -12.6337 -12.6337 -12.5930 -12.5930 -12.5900 -12.5900
   -12.5701 -12.5701 -12.5573 -12.5573 -12.5450 -12.5450 -12.5083 -12.5083
   -12.4985 -12.4985 -12.4929 -12.4929 -12.4907 -12.4907 -12.4172 -12.4172
   -11.3910 -11.3910 -11.3599 -11.3599 -11.2812 -11.2812 -11.2279 -11.2279
   -11.2159 -11.2159 -11.1784 -11.1784 -11.1186 -11.1186 -11.0771 -11.0771
   -11.0351 -11.0351 -11.0250 -11.0250 -10.9769 -10.9769 -10.9538 -10.9538
   -10.9343 -10.9343 -10.9203 -10.9203 -10.8914 -10.8914 -10.8400 -10.8400
   -10.8270 -10.8270 -10.7891 -10.7891 -10.7728 -10.7728 -10.6766 -10.6766
   -10.6493 -10.6493 -10.6312 -10.6312 -10.5980 -10.5980 -10.5487 -10.5487
    -6.0980  -6.0980  -6.0133  -6.0133  -5.9757  -5.9757  -5.9728  -5.9728
    -5.9414  -5.9414  -5.9357  -5.9357  -5.7960  -5.7960  -5.7735  -5.7735
    -4.8928  -4.8928  -4.8574  -4.8574  -4.8111  -4.8111  -4.7482  -4.7482
    -4.7308  -4.7308  -4.6957  -4.6957  -4.5797  -4.5797  -4.5594  -4.5594
    -4.5002  -4.5002  -4.4794  -4.4794  -4.4162  -4.4162  -4.3950  -4.3950
    -4.3847  -4.3847  -4.3769  -4.3769  -4.3633  -4.3633  -4.3588  -4.3588
    -4.3511  -4.3511  -4.3398  -4.3398  -4.3200  -4.3200  -4.3149  -4.3149
    -4.2148  -4.2148  -4.1879  -4.1879  -4.1855  -4.1855  -4.1755  -4.1755
    -0.4918  -0.4918  -0.3623  -0.3623  -0.3380  -0.3380  -0.2944  -0.2944
    -0.2651  -0.2651  -0.2429  -0.2429  -0.1865  -0.1865  -0.1413  -0.1413
    -0.1297  -0.1297  -0.0876  -0.0876  -0.0659  -0.0659  -0.0042  -0.0042
     0.0362   0.0362   0.0938   0.0938   0.1472   0.1472   0.1774   0.1774
     0.2214   0.2214   0.2443   0.2443   0.2834   0.2834   0.3115   0.3115
     0.3423   0.3423   0.3640   0.3640   0.3921   0.3921   0.4867   0.4867
     0.6646   0.6646   0.6965   0.6965   0.7160   0.7160   0.7399   0.7399
     0.7585   0.7585   0.7782   0.7782   0.7928   0.7928   0.8253   0.8253
     0.8473   0.8473   0.8755   0.8755   0.8981   0.8981   0.9143   0.9143
     0.9347   0.9347   0.9684   0.9684   0.9865   0.9865   1.0080   1.0080
     1.0367   1.0367   1.0613   1.0613   1.0783   1.0783   1.1010   1.1010
     1.1319   1.1319   1.1583   1.1583   1.1951   1.1951   1.2207   1.2207
     1.2569   1.2569   1.2807   1.2807   1.3054   1.3054   1.3313   1.3313
     1.3646   1.3646   1.3828   1.3828   1.4175   1.4175   1.4303   1.4303
     1.4433   1.4433   1.4648   1.4648   1.4829   1.4829   1.5073   1.5073
     1.5338   1.5338   1.5557   1.5557   1.5820   1.5820   1.6020   1.6020
     1.6303   1.6303   1.6699   1.6699   1.7053   1.7053   1.7328   1.7328
     1.7654   1.7654   1.8069   1.8069   1.8692   1.8692   1.9920   1.9920
     5.0720   5.0720   5.2179   5.2179   5.3469   5.3469   5.4163   5.4163
     5.5104   5.5104   5.5733   5.5733   5.6897   5.6897   5.8267   5.8267
     6.3657   6.3657   6.4887   6.4887   6.5767   6.5767   6.6273   6.6273
     6.6619   6.6619   6.7213   6.7213   6.7512   6.7512   6.8249   6.8249
     6.8903   6.8903   6.9445   6.9445   6.9987   6.9987   7.0589   7.0589
     7.1064   7.1064   7.1639   7.1639   7.1972   7.1972   7.2907   7.2907
     7.7757   7.7757   7.8119   7.8119   7.8634   7.8634   7.8961   7.8961
     7.9298   7.9298   7.9926   7.9926   8.0361   8.0361   8.0696   8.0696
     8.1813   8.1813   8.2478   8.2478   8.2942   8.2942   8.3378   8.3378
     8.3850   8.3850   8.4114   8.4114   8.4368   8.4368   8.4604   8.4604
     8.5017   8.5017   8.5464   8.5464   8.5873   8.5873   8.6128   8.6128
     8.6535   8.6535   8.6700   8.6700   8.7697   8.7697   8.8549   8.8549
     8.8980   8.8980   8.9700   8.9700   9.0568   9.0568   9.0934   9.0934
     9.1228   9.1228   9.1515   9.1515   9.1782   9.1782   9.2072   9.2072
     9.2479   9.2479   9.2905   9.2905   9.3169   9.3169   9.3550   9.3550
     9.3843   9.3843   9.3986   9.3986   9.4196   9.4196   9.4925   9.4925
     9.5193   9.5193   9.5566   9.5567   9.5866   9.5866   9.6103   9.6103
     9.6417   9.6417   9.6873   9.6874   9.7084   9.7085   9.7336   9.7337
     9.9277   9.9282   9.9729   9.9729

     occupation numbers 
     1.0000   1.0000   1.0000   1.0000   1.0000   1.0000   1.0000   1.0000
     1.0000   1.0000   1.0000   1.0000   1.0000   1.0000   1.0000   1.0000
     1.0000   1.0000   1.0000   1.0000   1.0000   1.0000   1.0000   1.0000
     1.0000   1.0000   1.0000   1.0000   1.0000   1.0000   1.0000   1.0000
     1.0000   1.0000   1.0000   1.0000   1.0000   1.0000   1.0000   1.0000
     1.0000   1.0000   1.0000   1.0000   1.0000   1.0000   1.0000   1.0000
     1.0000   1.0000   1.0000   1.0000   1.0000   1.0000   1.0000   1.0000
     1.0000   1.0000   1.0000   1.0000   1.0000   1.0000   1.0000   1.0000
     1.0000   1.0000   1.0000   1.0000   1.0000   1.0000   1.0000   1.0000
     1.0000   1.0000   1.0000   1.0000   1.0000   1.0000   1.0000   1.0000
     1.0000   1.0000   1.0000   1.0000   1.0000   1.0000   1.0000   1.0000
     1.0000   1.0000   1.0000   1.0000   1.0000   1.0000   1.0000   1.0000
     1.0000   1.0000   1.0000   1.0000   1.0000   1.0000   1.0000   1.0000
     1.0000   1.0000   1.0000   1.0000   1.0000   1.0000   1.0000   1.0000
     1.0000   1.0000   1.0000   1.0000   1.0000   1.0000   1.0000   1.0000
     1.0000   1.0000   1.0000   1.0000   1.0000   1.0000   1.0000   1.0000
     1.0000   1.0000   1.0000   1.0000   1.0000   1.0000   1.0000   1.0000
     1.0000   1.0000   1.0000   1.0000   1.0000   1.0000   1.0000   1.0000
     1.0000   1.0000   1.0000   1.0000   1.0000   1.0000   1.0000   1.0000
     1.0000   1.0000   1.0000   1.0000   1.0000   1.0000   1.0000   1.0000
     1.0000   1.0000   1.0000   1.0000   1.0000   1.0000   1.0000   1.0000
     1.0000   1.0000   1.0000   1.0000   1.0000   1.0000   1.0000   1.0000
     1.0000   1.0000   1.0000   1.0000   1.0000   1.0000   1.0000   1.0000
     1.0000   1.0000   1.0000   1.0000   1.0000   1.0000   1.0000   1.0000
     1.0000   1.0000   1.0000   1.0000   1.0000   1.0000   1.0000   1.0000
     1.0000   1.0000   1.0000   1.0000   1.0000   1.0000   1.0000   1.0000
     1.0000   1.0000   1.0000   1.0000   1.0000   1.0000   1.0000   1.0000
     1.0000   1.0000   1.0000   1.0000   1.0000   1.0000   1.0000   1.0000
     1.0000   1.0000   1.0000   1.0000   1.0000   1.0000   1.0000   1.0000
     1.0000   1.0000   1.0000   1.0000   1.0000   1.0000   1.0000   1.0000
     1.0000   1.0000   1.0000   1.0000   1.0000   1.0000   1.0000   1.0000
     1.0000   1.0000   1.0000   1.0000   1.0000   1.0000   1.0000   1.0000
     1.0000   1.0000   1.0000   1.0000   1.0000   1.0000   1.0000   1.0000
     1.0000   1.0000   1.0000   1.0000   1.0000   1.0000   1.0000   1.0000
     1.0000   1.0000   1.0000   1.0000   1.0000   1.0000   1.0000   1.0000
     1.0000   1.0000   1.0000   1.0000   1.0000   1.0000   1.0000   1.0000
     1.0000   1.0000   1.0000   1.0000   1.0000   1.0000   1.0000   1.0000
     1.0000   1.0000   1.0000   1.0000   1.0000   1.0000   1.0000   1.0000
     1.0000   1.0000   1.0000   1.0000   1.0000   1.0000   1.0000   1.0000
     1.0000   1.0000   1.0000   1.0000   1.0000   1.0000   1.0000   1.0000
     1.0000   1.0000   1.0000   1.0000   1.0000   1.0000   1.0000   1.0000
     1.0000   1.0000   1.0000   1.0000   1.0000   1.0000   1.0000   1.0000
     1.0000   1.0000   1.0000   1.0000   1.0000   1.0000   1.0000   1.0000
     1.0000   1.0000   1.0000   1.0000   1.0000   1.0000   1.0000   1.0000
     0.0000   0.0000   0.0000   0.0000   0.0000   0.0000   0.0000   0.0000
     0.0000   0.0000   0.0000   0.0000   0.0000   0.0000   0.0000   0.0000
     0.0000   0.0000   0.0000   0.0000   0.0000   0.0000   0.0000   0.0000
     0.0000   0.0000   0.0000   0.0000   0.0000   0.0000   0.0000   0.0000
     0.0000   0.0000   0.0000   0.0000   0.0000   0.0000   0.0000   0.0000
     0.0000   0.0000   0.0000   0.0000   0.0000   0.0000   0.0000   0.0000
     0.0000   0.0000   0.0000   0.0000   0.0000   0.0000   0.0000   0.0000
     0.0000   0.0000   0.0000   0.0000   0.0000   0.0000   0.0000   0.0000
     0.0000   0.0000   0.0000   0.0000   0.0000   0.0000   0.0000   0.0000
     0.0000   0.0000   0.0000   0.0000   0.0000   0.0000   0.0000   0.0000
     0.0000   0.0000   0.0000   0.0000   0.0000   0.0000   0.0000   0.0000
     0.0000   0.0000   0.0000   0.0000   0.0000   0.0000   0.0000   0.0000
     0.0000   0.0000   0.0000   0.0000   0.0000   0.0000   0.0000   0.0000
     0.0000   0.0000   0.0000   0.0000   0.0000   0.0000   0.0000   0.0000
     0.0000   0.0000   0.0000   0.0000   0.0000   0.0000   0.0000   0.0000
     0.0000   0.0000   0.0000   0.0000   0.0000   0.0000   0.0000   0.0000
     0.0000   0.0000   0.0000   0.0000   0.0000   0.0000   0.0000   0.0000
     0.0000   0.0000   0.0000   0.0000   0.0000   0.0000   0.0000   0.0000
     0.0000   0.0000   0.0000   0.0000

          k = 0.5000 0.5000 0.7500 ( 73972 PWs)   bands (ev):

   -18.1281 -18.1281 -18.0397 -18.0397 -17.9993 -17.9993 -17.9954 -17.9954
   -17.9650 -17.9650 -17.9608 -17.9608 -17.8047 -17.8047 -17.7796 -17.7796
   -15.3216 -15.3216 -15.3008 -15.3008 -15.2532 -15.2525 -15.2495 -15.2489
   -15.2402 -15.2401 -15.2353 -15.2351 -15.2228 -15.2227 -15.2148 -15.2148
   -15.1850 -15.1849 -15.1676 -15.1675 -15.0948 -15.0948 -15.0876 -15.0876
   -15.0732 -15.0732 -15.0690 -15.0690 -15.0092 -15.0092 -15.0005 -15.0005
   -12.7868 -12.7866 -12.7740 -12.7697 -12.7692 -12.7685 -12.7353 -12.7312
   -12.7263 -12.7262 -12.7222 -12.7214 -12.7152 -12.7149 -12.6929 -12.6923
   -12.6801 -12.6800 -12.6591 -12.6589 -12.6571 -12.6570 -12.6521 -12.6520
   -12.6459 -12.6452 -12.6338 -12.6337 -12.5928 -12.5926 -12.5901 -12.5899
   -12.5706 -12.5705 -12.5590 -12.5588 -12.5444 -12.5438 -12.5073 -12.5072
   -12.4987 -12.4986 -12.4918 -12.4915 -12.4906 -12.4903 -12.4172 -12.4172
   -11.3979 -11.3969 -11.3485 -11.3476 -11.2772 -11.2765 -11.2338 -11.2336
   -11.2201 -11.2196 -11.1759 -11.1754 -11.1141 -11.1125 -11.0798 -11.0780
   -11.0418 -11.0382 -11.0302 -11.0258 -10.9788 -10.9781 -10.9591 -10.9582
   -10.9307 -10.9294 -10.9181 -10.9168 -10.8898 -10.8889 -10.8427 -10.8423
   -10.8343 -10.8337 -10.7905 -10.7901 -10.7741 -10.7740 -10.6810 -10.6805
   -10.6485 -10.6483 -10.6233 -10.6228 -10.5964 -10.5959 -10.5466 -10.5462
    -6.0980  -6.0980  -6.0135  -6.0132  -5.9759  -5.9756  -5.9729  -5.9728
    -5.9414  -5.9412  -5.9356  -5.9355  -5.7960  -5.7959  -5.7737  -5.7734
    -5.0324  -5.0318  -4.9140  -4.9133  -4.8485  -4.8475  -4.7803  -4.7790
    -4.6752  -4.6736  -4.5768  -4.5741  -4.5254  -4.5241  -4.4986  -4.4975
    -4.4792  -4.4781  -4.4641  -4.4610  -4.4151  -4.4125  -4.3926  -4.3898
    -4.3826  -4.3816  -4.3759  -4.3734  -4.3632  -4.3624  -4.3576  -4.3566
    -4.3505  -4.3501  -4.3397  -4.3390  -4.3197  -4.3190  -4.3148  -4.3136
    -4.2151  -4.2142  -4.1888  -4.1873  -4.1860  -4.1849  -4.1759  -4.1747
    -0.8258  -0.8020  -0.5286  -0.4983  -0.4615  -0.4470  -0.4093  -0.3892
    -0.2989  -0.2835  -0.2686  -0.2606  -0.2407  -0.2310  -0.2056  -0.1783
    -0.1434  -0.1330  -0.0959  -0.0773  -0.0554  -0.0488  -0.0109   0.0113
     0.0497   0.0716   0.1172   0.1377   0.1564   0.1884   0.2025   0.2150
     0.2309   0.2412   0.2614   0.2895   0.3086   0.3202   0.3326   0.3493
     0.3681   0.3812   0.4182   0.4256   0.4508   0.4693   0.5245   0.5612
     0.6614   0.6803   0.6828   0.7029   0.7166   0.7200   0.7377   0.7519
     0.7659   0.7763   0.7876   0.7946   0.8106   0.8317   0.8356   0.8434
     0.8534   0.8633   0.8787   0.8894   0.9057   0.9129   0.9280   0.9405
     0.9557   0.9595   0.9680   0.9826   0.9985   1.0042   1.0153   1.0335
     1.0491   1.0530   1.0706   1.0842   1.0986   1.1093   1.1245   1.1375
     1.1471   1.1585   1.1751   1.1863   1.1931   1.2108   1.2235   1.2421
     1.2512   1.2642   1.2738   1.2943   1.3010   1.3162   1.3312   1.3386
     1.3452   1.3567   1.3765   1.3846   1.4056   1.4105   1.4287   1.4346
     1.4409   1.4514   1.4638   1.4781   1.4907   1.4999   1.5095   1.5193
     1.5427   1.5518   1.5618   1.5790   1.5958   1.6106   1.6197   1.6419
     1.6493   1.6636   1.6793   1.6972   1.7205   1.7357   1.7583   1.7849
     1.7995   1.8180   1.8908   1.8948   1.9274   1.9597   2.0047   2.0293
     4.7668   4.8592   4.9335   4.9628   5.0041   5.0928   5.1738   5.1958
     5.4858   5.5316   5.6157   5.6488   5.7291   5.7861   5.9157   5.9366
     6.1329   6.1756   6.2453   6.3202   6.3312   6.4108   6.4776   6.5257
     6.5488   6.5839   6.6268   6.6447   6.6803   6.6932   6.8094   6.8277
     6.8661   6.8800   6.9912   7.0170   7.0361   7.0634   7.1394   7.1649
     7.3627   7.4022   7.4139   7.4522   7.4762   7.5153   7.5203   7.6126
     7.7623   7.7977   7.8169   7.8452   7.8747   7.9141   7.9321   7.9568
     8.0015   8.0092   8.0202   8.0399   8.0972   8.1002   8.1154   8.1305
     8.1744   8.1958   8.2267   8.2318   8.2919   8.3092   8.3237   8.3489
     8.3652   8.3789   8.4097   8.4389   8.4677   8.4862   8.5006   8.5113
     8.5369   8.5438   8.5787   8.5861   8.6114   8.6163   8.6526   8.6594
     8.6911   8.6942   8.7319   8.7569   8.8062   8.8237   8.8351   8.8507
     8.9099   8.9288   8.9783   8.9881   9.0023   9.0128   9.0280   9.0445
     9.0889   9.0978   9.1203   9.1410   9.1468   9.1630   9.1758   9.1954
     9.2025   9.2171   9.2563   9.2774   9.2964   9.3040   9.3186   9.3309
     9.3550   9.3643   9.3850   9.3934   9.3997   9.4080   9.4173   9.4334
     9.4513   9.4819   9.4962   9.5061   9.5220   9.5334   9.5518   9.5589
     9.6024   9.6167   9.6323   9.6402   9.6544   9.6607   9.7103   9.7199
     9.9223   9.9412  10.0009  10.0121

     occupation numbers 
     1.0000   1.0000   1.0000   1.0000   1.0000   1.0000   1.0000   1.0000
     1.0000   1.0000   1.0000   1.0000   1.0000   1.0000   1.0000   1.0000
     1.0000   1.0000   1.0000   1.0000   1.0000   1.0000   1.0000   1.0000
     1.0000   1.0000   1.0000   1.0000   1.0000   1.0000   1.0000   1.0000
     1.0000   1.0000   1.0000   1.0000   1.0000   1.0000   1.0000   1.0000
     1.0000   1.0000   1.0000   1.0000   1.0000   1.0000   1.0000   1.0000
     1.0000   1.0000   1.0000   1.0000   1.0000   1.0000   1.0000   1.0000
     1.0000   1.0000   1.0000   1.0000   1.0000   1.0000   1.0000   1.0000
     1.0000   1.0000   1.0000   1.0000   1.0000   1.0000   1.0000   1.0000
     1.0000   1.0000   1.0000   1.0000   1.0000   1.0000   1.0000   1.0000
     1.0000   1.0000   1.0000   1.0000   1.0000   1.0000   1.0000   1.0000
     1.0000   1.0000   1.0000   1.0000   1.0000   1.0000   1.0000   1.0000
     1.0000   1.0000   1.0000   1.0000   1.0000   1.0000   1.0000   1.0000
     1.0000   1.0000   1.0000   1.0000   1.0000   1.0000   1.0000   1.0000
     1.0000   1.0000   1.0000   1.0000   1.0000   1.0000   1.0000   1.0000
     1.0000   1.0000   1.0000   1.0000   1.0000   1.0000   1.0000   1.0000
     1.0000   1.0000   1.0000   1.0000   1.0000   1.0000   1.0000   1.0000
     1.0000   1.0000   1.0000   1.0000   1.0000   1.0000   1.0000   1.0000
     1.0000   1.0000   1.0000   1.0000   1.0000   1.0000   1.0000   1.0000
     1.0000   1.0000   1.0000   1.0000   1.0000   1.0000   1.0000   1.0000
     1.0000   1.0000   1.0000   1.0000   1.0000   1.0000   1.0000   1.0000
     1.0000   1.0000   1.0000   1.0000   1.0000   1.0000   1.0000   1.0000
     1.0000   1.0000   1.0000   1.0000   1.0000   1.0000   1.0000   1.0000
     1.0000   1.0000   1.0000   1.0000   1.0000   1.0000   1.0000   1.0000
     1.0000   1.0000   1.0000   1.0000   1.0000   1.0000   1.0000   1.0000
     1.0000   1.0000   1.0000   1.0000   1.0000   1.0000   1.0000   1.0000
     1.0000   1.0000   1.0000   1.0000   1.0000   1.0000   1.0000   1.0000
     1.0000   1.0000   1.0000   1.0000   1.0000   1.0000   1.0000   1.0000
     1.0000   1.0000   1.0000   1.0000   1.0000   1.0000   1.0000   1.0000
     1.0000   1.0000   1.0000   1.0000   1.0000   1.0000   1.0000   1.0000
     1.0000   1.0000   1.0000   1.0000   1.0000   1.0000   1.0000   1.0000
     1.0000   1.0000   1.0000   1.0000   1.0000   1.0000   1.0000   1.0000
     1.0000   1.0000   1.0000   1.0000   1.0000   1.0000   1.0000   1.0000
     1.0000   1.0000   1.0000   1.0000   1.0000   1.0000   1.0000   1.0000
     1.0000   1.0000   1.0000   1.0000   1.0000   1.0000   1.0000   1.0000
     1.0000   1.0000   1.0000   1.0000   1.0000   1.0000   1.0000   1.0000
     1.0000   1.0000   1.0000   1.0000   1.0000   1.0000   1.0000   1.0000
     1.0000   1.0000   1.0000   1.0000   1.0000   1.0000   1.0000   1.0000
     1.0000   1.0000   1.0000   1.0000   1.0000   1.0000   1.0000   1.0000
     1.0000   1.0000   1.0000   1.0000   1.0000   1.0000   1.0000   1.0000
     1.0000   1.0000   1.0000   1.0000   1.0000   1.0000   1.0000   1.0000
     1.0000   1.0000   1.0000   1.0000   1.0000   1.0000   1.0000   1.0000
     1.0000   1.0000   1.0000   1.0000   1.0000   1.0000   1.0000   1.0000
     1.0000   1.0000   1.0000   1.0000   1.0000   1.0000   1.0000   1.0000
     0.0000   0.0000   0.0000   0.0000   0.0000   0.0000   0.0000   0.0000
     0.0000   0.0000   0.0000   0.0000   0.0000   0.0000   0.0000   0.0000
     0.0000   0.0000   0.0000   0.0000   0.0000   0.0000   0.0000   0.0000
     0.0000   0.0000   0.0000   0.0000   0.0000   0.0000   0.0000   0.0000
     0.0000   0.0000   0.0000   0.0000   0.0000   0.0000   0.0000   0.0000
     0.0000   0.0000   0.0000   0.0000   0.0000   0.0000   0.0000   0.0000
     0.0000   0.0000   0.0000   0.0000   0.0000   0.0000   0.0000   0.0000
     0.0000   0.0000   0.0000   0.0000   0.0000   0.0000   0.0000   0.0000
     0.0000   0.0000   0.0000   0.0000   0.0000   0.0000   0.0000   0.0000
     0.0000   0.0000   0.0000   0.0000   0.0000   0.0000   0.0000   0.0000
     0.0000   0.0000   0.0000   0.0000   0.0000   0.0000   0.0000   0.0000
     0.0000   0.0000   0.0000   0.0000   0.0000   0.0000   0.0000   0.0000
     0.0000   0.0000   0.0000   0.0000   0.0000   0.0000   0.0000   0.0000
     0.0000   0.0000   0.0000   0.0000   0.0000   0.0000   0.0000   0.0000
     0.0000   0.0000   0.0000   0.0000   0.0000   0.0000   0.0000   0.0000
     0.0000   0.0000   0.0000   0.0000   0.0000   0.0000   0.0000   0.0000
     0.0000   0.0000   0.0000   0.0000   0.0000   0.0000   0.0000   0.0000
     0.0000   0.0000   0.0000   0.0000   0.0000   0.0000   0.0000   0.0000
     0.0000   0.0000   0.0000   0.0000

          k = 0.5000 0.7500 0.0000 ( 73986 PWs)   bands (ev):

   -18.1281 -18.1281 -18.0397 -18.0397 -17.9993 -17.9993 -17.9954 -17.9954
   -17.9651 -17.9651 -17.9608 -17.9608 -17.8047 -17.8047 -17.7796 -17.7796
   -15.3216 -15.3216 -15.3009 -15.3008 -15.2537 -15.2537 -15.2487 -15.2487
   -15.2401 -15.2401 -15.2349 -15.2349 -15.2229 -15.2228 -15.2149 -15.2149
   -15.1849 -15.1849 -15.1675 -15.1674 -15.0948 -15.0948 -15.0876 -15.0876
   -15.0732 -15.0732 -15.0690 -15.0690 -15.0092 -15.0092 -15.0005 -15.0005
   -12.7874 -12.7873 -12.7790 -12.7789 -12.7704 -12.7698 -12.7288 -12.7287
   -12.7263 -12.7263 -12.7206 -12.7203 -12.7150 -12.7144 -12.6968 -12.6960
   -12.6827 -12.6826 -12.6583 -12.6581 -12.6570 -12.6569 -12.6486 -12.6479
   -12.6434 -12.6430 -12.6337 -12.6336 -12.5922 -12.5914 -12.5900 -12.5899
   -12.5700 -12.5693 -12.5602 -12.5602 -12.5431 -12.5431 -12.5062 -12.5055
   -12.4987 -12.4986 -12.4912 -12.4911 -12.4894 -12.4893 -12.4172 -12.4172
   -11.4034 -11.4029 -11.3394 -11.3391 -11.2793 -11.2788 -11.2275 -11.2269
   -11.2144 -11.2134 -11.1730 -11.1722 -11.1066 -11.1053 -11.0784 -11.0761
   -11.0427 -11.0413 -11.0219 -11.0195 -10.9901 -10.9887 -10.9790 -10.9782
   -10.9550 -10.9519 -10.9152 -10.9131 -10.8932 -10.8918 -10.8468 -10.8458
   -10.8323 -10.8306 -10.7922 -10.7918 -10.7643 -10.7624 -10.6848 -10.6848
   -10.6456 -10.6454 -10.6199 -10.6196 -10.5922 -10.5920 -10.5402 -10.5396
    -6.0981  -6.0980  -6.0135  -6.0134  -5.9761  -5.9757  -5.9732  -5.9728
    -5.9423  -5.9394  -5.9371  -5.9341  -5.7959  -5.7958  -5.7736  -5.7735
    -5.1544  -5.1537  -5.0624  -5.0621  -4.7845  -4.7833  -4.7452  -4.7434
    -4.6710  -4.6688  -4.6102  -4.6071  -4.5016  -4.5009  -4.4806  -4.4798
    -4.4232  -4.4204  -4.4075  -4.4035  -4.3889  -4.3863  -4.3811  -4.3783
    -4.3725  -4.3681  -4.3627  -4.3614  -4.3574  -4.3518  -4.3438  -4.3412
    -4.3248  -4.3216  -4.3170  -4.3156  -4.2984  -4.2956  -4.2703  -4.2667
    -4.2132  -4.2114  -4.1882  -4.1877  -4.1842  -4.1815  -4.1744  -4.1733
    -1.0226  -0.9893  -0.7006  -0.6780  -0.6462  -0.5991  -0.5660  -0.5576
    -0.5454  -0.5378  -0.4594  -0.4396  -0.4065  -0.3921  -0.3655  -0.3583
    -0.1986  -0.1848  -0.1629  -0.1547  -0.0125  -0.0012   0.0257   0.0356
     0.0630   0.0887   0.1253   0.1375   0.1896   0.2043   0.2502   0.2671
     0.2905   0.3213   0.3476   0.3731   0.3908   0.4108   0.4170   0.4351
     0.4548   0.4780   0.4912   0.5060   0.5252   0.5723   0.6014   0.6178
     0.6783   0.6899   0.7037   0.7176   0.7282   0.7461   0.7678   0.7700
     0.7898   0.8099   0.8192   0.8274   0.8408   0.8542   0.8690   0.8787
     0.8902   0.9007   0.9211   0.9272   0.9415   0.9509   0.9649   0.9761
     0.9868   1.0007   1.0104   1.0199   1.0266   1.0390   1.0479   1.0575
     1.0774   1.0913   1.1001   1.1138   1.1238   1.1350   1.1492   1.1569
     1.1678   1.1783   1.1909   1.2045   1.2156   1.2234   1.2337   1.2429
     1.2511   1.2636   1.2878   1.2926   1.3017   1.3134   1.3296   1.3352
     1.3492   1.3626   1.3742   1.3821   1.3958   1.4021   1.4231   1.4333
     1.4386   1.4557   1.4603   1.4796   1.4958   1.5081   1.5199   1.5353
     1.5490   1.5713   1.5811   1.5887   1.6015   1.6093   1.6325   1.6422
     1.6788   1.6864   1.7073   1.7330   1.7896   1.8196   1.8547   1.8839
     1.9023   1.9259   1.9980   2.0194   2.1628   2.1773   2.2090   2.2300
     4.3493   4.3662   4.4709   4.5319   4.7808   4.8417   4.9343   5.0262
     5.2355   5.2663   5.3349   5.3799   5.6138   5.6359   5.7075   5.7599
     5.9650   6.0248   6.1172   6.1782   6.2757   6.2971   6.3722   6.4061
     6.4377   6.4750   6.5808   6.6315   6.6526   6.6855   6.7806   6.8255
     7.0009   7.0514   7.0865   7.1242   7.1966   7.2803   7.3612   7.3910
     7.5433   7.5969   7.6823   7.7073   7.7516   7.7876   7.8003   7.8303
     7.8667   7.9248   7.9378   7.9671   7.9805   8.0008   8.0162   8.0312
     8.0455   8.0627   8.0908   8.1067   8.1355   8.1544   8.1839   8.2080
     8.2578   8.2742   8.2858   8.3025   8.3459   8.3543   8.3679   8.3934
     8.4226   8.4278   8.4656   8.4812   8.4969   8.5158   8.5640   8.5683
     8.5992   8.6123   8.6269   8.6399   8.6529   8.6690   8.6913   8.7068
     8.7381   8.7493   8.7799   8.7942   8.7985   8.8051   8.8295   8.8458
     8.8592   8.8659   8.9013   8.9174   8.9504   8.9721   8.9820   9.0063
     9.0146   9.0318   9.0487   9.0614   9.0906   9.1055   9.1205   9.1407
     9.1635   9.1700   9.2122   9.2303   9.2422   9.2606   9.2773   9.2919
     9.3357   9.3518   9.3533   9.3763   9.3924   9.3999   9.4182   9.4380
     9.4498   9.4645   9.4871   9.4987   9.5097   9.5163   9.5507   9.5636
     9.5819   9.5928   9.6340   9.6387   9.6592   9.6629   9.7491   9.7577
     9.8877   9.9021   9.9554   9.9708

     occupation numbers 
     1.0000   1.0000   1.0000   1.0000   1.0000   1.0000   1.0000   1.0000
     1.0000   1.0000   1.0000   1.0000   1.0000   1.0000   1.0000   1.0000
     1.0000   1.0000   1.0000   1.0000   1.0000   1.0000   1.0000   1.0000
     1.0000   1.0000   1.0000   1.0000   1.0000   1.0000   1.0000   1.0000
     1.0000   1.0000   1.0000   1.0000   1.0000   1.0000   1.0000   1.0000
     1.0000   1.0000   1.0000   1.0000   1.0000   1.0000   1.0000   1.0000
     1.0000   1.0000   1.0000   1.0000   1.0000   1.0000   1.0000   1.0000
     1.0000   1.0000   1.0000   1.0000   1.0000   1.0000   1.0000   1.0000
     1.0000   1.0000   1.0000   1.0000   1.0000   1.0000   1.0000   1.0000
     1.0000   1.0000   1.0000   1.0000   1.0000   1.0000   1.0000   1.0000
     1.0000   1.0000   1.0000   1.0000   1.0000   1.0000   1.0000   1.0000
     1.0000   1.0000   1.0000   1.0000   1.0000   1.0000   1.0000   1.0000
     1.0000   1.0000   1.0000   1.0000   1.0000   1.0000   1.0000   1.0000
     1.0000   1.0000   1.0000   1.0000   1.0000   1.0000   1.0000   1.0000
     1.0000   1.0000   1.0000   1.0000   1.0000   1.0000   1.0000   1.0000
     1.0000   1.0000   1.0000   1.0000   1.0000   1.0000   1.0000   1.0000
     1.0000   1.0000   1.0000   1.0000   1.0000   1.0000   1.0000   1.0000
     1.0000   1.0000   1.0000   1.0000   1.0000   1.0000   1.0000   1.0000
     1.0000   1.0000   1.0000   1.0000   1.0000   1.0000   1.0000   1.0000
     1.0000   1.0000   1.0000   1.0000   1.0000   1.0000   1.0000   1.0000
     1.0000   1.0000   1.0000   1.0000   1.0000   1.0000   1.0000   1.0000
     1.0000   1.0000   1.0000   1.0000   1.0000   1.0000   1.0000   1.0000
     1.0000   1.0000   1.0000   1.0000   1.0000   1.0000   1.0000   1.0000
     1.0000   1.0000   1.0000   1.0000   1.0000   1.0000   1.0000   1.0000
     1.0000   1.0000   1.0000   1.0000   1.0000   1.0000   1.0000   1.0000
     1.0000   1.0000   1.0000   1.0000   1.0000   1.0000   1.0000   1.0000
     1.0000   1.0000   1.0000   1.0000   1.0000   1.0000   1.0000   1.0000
     1.0000   1.0000   1.0000   1.0000   1.0000   1.0000   1.0000   1.0000
     1.0000   1.0000   1.0000   1.0000   1.0000   1.0000   1.0000   1.0000
     1.0000   1.0000   1.0000   1.0000   1.0000   1.0000   1.0000   1.0000
     1.0000   1.0000   1.0000   1.0000   1.0000   1.0000   1.0000   1.0000
     1.0000   1.0000   1.0000   1.0000   1.0000   1.0000   1.0000   1.0000
     1.0000   1.0000   1.0000   1.0000   1.0000   1.0000   1.0000   1.0000
     1.0000   1.0000   1.0000   1.0000   1.0000   1.0000   1.0000   1.0000
     1.0000   1.0000   1.0000   1.0000   1.0000   1.0000   1.0000   1.0000
     1.0000   1.0000   1.0000   1.0000   1.0000   1.0000   1.0000   1.0000
     1.0000   1.0000   1.0000   1.0000   1.0000   1.0000   1.0000   1.0000
     1.0000   1.0000   1.0000   1.0000   1.0000   1.0000   1.0000   1.0000
     1.0000   1.0000   1.0000   1.0000   1.0000   1.0000   1.0000   1.0000
     1.0000   1.0000   1.0000   1.0000   1.0000   1.0000   1.0000   1.0000
     1.0000   1.0000   1.0000   1.0000   1.0000   1.0000   1.0000   1.0000
     1.0000   1.0000   1.0000   1.0000   1.0000   1.0000   1.0000   1.0000
     1.0000   1.0000   1.0000   1.0000   1.0000   1.0000   1.0000   1.0000
     1.0000   1.0000   1.0000   1.0000   1.0000   1.0000   1.0000   1.0000
     0.0000   0.0000   0.0000   0.0000   0.0000   0.0000   0.0000   0.0000
     0.0000   0.0000   0.0000   0.0000   0.0000   0.0000   0.0000   0.0000
     0.0000   0.0000   0.0000   0.0000   0.0000   0.0000   0.0000   0.0000
     0.0000   0.0000   0.0000   0.0000   0.0000   0.0000   0.0000   0.0000
     0.0000   0.0000   0.0000   0.0000   0.0000   0.0000   0.0000   0.0000
     0.0000   0.0000   0.0000   0.0000   0.0000   0.0000   0.0000   0.0000
     0.0000   0.0000   0.0000   0.0000   0.0000   0.0000   0.0000   0.0000
     0.0000   0.0000   0.0000   0.0000   0.0000   0.0000   0.0000   0.0000
     0.0000   0.0000   0.0000   0.0000   0.0000   0.0000   0.0000   0.0000
     0.0000   0.0000   0.0000   0.0000   0.0000   0.0000   0.0000   0.0000
     0.0000   0.0000   0.0000   0.0000   0.0000   0.0000   0.0000   0.0000
     0.0000   0.0000   0.0000   0.0000   0.0000   0.0000   0.0000   0.0000
     0.0000   0.0000   0.0000   0.0000   0.0000   0.0000   0.0000   0.0000
     0.0000   0.0000   0.0000   0.0000   0.0000   0.0000   0.0000   0.0000
     0.0000   0.0000   0.0000   0.0000   0.0000   0.0000   0.0000   0.0000
     0.0000   0.0000   0.0000   0.0000   0.0000   0.0000   0.0000   0.0000
     0.0000   0.0000   0.0000   0.0000   0.0000   0.0000   0.0000   0.0000
     0.0000   0.0000   0.0000   0.0000   0.0000   0.0000   0.0000   0.0000
     0.0000   0.0000   0.0000   0.0000

          k = 0.5000 0.7500 0.2500 ( 73882 PWs)   bands (ev):

   -18.1281 -18.1281 -18.0397 -18.0397 -17.9993 -17.9993 -17.9954 -17.9954
   -17.9651 -17.9651 -17.9608 -17.9608 -17.8047 -17.8047 -17.7796 -17.7796
   -15.3216 -15.3215 -15.3008 -15.3008 -15.2532 -15.2525 -15.2495 -15.2489
   -15.2402 -15.2401 -15.2353 -15.2351 -15.2228 -15.2228 -15.2148 -15.2148
   -15.1849 -15.1849 -15.1675 -15.1675 -15.0948 -15.0948 -15.0876 -15.0876
   -15.0732 -15.0732 -15.0690 -15.0690 -15.0092 -15.0092 -15.0005 -15.0005
   -12.7869 -12.7866 -12.7740 -12.7699 -12.7695 -12.7686 -12.7355 -12.7312
   -12.7264 -12.7263 -12.7227 -12.7218 -12.7164 -12.7160 -12.6960 -12.6953
   -12.6824 -12.6823 -12.6585 -12.6579 -12.6571 -12.6569 -12.6487 -12.6481
   -12.6448 -12.6440 -12.6337 -12.6336 -12.5926 -12.5917 -12.5900 -12.5898
   -12.5695 -12.5687 -12.5589 -12.5588 -12.5444 -12.5438 -12.5070 -12.5064
   -12.4986 -12.4985 -12.4917 -12.4914 -12.4906 -12.4903 -12.4172 -12.4172
   -11.3992 -11.3979 -11.3491 -11.3483 -11.2852 -11.2844 -11.2232 -11.2219
   -11.2073 -11.2067 -11.1778 -11.1771 -11.1083 -11.1069 -11.0775 -11.0750
   -11.0414 -11.0387 -11.0181 -11.0147 -10.9892 -10.9882 -10.9779 -10.9764
   -10.9537 -10.9509 -10.9238 -10.9213 -10.8906 -10.8886 -10.8468 -10.8459
   -10.8225 -10.8210 -10.7904 -10.7902 -10.7644 -10.7628 -10.6812 -10.6807
   -10.6476 -10.6473 -10.6257 -10.6252 -10.5945 -10.5941 -10.5431 -10.5421
    -6.0981  -6.0980  -6.0135  -6.0132  -5.9761  -5.9756  -5.9731  -5.9727
    -5.9425  -5.9396  -5.9372  -5.9342  -5.7959  -5.7958  -5.7737  -5.7734
    -5.0974  -5.0966  -5.0124  -5.0118  -4.7660  -4.7633  -4.7338  -4.7320
    -4.6981  -4.6961  -4.6620  -4.6604  -4.5022  -4.5014  -4.4813  -4.4800
    -4.4303  -4.4236  -4.4152  -4.4092  -4.4004  -4.3950  -4.3854  -4.3813
    -4.3781  -4.3747  -4.3698  -4.3650  -4.3604  -4.3552  -4.3491  -4.3463
    -4.3428  -4.3411  -4.3316  -4.3292  -4.3189  -4.3147  -4.3137  -4.3094
    -4.2147  -4.2132  -4.1882  -4.1871  -4.1853  -4.1821  -4.1755  -4.1750
    -0.8265  -0.7877  -0.6263  -0.6048  -0.5569  -0.5342  -0.5137  -0.5023
    -0.4932  -0.4306  -0.4118  -0.3791  -0.3630  -0.3398  -0.3286  -0.2879
    -0.2143  -0.2050  -0.1355  -0.1247  -0.0179  -0.0037   0.0343   0.0525
     0.0682   0.0784   0.0982   0.1146   0.1804   0.2105   0.2350   0.2626
     0.2872   0.3011   0.3230   0.3481   0.3810   0.3891   0.4050   0.4185
     0.4392   0.4447   0.4685   0.4813   0.4956   0.5176   0.5608   0.5981
     0.6658   0.6806   0.6876   0.7056   0.7138   0.7320   0.7398   0.7569
     0.7764   0.7882   0.7991   0.8130   0.8191   0.8350   0.8456   0.8618
     0.8779   0.8893   0.9059   0.9167   0.9266   0.9330   0.9426   0.9585
     0.9717   0.9899   0.9933   1.0016   1.0111   1.0265   1.0377   1.0416
     1.0573   1.0713   1.0843   1.0945   1.1097   1.1224   1.1340   1.1517
     1.1692   1.1717   1.1904   1.1939   1.2028   1.2196   1.2347   1.2388
     1.2590   1.2670   1.2770   1.2937   1.3092   1.3157   1.3268   1.3408
     1.3482   1.3709   1.3820   1.3908   1.3997   1.4050   1.4167   1.4282
     1.4459   1.4505   1.4557   1.4790   1.4894   1.5042   1.5162   1.5321
     1.5415   1.5645   1.5754   1.5808   1.5943   1.6162   1.6256   1.6417
     1.6668   1.6824   1.6931   1.7016   1.7505   1.7612   1.7879   1.8111
     1.8708   1.8946   1.8992   1.9259   2.0087   2.0267   2.1030   2.1196
     4.5340   4.6194   4.6874   4.7517   4.9866   5.0631   5.1243   5.2024
     5.2976   5.3347   5.3799   5.4079   5.7105   5.8037   5.8126   5.9268
     5.9721   6.0537   6.1178   6.1517   6.2894   6.3478   6.3960   6.4478
     6.4827   6.5438   6.5946   6.6520   6.6758   6.7169   6.7587   6.8124
     7.0107   7.0689   7.0917   7.1376   7.1840   7.2407   7.2955   7.3703
     7.3938   7.4293   7.5398   7.5602   7.5844   7.6212   7.6675   7.7195
     7.8207   7.8427   7.8624   7.9087   7.9486   7.9700   7.9853   7.9984
     8.0114   8.0500   8.0662   8.0882   8.1014   8.1154   8.1344   8.1520
     8.1815   8.1944   8.2210   8.2468   8.2847   8.3023   8.3460   8.3515
     8.3996   8.4328   8.4499   8.4695   8.5006   8.5102   8.5405   8.5456
     8.5594   8.5773   8.5986   8.6113   8.6312   8.6471   8.6832   8.6998
     8.7135   8.7356   8.7615   8.7760   8.8269   8.8397   8.8642   8.8689
     8.8970   8.9183   8.9219   8.9303   8.9716   8.9920   9.0171   9.0287
     9.0397   9.0464   9.0644   9.0792   9.0892   9.1040   9.1348   9.1528
     9.1931   9.2023   9.2114   9.2363   9.2528   9.2648   9.2883   9.2989
     9.3353   9.3469   9.3839   9.3959   9.4086   9.4120   9.4262   9.4371
     9.4421   9.4617   9.4710   9.4838   9.4970   9.5092   9.5562   9.5687
     9.5787   9.5904   9.6139   9.6271   9.6623   9.6685   9.6976   9.7048
     9.9181   9.9386   9.9900   9.9953

     occupation numbers 
     1.0000   1.0000   1.0000   1.0000   1.0000   1.0000   1.0000   1.0000
     1.0000   1.0000   1.0000   1.0000   1.0000   1.0000   1.0000   1.0000
     1.0000   1.0000   1.0000   1.0000   1.0000   1.0000   1.0000   1.0000
     1.0000   1.0000   1.0000   1.0000   1.0000   1.0000   1.0000   1.0000
     1.0000   1.0000   1.0000   1.0000   1.0000   1.0000   1.0000   1.0000
     1.0000   1.0000   1.0000   1.0000   1.0000   1.0000   1.0000   1.0000
     1.0000   1.0000   1.0000   1.0000   1.0000   1.0000   1.0000   1.0000
     1.0000   1.0000   1.0000   1.0000   1.0000   1.0000   1.0000   1.0000
     1.0000   1.0000   1.0000   1.0000   1.0000   1.0000   1.0000   1.0000
     1.0000   1.0000   1.0000   1.0000   1.0000   1.0000   1.0000   1.0000
     1.0000   1.0000   1.0000   1.0000   1.0000   1.0000   1.0000   1.0000
     1.0000   1.0000   1.0000   1.0000   1.0000   1.0000   1.0000   1.0000
     1.0000   1.0000   1.0000   1.0000   1.0000   1.0000   1.0000   1.0000
     1.0000   1.0000   1.0000   1.0000   1.0000   1.0000   1.0000   1.0000
     1.0000   1.0000   1.0000   1.0000   1.0000   1.0000   1.0000   1.0000
     1.0000   1.0000   1.0000   1.0000   1.0000   1.0000   1.0000   1.0000
     1.0000   1.0000   1.0000   1.0000   1.0000   1.0000   1.0000   1.0000
     1.0000   1.0000   1.0000   1.0000   1.0000   1.0000   1.0000   1.0000
     1.0000   1.0000   1.0000   1.0000   1.0000   1.0000   1.0000   1.0000
     1.0000   1.0000   1.0000   1.0000   1.0000   1.0000   1.0000   1.0000
     1.0000   1.0000   1.0000   1.0000   1.0000   1.0000   1.0000   1.0000
     1.0000   1.0000   1.0000   1.0000   1.0000   1.0000   1.0000   1.0000
     1.0000   1.0000   1.0000   1.0000   1.0000   1.0000   1.0000   1.0000
     1.0000   1.0000   1.0000   1.0000   1.0000   1.0000   1.0000   1.0000
     1.0000   1.0000   1.0000   1.0000   1.0000   1.0000   1.0000   1.0000
     1.0000   1.0000   1.0000   1.0000   1.0000   1.0000   1.0000   1.0000
     1.0000   1.0000   1.0000   1.0000   1.0000   1.0000   1.0000   1.0000
     1.0000   1.0000   1.0000   1.0000   1.0000   1.0000   1.0000   1.0000
     1.0000   1.0000   1.0000   1.0000   1.0000   1.0000   1.0000   1.0000
     1.0000   1.0000   1.0000   1.0000   1.0000   1.0000   1.0000   1.0000
     1.0000   1.0000   1.0000   1.0000   1.0000   1.0000   1.0000   1.0000
     1.0000   1.0000   1.0000   1.0000   1.0000   1.0000   1.0000   1.0000
     1.0000   1.0000   1.0000   1.0000   1.0000   1.0000   1.0000   1.0000
     1.0000   1.0000   1.0000   1.0000   1.0000   1.0000   1.0000   1.0000
     1.0000   1.0000   1.0000   1.0000   1.0000   1.0000   1.0000   1.0000
     1.0000   1.0000   1.0000   1.0000   1.0000   1.0000   1.0000   1.0000
     1.0000   1.0000   1.0000   1.0000   1.0000   1.0000   1.0000   1.0000
     1.0000   1.0000   1.0000   1.0000   1.0000   1.0000   1.0000   1.0000
     1.0000   1.0000   1.0000   1.0000   1.0000   1.0000   1.0000   1.0000
     1.0000   1.0000   1.0000   1.0000   1.0000   1.0000   1.0000   1.0000
     1.0000   1.0000   1.0000   1.0000   1.0000   1.0000   1.0000   1.0000
     1.0000   1.0000   1.0000   1.0000   1.0000   1.0000   1.0000   1.0000
     1.0000   1.0000   1.0000   1.0000   1.0000   1.0000   1.0000   1.0000
     1.0000   1.0000   1.0000   1.0000   1.0000   1.0000   1.0000   1.0000
     0.0000   0.0000   0.0000   0.0000   0.0000   0.0000   0.0000   0.0000
     0.0000   0.0000   0.0000   0.0000   0.0000   0.0000   0.0000   0.0000
     0.0000   0.0000   0.0000   0.0000   0.0000   0.0000   0.0000   0.0000
     0.0000   0.0000   0.0000   0.0000   0.0000   0.0000   0.0000   0.0000
     0.0000   0.0000   0.0000   0.0000   0.0000   0.0000   0.0000   0.0000
     0.0000   0.0000   0.0000   0.0000   0.0000   0.0000   0.0000   0.0000
     0.0000   0.0000   0.0000   0.0000   0.0000   0.0000   0.0000   0.0000
     0.0000   0.0000   0.0000   0.0000   0.0000   0.0000   0.0000   0.0000
     0.0000   0.0000   0.0000   0.0000   0.0000   0.0000   0.0000   0.0000
     0.0000   0.0000   0.0000   0.0000   0.0000   0.0000   0.0000   0.0000
     0.0000   0.0000   0.0000   0.0000   0.0000   0.0000   0.0000   0.0000
     0.0000   0.0000   0.0000   0.0000   0.0000   0.0000   0.0000   0.0000
     0.0000   0.0000   0.0000   0.0000   0.0000   0.0000   0.0000   0.0000
     0.0000   0.0000   0.0000   0.0000   0.0000   0.0000   0.0000   0.0000
     0.0000   0.0000   0.0000   0.0000   0.0000   0.0000   0.0000   0.0000
     0.0000   0.0000   0.0000   0.0000   0.0000   0.0000   0.0000   0.0000
     0.0000   0.0000   0.0000   0.0000   0.0000   0.0000   0.0000   0.0000
     0.0000   0.0000   0.0000   0.0000   0.0000   0.0000   0.0000   0.0000
     0.0000   0.0000   0.0000   0.0000

          k = 0.5000 0.7500 0.5000 ( 73972 PWs)   bands (ev):

   -18.1281 -18.1281 -18.0397 -18.0397 -17.9993 -17.9993 -17.9954 -17.9954
   -17.9651 -17.9651 -17.9608 -17.9608 -17.8047 -17.8047 -17.7796 -17.7796
   -15.3216 -15.3215 -15.3008 -15.3008 -15.2516 -15.2516 -15.2502 -15.2502
   -15.2402 -15.2402 -15.2355 -15.2355 -15.2228 -15.2228 -15.2148 -15.2148
   -15.1849 -15.1849 -15.1675 -15.1675 -15.0948 -15.0948 -15.0876 -15.0876
   -15.0732 -15.0731 -15.0690 -15.0690 -15.0093 -15.0093 -15.0005 -15.0005
   -12.7863 -12.7862 -12.7689 -12.7683 -12.7591 -12.7589 -12.7450 -12.7449
   -12.7264 -12.7263 -12.7236 -12.7232 -12.7171 -12.7165 -12.6955 -12.6946
   -12.6820 -12.6819 -12.6584 -12.6581 -12.6571 -12.6570 -12.6490 -12.6484
   -12.6456 -12.6451 -12.6337 -12.6336 -12.5929 -12.5922 -12.5900 -12.5899
   -12.5690 -12.5683 -12.5573 -12.5573 -12.5450 -12.5450 -12.5081 -12.5075
   -12.4985 -12.4984 -12.4928 -12.4927 -12.4908 -12.4907 -12.4172 -12.4172
   -11.3907 -11.3903 -11.3618 -11.3616 -11.2812 -11.2810 -11.2362 -11.2355
   -11.2083 -11.2067 -11.1677 -11.1670 -11.1064 -11.1057 -11.0705 -11.0703
   -11.0418 -11.0379 -11.0236 -11.0203 -10.9879 -10.9871 -10.9689 -10.9673
   -10.9552 -10.9528 -10.9282 -10.9274 -10.8923 -10.8903 -10.8445 -10.8437
   -10.8141 -10.8125 -10.7875 -10.7873 -10.7654 -10.7636 -10.6837 -10.6833
   -10.6435 -10.6430 -10.6287 -10.6282 -10.5993 -10.5990 -10.5464 -10.5458
    -6.0980  -6.0980  -6.0133  -6.0133  -5.9759  -5.9756  -5.9729  -5.9727
    -5.9427  -5.9398  -5.9373  -5.9343  -5.7960  -5.7959  -5.7736  -5.7735
    -4.9488  -4.9480  -4.9359  -4.9348  -4.8816  -4.8804  -4.8637  -4.8612
    -4.6118  -4.6107  -4.5710  -4.5670  -4.5103  -4.5073  -4.5066  -4.4975
    -4.4958  -4.4891  -4.4770  -4.4757  -4.4153  -4.4151  -4.3943  -4.3928
    -4.3849  -4.3833  -4.3769  -4.3750  -4.3641  -4.3623  -4.3579  -4.3562
    -4.3508  -4.3499  -4.3420  -4.3389  -4.3214  -4.3176  -4.3153  -4.3132
    -4.2146  -4.2143  -4.1879  -4.1874  -4.1852  -4.1842  -4.1757  -4.1749
    -0.6536  -0.5995  -0.5681  -0.5381  -0.5124  -0.5082  -0.4259  -0.4213
    -0.3838  -0.3545  -0.3070  -0.2883  -0.2285  -0.2206  -0.1987  -0.1870
    -0.1227  -0.1121  -0.0860  -0.0756  -0.0308  -0.0198   0.0276   0.0448
     0.0693   0.0801   0.1143   0.1353   0.1497   0.1812   0.1863   0.2031
     0.2168   0.2404   0.2696   0.2799   0.2999   0.3102   0.3446   0.3598
     0.3808   0.3941   0.4010   0.4299   0.4625   0.4770   0.4922   0.5260
     0.6349   0.6660   0.6707   0.6817   0.7006   0.7137   0.7234   0.7302
     0.7540   0.7698   0.7806   0.7928   0.8009   0.8216   0.8305   0.8410
     0.8684   0.8762   0.8957   0.9055   0.9133   0.9162   0.9372   0.9456
     0.9507   0.9644   0.9763   0.9880   0.9998   1.0143   1.0174   1.0357
     1.0497   1.0587   1.0665   1.0859   1.1024   1.1144   1.1250   1.1398
     1.1507   1.1570   1.1719   1.1906   1.2033   1.2092   1.2191   1.2480
     1.2541   1.2713   1.2785   1.2969   1.3070   1.3152   1.3353   1.3506
     1.3564   1.3633   1.3821   1.3945   1.3995   1.4111   1.4197   1.4282
     1.4408   1.4488   1.4704   1.4830   1.4906   1.5011   1.5092   1.5214
     1.5371   1.5447   1.5672   1.5821   1.5877   1.5976   1.6047   1.6220
     1.6369   1.6632   1.6698   1.6800   1.7044   1.7126   1.7357   1.7694
     1.8178   1.8442   1.8830   1.8966   1.9344   1.9674   2.0238   2.0402
     4.7750   4.8108   4.8980   4.9404   4.9958   5.0790   5.1380   5.2038
     5.5433   5.5892   5.6516   5.6762   5.7463   5.7905   5.8610   5.9404
     6.1626   6.2147   6.2599   6.3124   6.3752   6.4683   6.4967   6.5589
     6.5863   6.6378   6.6758   6.7117   6.7450   6.7718   6.8171   6.8335
     6.9053   6.9460   6.9918   6.9925   7.0103   7.0250   7.0708   7.0871
     7.2700   7.3637   7.3968   7.4063   7.4490   7.4832   7.5233   7.5592
     7.7477   7.7838   7.7996   7.8366   7.8606   7.8878   7.9360   7.9641
     7.9842   8.0139   8.0346   8.0489   8.0674   8.0820   8.1205   8.1314
     8.1716   8.1881   8.2548   8.2771   8.2822   8.3165   8.3204   8.3409
     8.3720   8.3892   8.4081   8.4357   8.4576   8.4753   8.4978   8.5038
     8.5105   8.5392   8.5731   8.5965   8.6147   8.6317   8.6513   8.6608
     8.6716   8.6864   8.7018   8.7096   8.7753   8.8056   8.8506   8.8573
     8.9025   8.9117   8.9388   8.9519   8.9893   8.9954   9.0398   9.0436
     9.0886   9.1044   9.1109   9.1263   9.1553   9.1608   9.1802   9.1925
     9.2091   9.2140   9.2341   9.2486   9.2758   9.2823   9.3100   9.3309
     9.3458   9.3568   9.3684   9.3830   9.3973   9.4155   9.4275   9.4353
     9.4812   9.4878   9.5045   9.5139   9.5192   9.5381   9.5697   9.5829
     9.6042   9.6232   9.6388   9.6510   9.6618   9.6775   9.7036   9.7140
     9.9355   9.9463  10.0556  10.0682

     occupation numbers 
     1.0000   1.0000   1.0000   1.0000   1.0000   1.0000   1.0000   1.0000
     1.0000   1.0000   1.0000   1.0000   1.0000   1.0000   1.0000   1.0000
     1.0000   1.0000   1.0000   1.0000   1.0000   1.0000   1.0000   1.0000
     1.0000   1.0000   1.0000   1.0000   1.0000   1.0000   1.0000   1.0000
     1.0000   1.0000   1.0000   1.0000   1.0000   1.0000   1.0000   1.0000
     1.0000   1.0000   1.0000   1.0000   1.0000   1.0000   1.0000   1.0000
     1.0000   1.0000   1.0000   1.0000   1.0000   1.0000   1.0000   1.0000
     1.0000   1.0000   1.0000   1.0000   1.0000   1.0000   1.0000   1.0000
     1.0000   1.0000   1.0000   1.0000   1.0000   1.0000   1.0000   1.0000
     1.0000   1.0000   1.0000   1.0000   1.0000   1.0000   1.0000   1.0000
     1.0000   1.0000   1.0000   1.0000   1.0000   1.0000   1.0000   1.0000
     1.0000   1.0000   1.0000   1.0000   1.0000   1.0000   1.0000   1.0000
     1.0000   1.0000   1.0000   1.0000   1.0000   1.0000   1.0000   1.0000
     1.0000   1.0000   1.0000   1.0000   1.0000   1.0000   1.0000   1.0000
     1.0000   1.0000   1.0000   1.0000   1.0000   1.0000   1.0000   1.0000
     1.0000   1.0000   1.0000   1.0000   1.0000   1.0000   1.0000   1.0000
     1.0000   1.0000   1.0000   1.0000   1.0000   1.0000   1.0000   1.0000
     1.0000   1.0000   1.0000   1.0000   1.0000   1.0000   1.0000   1.0000
     1.0000   1.0000   1.0000   1.0000   1.0000   1.0000   1.0000   1.0000
     1.0000   1.0000   1.0000   1.0000   1.0000   1.0000   1.0000   1.0000
     1.0000   1.0000   1.0000   1.0000   1.0000   1.0000   1.0000   1.0000
     1.0000   1.0000   1.0000   1.0000   1.0000   1.0000   1.0000   1.0000
     1.0000   1.0000   1.0000   1.0000   1.0000   1.0000   1.0000   1.0000
     1.0000   1.0000   1.0000   1.0000   1.0000   1.0000   1.0000   1.0000
     1.0000   1.0000   1.0000   1.0000   1.0000   1.0000   1.0000   1.0000
     1.0000   1.0000   1.0000   1.0000   1.0000   1.0000   1.0000   1.0000
     1.0000   1.0000   1.0000   1.0000   1.0000   1.0000   1.0000   1.0000
     1.0000   1.0000   1.0000   1.0000   1.0000   1.0000   1.0000   1.0000
     1.0000   1.0000   1.0000   1.0000   1.0000   1.0000   1.0000   1.0000
     1.0000   1.0000   1.0000   1.0000   1.0000   1.0000   1.0000   1.0000
     1.0000   1.0000   1.0000   1.0000   1.0000   1.0000   1.0000   1.0000
     1.0000   1.0000   1.0000   1.0000   1.0000   1.0000   1.0000   1.0000
     1.0000   1.0000   1.0000   1.0000   1.0000   1.0000   1.0000   1.0000
     1.0000   1.0000   1.0000   1.0000   1.0000   1.0000   1.0000   1.0000
     1.0000   1.0000   1.0000   1.0000   1.0000   1.0000   1.0000   1.0000
     1.0000   1.0000   1.0000   1.0000   1.0000   1.0000   1.0000   1.0000
     1.0000   1.0000   1.0000   1.0000   1.0000   1.0000   1.0000   1.0000
     1.0000   1.0000   1.0000   1.0000   1.0000   1.0000   1.0000   1.0000
     1.0000   1.0000   1.0000   1.0000   1.0000   1.0000   1.0000   1.0000
     1.0000   1.0000   1.0000   1.0000   1.0000   1.0000   1.0000   1.0000
     1.0000   1.0000   1.0000   1.0000   1.0000   1.0000   1.0000   1.0000
     1.0000   1.0000   1.0000   1.0000   1.0000   1.0000   1.0000   1.0000
     1.0000   1.0000   1.0000   1.0000   1.0000   1.0000   1.0000   1.0000
     1.0000   1.0000   1.0000   1.0000   1.0000   1.0000   1.0000   1.0000
     0.0000   0.0000   0.0000   0.0000   0.0000   0.0000   0.0000   0.0000
     0.0000   0.0000   0.0000   0.0000   0.0000   0.0000   0.0000   0.0000
     0.0000   0.0000   0.0000   0.0000   0.0000   0.0000   0.0000   0.0000
     0.0000   0.0000   0.0000   0.0000   0.0000   0.0000   0.0000   0.0000
     0.0000   0.0000   0.0000   0.0000   0.0000   0.0000   0.0000   0.0000
     0.0000   0.0000   0.0000   0.0000   0.0000   0.0000   0.0000   0.0000
     0.0000   0.0000   0.0000   0.0000   0.0000   0.0000   0.0000   0.0000
     0.0000   0.0000   0.0000   0.0000   0.0000   0.0000   0.0000   0.0000
     0.0000   0.0000   0.0000   0.0000   0.0000   0.0000   0.0000   0.0000
     0.0000   0.0000   0.0000   0.0000   0.0000   0.0000   0.0000   0.0000
     0.0000   0.0000   0.0000   0.0000   0.0000   0.0000   0.0000   0.0000
     0.0000   0.0000   0.0000   0.0000   0.0000   0.0000   0.0000   0.0000
     0.0000   0.0000   0.0000   0.0000   0.0000   0.0000   0.0000   0.0000
     0.0000   0.0000   0.0000   0.0000   0.0000   0.0000   0.0000   0.0000
     0.0000   0.0000   0.0000   0.0000   0.0000   0.0000   0.0000   0.0000
     0.0000   0.0000   0.0000   0.0000   0.0000   0.0000   0.0000   0.0000
     0.0000   0.0000   0.0000   0.0000   0.0000   0.0000   0.0000   0.0000
     0.0000   0.0000   0.0000   0.0000   0.0000   0.0000   0.0000   0.0000
     0.0000   0.0000   0.0000   0.0000

          k = 0.5000 0.7500 0.7500 ( 73882 PWs)   bands (ev):

   -18.1281 -18.1281 -18.0397 -18.0397 -17.9993 -17.9993 -17.9954 -17.9954
   -17.9651 -17.9651 -17.9608 -17.9608 -17.8047 -17.8047 -17.7796 -17.7796
   -15.3216 -15.3215 -15.3008 -15.3008 -15.2532 -15.2525 -15.2495 -15.2489
   -15.2402 -15.2401 -15.2353 -15.2351 -15.2228 -15.2228 -15.2149 -15.2148
   -15.1849 -15.1849 -15.1675 -15.1675 -15.0948 -15.0948 -15.0876 -15.0876
   -15.0732 -15.0732 -15.0690 -15.0690 -15.0092 -15.0092 -15.0005 -15.0005
   -12.7869 -12.7866 -12.7741 -12.7699 -12.7694 -12.7687 -12.7354 -12.7312
   -12.7264 -12.7263 -12.7227 -12.7219 -12.7166 -12.7158 -12.6963 -12.6951
   -12.6824 -12.6822 -12.6583 -12.6582 -12.6571 -12.6569 -12.6488 -12.6480
   -12.6446 -12.6440 -12.6337 -12.6336 -12.5925 -12.5918 -12.5900 -12.5898
   -12.5695 -12.5687 -12.5590 -12.5587 -12.5444 -12.5438 -12.5070 -12.5064
   -12.4986 -12.4985 -12.4917 -12.4915 -12.4906 -12.4903 -12.4172 -12.4172
   -11.3984 -11.3973 -11.3497 -11.3486 -11.2771 -11.2766 -11.2413 -11.2409
   -11.2099 -11.2085 -11.1660 -11.1655 -11.1013 -11.1005 -11.0773 -11.0756
   -11.0417 -11.0390 -11.0287 -11.0256 -10.9892 -10.9878 -10.9736 -10.9722
   -10.9510 -10.9481 -10.9210 -10.9199 -10.8953 -10.8937 -10.8451 -10.8440
   -10.8234 -10.8216 -10.7895 -10.7888 -10.7652 -10.7633 -10.6874 -10.6869
   -10.6427 -10.6426 -10.6213 -10.6208 -10.5974 -10.5971 -10.5435 -10.5431
    -6.0980  -6.0980  -6.0135  -6.0132  -5.9761  -5.9756  -5.9731  -5.9726
    -5.9425  -5.9396  -5.9372  -5.9342  -5.7960  -5.7958  -5.7738  -5.7734
    -5.0938  -5.0925  -5.0064  -5.0050  -4.7946  -4.7925  -4.7664  -4.7650
    -4.6804  -4.6774  -4.6191  -4.6166  -4.5029  -4.5020  -4.4810  -4.4802
    -4.4303  -4.4285  -4.4179  -4.4110  -4.4012  -4.3947  -4.3879  -4.3832
    -4.3781  -4.3759  -4.3662  -4.3654  -4.3620  -4.3551  -4.3525  -4.3491
    -4.3443  -4.3411  -4.3304  -4.3268  -4.3174  -4.3159  -4.3124  -4.3108
    -4.2142  -4.2130  -4.1886  -4.1872  -4.1854  -4.1840  -4.1755  -4.1735
    -0.8719  -0.8007  -0.6077  -0.5972  -0.5484  -0.5263  -0.5086  -0.4934
    -0.4687  -0.4219  -0.3942  -0.3766  -0.3588  -0.3448  -0.3278  -0.3131
    -0.2180  -0.2046  -0.1411  -0.1291  -0.0196  -0.0096   0.0245   0.0378
     0.0528   0.0764   0.1337   0.1489   0.1886   0.1996   0.2371   0.2460
     0.2729   0.3157   0.3391   0.3612   0.3766   0.3857   0.3954   0.4160
     0.4350   0.4540   0.4727   0.4781   0.4916   0.5342   0.5519   0.5844
     0.6517   0.6680   0.6796   0.6963   0.7093   0.7393   0.7519   0.7629
     0.7706   0.7886   0.8019   0.8105   0.8222   0.8344   0.8479   0.8605
     0.8722   0.8871   0.9055   0.9155   0.9270   0.9322   0.9453   0.9526
     0.9655   0.9851   0.9941   1.0059   1.0137   1.0282   1.0363   1.0453
     1.0604   1.0723   1.0888   1.0970   1.1125   1.1305   1.1421   1.1491
     1.1526   1.1641   1.1798   1.1914   1.2123   1.2298   1.2332   1.2425
     1.2475   1.2687   1.2758   1.2839   1.3019   1.3174   1.3324   1.3432
     1.3564   1.3679   1.3708   1.3797   1.4010   1.4110   1.4220   1.4329
     1.4423   1.4575   1.4736   1.4868   1.4886   1.5078   1.5203   1.5411
     1.5485   1.5554   1.5757   1.5890   1.5977   1.6076   1.6208   1.6349
     1.6546   1.6762   1.6974   1.7072   1.7261   1.7393   1.7486   1.7914
     1.8703   1.8977   1.9283   1.9891   2.0350   2.0602   2.0735   2.0997
     4.5511   4.5978   4.6851   4.7620   4.9930   5.0613   5.0957   5.2057
     5.2593   5.3187   5.4068   5.4329   5.7537   5.7743   5.8264   5.8939
     5.9845   6.0280   6.1015   6.2059   6.2966   6.3630   6.4085   6.4328
     6.4854   6.5371   6.5770   6.6512   6.6779   6.7078   6.7641   6.8159
     6.9995   7.0470   7.0946   7.1325   7.1926   7.2589   7.3126   7.3523
     7.4260   7.4879   7.5095   7.5554   7.5786   7.6331   7.6615   7.7135
     7.8002   7.8155   7.8711   7.8966   7.9461   7.9821   7.9903   8.0131
     8.0204   8.0435   8.0545   8.0730   8.1118   8.1262   8.1366   8.1649
     8.1820   8.2071   8.2482   8.2589   8.2837   8.2905   8.3575   8.3881
     8.3933   8.4127   8.4207   8.4367   8.4961   8.5041   8.5262   8.5373
     8.5671   8.5814   8.5894   8.5992   8.6398   8.6544   8.6719   8.6913
     8.7191   8.7328   8.7562   8.7581   8.7706   8.7882   8.8096   8.8325
     8.8712   8.8948   8.9102   8.9315   8.9785   8.9828   9.0036   9.0064
     9.0311   9.0499   9.0756   9.0816   9.1078   9.1113   9.1482   9.1601
     9.1811   9.1984   9.2377   9.2494   9.2715   9.2917   9.2980   9.3180
     9.3337   9.3500   9.3805   9.3953   9.4057   9.4135   9.4303   9.4431
     9.4565   9.4749   9.5056   9.5211   9.5343   9.5393   9.5647   9.5748
     9.5935   9.6035   9.6410   9.6552   9.7223   9.7348   9.7556   9.7641
     9.8725   9.8773   9.9939  10.0033

     occupation numbers 
     1.0000   1.0000   1.0000   1.0000   1.0000   1.0000   1.0000   1.0000
     1.0000   1.0000   1.0000   1.0000   1.0000   1.0000   1.0000   1.0000
     1.0000   1.0000   1.0000   1.0000   1.0000   1.0000   1.0000   1.0000
     1.0000   1.0000   1.0000   1.0000   1.0000   1.0000   1.0000   1.0000
     1.0000   1.0000   1.0000   1.0000   1.0000   1.0000   1.0000   1.0000
     1.0000   1.0000   1.0000   1.0000   1.0000   1.0000   1.0000   1.0000
     1.0000   1.0000   1.0000   1.0000   1.0000   1.0000   1.0000   1.0000
     1.0000   1.0000   1.0000   1.0000   1.0000   1.0000   1.0000   1.0000
     1.0000   1.0000   1.0000   1.0000   1.0000   1.0000   1.0000   1.0000
     1.0000   1.0000   1.0000   1.0000   1.0000   1.0000   1.0000   1.0000
     1.0000   1.0000   1.0000   1.0000   1.0000   1.0000   1.0000   1.0000
     1.0000   1.0000   1.0000   1.0000   1.0000   1.0000   1.0000   1.0000
     1.0000   1.0000   1.0000   1.0000   1.0000   1.0000   1.0000   1.0000
     1.0000   1.0000   1.0000   1.0000   1.0000   1.0000   1.0000   1.0000
     1.0000   1.0000   1.0000   1.0000   1.0000   1.0000   1.0000   1.0000
     1.0000   1.0000   1.0000   1.0000   1.0000   1.0000   1.0000   1.0000
     1.0000   1.0000   1.0000   1.0000   1.0000   1.0000   1.0000   1.0000
     1.0000   1.0000   1.0000   1.0000   1.0000   1.0000   1.0000   1.0000
     1.0000   1.0000   1.0000   1.0000   1.0000   1.0000   1.0000   1.0000
     1.0000   1.0000   1.0000   1.0000   1.0000   1.0000   1.0000   1.0000
     1.0000   1.0000   1.0000   1.0000   1.0000   1.0000   1.0000   1.0000
     1.0000   1.0000   1.0000   1.0000   1.0000   1.0000   1.0000   1.0000
     1.0000   1.0000   1.0000   1.0000   1.0000   1.0000   1.0000   1.0000
     1.0000   1.0000   1.0000   1.0000   1.0000   1.0000   1.0000   1.0000
     1.0000   1.0000   1.0000   1.0000   1.0000   1.0000   1.0000   1.0000
     1.0000   1.0000   1.0000   1.0000   1.0000   1.0000   1.0000   1.0000
     1.0000   1.0000   1.0000   1.0000   1.0000   1.0000   1.0000   1.0000
     1.0000   1.0000   1.0000   1.0000   1.0000   1.0000   1.0000   1.0000
     1.0000   1.0000   1.0000   1.0000   1.0000   1.0000   1.0000   1.0000
     1.0000   1.0000   1.0000   1.0000   1.0000   1.0000   1.0000   1.0000
     1.0000   1.0000   1.0000   1.0000   1.0000   1.0000   1.0000   1.0000
     1.0000   1.0000   1.0000   1.0000   1.0000   1.0000   1.0000   1.0000
     1.0000   1.0000   1.0000   1.0000   1.0000   1.0000   1.0000   1.0000
     1.0000   1.0000   1.0000   1.0000   1.0000   1.0000   1.0000   1.0000
     1.0000   1.0000   1.0000   1.0000   1.0000   1.0000   1.0000   1.0000
     1.0000   1.0000   1.0000   1.0000   1.0000   1.0000   1.0000   1.0000
     1.0000   1.0000   1.0000   1.0000   1.0000   1.0000   1.0000   1.0000
     1.0000   1.0000   1.0000   1.0000   1.0000   1.0000   1.0000   1.0000
     1.0000   1.0000   1.0000   1.0000   1.0000   1.0000   1.0000   1.0000
     1.0000   1.0000   1.0000   1.0000   1.0000   1.0000   1.0000   1.0000
     1.0000   1.0000   1.0000   1.0000   1.0000   1.0000   1.0000   1.0000
     1.0000   1.0000   1.0000   1.0000   1.0000   1.0000   1.0000   1.0000
     1.0000   1.0000   1.0000   1.0000   1.0000   1.0000   1.0000   1.0000
     1.0000   1.0000   1.0000   1.0000   1.0000   1.0000   1.0000   1.0000
     0.0000   0.0000   0.0000   0.0000   0.0000   0.0000   0.0000   0.0000
     0.0000   0.0000   0.0000   0.0000   0.0000   0.0000   0.0000   0.0000
     0.0000   0.0000   0.0000   0.0000   0.0000   0.0000   0.0000   0.0000
     0.0000   0.0000   0.0000   0.0000   0.0000   0.0000   0.0000   0.0000
     0.0000   0.0000   0.0000   0.0000   0.0000   0.0000   0.0000   0.0000
     0.0000   0.0000   0.0000   0.0000   0.0000   0.0000   0.0000   0.0000
     0.0000   0.0000   0.0000   0.0000   0.0000   0.0000   0.0000   0.0000
     0.0000   0.0000   0.0000   0.0000   0.0000   0.0000   0.0000   0.0000
     0.0000   0.0000   0.0000   0.0000   0.0000   0.0000   0.0000   0.0000
     0.0000   0.0000   0.0000   0.0000   0.0000   0.0000   0.0000   0.0000
     0.0000   0.0000   0.0000   0.0000   0.0000   0.0000   0.0000   0.0000
     0.0000   0.0000   0.0000   0.0000   0.0000   0.0000   0.0000   0.0000
     0.0000   0.0000   0.0000   0.0000   0.0000   0.0000   0.0000   0.0000
     0.0000   0.0000   0.0000   0.0000   0.0000   0.0000   0.0000   0.0000
     0.0000   0.0000   0.0000   0.0000   0.0000   0.0000   0.0000   0.0000
     0.0000   0.0000   0.0000   0.0000   0.0000   0.0000   0.0000   0.0000
     0.0000   0.0000   0.0000   0.0000   0.0000   0.0000   0.0000   0.0000
     0.0000   0.0000   0.0000   0.0000   0.0000   0.0000   0.0000   0.0000
     0.0000   0.0000   0.0000   0.0000

          k = 0.7500 0.0000 0.0000 ( 73920 PWs)   bands (ev):

   -18.1281 -18.1281 -18.0397 -18.0397 -17.9993 -17.9993 -17.9954 -17.9954
   -17.9651 -17.9651 -17.9608 -17.9608 -17.8047 -17.8047 -17.7796 -17.7796
   -15.3216 -15.3216 -15.3009 -15.3009 -15.2537 -15.2537 -15.2487 -15.2487
   -15.2402 -15.2401 -15.2350 -15.2349 -15.2229 -15.2229 -15.2149 -15.2149
   -15.1848 -15.1847 -15.1674 -15.1674 -15.0949 -15.0948 -15.0876 -15.0876
   -15.0734 -15.0733 -15.0688 -15.0686 -15.0092 -15.0092 -15.0005 -15.0005
   -12.7925 -12.7908 -12.7776 -12.7775 -12.7706 -12.7704 -12.7305 -12.7294
   -12.7271 -12.7266 -12.7199 -12.7192 -12.7154 -12.7139 -12.6992 -12.6991
   -12.6846 -12.6841 -12.6576 -12.6574 -12.6567 -12.6563 -12.6463 -12.6447
   -12.6408 -12.6406 -12.6336 -12.6335 -12.5930 -12.5922 -12.5899 -12.5899
   -12.5688 -12.5686 -12.5629 -12.5622 -12.5398 -12.5385 -12.5053 -12.5049
   -12.4984 -12.4983 -12.4911 -12.4910 -12.4886 -12.4883 -12.4173 -12.4172
   -11.4109 -11.4107 -11.3346 -11.3341 -11.2750 -11.2736 -11.2327 -11.2310
   -11.1953 -11.1932 -11.1599 -11.1591 -11.0938 -11.0919 -11.0840 -11.0828
   -11.0473 -11.0443 -11.0221 -11.0184 -11.0089 -11.0079 -10.9882 -10.9876
   -10.9770 -10.9746 -10.9171 -10.9158 -10.8950 -10.8940 -10.8601 -10.8568
   -10.8252 -10.8248 -10.7895 -10.7880 -10.7554 -10.7543 -10.6858 -10.6852
   -10.6408 -10.6401 -10.6283 -10.6273 -10.5802 -10.5795 -10.5357 -10.5356
    -6.0982  -6.0980  -6.0137  -6.0133  -5.9772  -5.9770  -5.9722  -5.9719
    -5.9415  -5.9411  -5.9351  -5.9350  -5.7958  -5.7957  -5.7736  -5.7735
    -5.2978  -5.2970  -4.9991  -4.9981  -4.8507  -4.8499  -4.8208  -4.8203
    -4.5456  -4.5414  -4.5354  -4.5329  -4.5029  -4.4989  -4.4786  -4.4772
    -4.4232  -4.4214  -4.4088  -4.4055  -4.3905  -4.3894  -4.3800  -4.3774
    -4.3758  -4.3741  -4.3638  -4.3622  -4.3554  -4.3527  -4.3432  -4.3425
    -4.3396  -4.3378  -4.3195  -4.3176  -4.3139  -4.3122  -4.2158  -4.2143
    -4.1911  -4.1892  -4.1870  -4.1851  -4.1764  -4.1753  -4.0350  -4.0320
    -1.0231  -0.9883  -0.8040  -0.7779  -0.7444  -0.7246  -0.6982  -0.6928
    -0.6412  -0.6283  -0.5703  -0.5633  -0.5434  -0.5363  -0.4964  -0.4826
    -0.4718  -0.4473  -0.4259  -0.4072  -0.2895  -0.2512  -0.2267  -0.2108
     0.2197   0.2496   0.2835   0.2907   0.3057   0.3229   0.3713   0.3909
     0.4141   0.4373   0.4514   0.4611   0.4761   0.4948   0.5034   0.5126
     0.5220   0.5423   0.5594   0.5823   0.6406   0.6589   0.6849   0.6980
     0.7135   0.7253   0.7404   0.7688   0.7789   0.7888   0.8041   0.8139
     0.8281   0.8434   0.8565   0.8616   0.8720   0.8957   0.9036   0.9156
     0.9279   0.9383   0.9464   0.9587   0.9679   0.9801   0.9872   1.0001
     1.0086   1.0124   1.0269   1.0441   1.0472   1.0677   1.0782   1.0868
     1.0926   1.0972   1.1060   1.1150   1.1253   1.1394   1.1481   1.1582
     1.1697   1.1889   1.1953   1.2047   1.2107   1.2180   1.2335   1.2436
     1.2520   1.2689   1.2796   1.2898   1.2928   1.3112   1.3194   1.3362
     1.3489   1.3628   1.3775   1.3825   1.3974   1.4126   1.4216   1.4376
     1.4440   1.4659   1.4743   1.4892   1.5091   1.5215   1.5347   1.5487
     1.5688   1.5823   1.5930   1.6074   1.6184   1.6308   1.6428   1.6612
     1.6926   1.6973   1.7609   1.7793   1.8157   1.8411   1.8963   1.9058
     2.0795   2.0992   2.1165   2.1330   2.2509   2.2807   2.5033   2.5132
     3.9347   4.0033   4.3587   4.3955   4.6025   4.6295   4.7015   4.7570
     5.1528   5.1847   5.1998   5.2197   5.3241   5.3916   5.4720   5.4965
     5.6075   5.6498   5.6847   5.7033   5.9003   5.9244   5.9731   5.9951
     6.5483   6.5956   6.6892   6.7332   7.0251   7.0648   7.1247   7.1665
     7.2111   7.2258   7.3202   7.3508   7.4439   7.5399   7.6259   7.6520
     7.6662   7.6971   7.7387   7.7770   7.7897   7.8283   7.8442   7.8552
     7.8911   7.9415   7.9577   7.9907   8.0172   8.0480   8.0688   8.1015
     8.1259   8.1692   8.1913   8.2197   8.2487   8.2675   8.2801   8.3144
     8.3328   8.3522   8.3590   8.3656   8.3788   8.4118   8.4438   8.4584
     8.4846   8.4989   8.5067   8.5185   8.5264   8.5446   8.5605   8.5748
     8.5953   8.6089   8.6160   8.6283   8.6492   8.6568   8.6784   8.6967
     8.7186   8.7373   8.7754   8.7857   8.8179   8.8323   8.8457   8.8542
     8.8630   8.8770   8.9021   8.9194   8.9346   8.9581   8.9790   8.9919
     9.0086   9.0189   9.0744   9.0824   9.1086   9.1290   9.1472   9.1607
     9.1788   9.1881   9.2272   9.2413   9.2742   9.2952   9.3363   9.3513
     9.3610   9.3761   9.4169   9.4358   9.4576   9.4742   9.4843   9.5009
     9.5121   9.5252   9.5387   9.5685   9.5861   9.6044   9.6102   9.6226
     9.6331   9.6560   9.6710   9.6881   9.7045   9.7119   9.7359   9.7461
     9.7725   9.7775   9.8814   9.8984

     occupation numbers 
     1.0000   1.0000   1.0000   1.0000   1.0000   1.0000   1.0000   1.0000
     1.0000   1.0000   1.0000   1.0000   1.0000   1.0000   1.0000   1.0000
     1.0000   1.0000   1.0000   1.0000   1.0000   1.0000   1.0000   1.0000
     1.0000   1.0000   1.0000   1.0000   1.0000   1.0000   1.0000   1.0000
     1.0000   1.0000   1.0000   1.0000   1.0000   1.0000   1.0000   1.0000
     1.0000   1.0000   1.0000   1.0000   1.0000   1.0000   1.0000   1.0000
     1.0000   1.0000   1.0000   1.0000   1.0000   1.0000   1.0000   1.0000
     1.0000   1.0000   1.0000   1.0000   1.0000   1.0000   1.0000   1.0000
     1.0000   1.0000   1.0000   1.0000   1.0000   1.0000   1.0000   1.0000
     1.0000   1.0000   1.0000   1.0000   1.0000   1.0000   1.0000   1.0000
     1.0000   1.0000   1.0000   1.0000   1.0000   1.0000   1.0000   1.0000
     1.0000   1.0000   1.0000   1.0000   1.0000   1.0000   1.0000   1.0000
     1.0000   1.0000   1.0000   1.0000   1.0000   1.0000   1.0000   1.0000
     1.0000   1.0000   1.0000   1.0000   1.0000   1.0000   1.0000   1.0000
     1.0000   1.0000   1.0000   1.0000   1.0000   1.0000   1.0000   1.0000
     1.0000   1.0000   1.0000   1.0000   1.0000   1.0000   1.0000   1.0000
     1.0000   1.0000   1.0000   1.0000   1.0000   1.0000   1.0000   1.0000
     1.0000   1.0000   1.0000   1.0000   1.0000   1.0000   1.0000   1.0000
     1.0000   1.0000   1.0000   1.0000   1.0000   1.0000   1.0000   1.0000
     1.0000   1.0000   1.0000   1.0000   1.0000   1.0000   1.0000   1.0000
     1.0000   1.0000   1.0000   1.0000   1.0000   1.0000   1.0000   1.0000
     1.0000   1.0000   1.0000   1.0000   1.0000   1.0000   1.0000   1.0000
     1.0000   1.0000   1.0000   1.0000   1.0000   1.0000   1.0000   1.0000
     1.0000   1.0000   1.0000   1.0000   1.0000   1.0000   1.0000   1.0000
     1.0000   1.0000   1.0000   1.0000   1.0000   1.0000   1.0000   1.0000
     1.0000   1.0000   1.0000   1.0000   1.0000   1.0000   1.0000   1.0000
     1.0000   1.0000   1.0000   1.0000   1.0000   1.0000   1.0000   1.0000
     1.0000   1.0000   1.0000   1.0000   1.0000   1.0000   1.0000   1.0000
     1.0000   1.0000   1.0000   1.0000   1.0000   1.0000   1.0000   1.0000
     1.0000   1.0000   1.0000   1.0000   1.0000   1.0000   1.0000   1.0000
     1.0000   1.0000   1.0000   1.0000   1.0000   1.0000   1.0000   1.0000
     1.0000   1.0000   1.0000   1.0000   1.0000   1.0000   1.0000   1.0000
     1.0000   1.0000   1.0000   1.0000   1.0000   1.0000   1.0000   1.0000
     1.0000   1.0000   1.0000   1.0000   1.0000   1.0000   1.0000   1.0000
     1.0000   1.0000   1.0000   1.0000   1.0000   1.0000   1.0000   1.0000
     1.0000   1.0000   1.0000   1.0000   1.0000   1.0000   1.0000   1.0000
     1.0000   1.0000   1.0000   1.0000   1.0000   1.0000   1.0000   1.0000
     1.0000   1.0000   1.0000   1.0000   1.0000   1.0000   1.0000   1.0000
     1.0000   1.0000   1.0000   1.0000   1.0000   1.0000   1.0000   1.0000
     1.0000   1.0000   1.0000   1.0000   1.0000   1.0000   1.0000   1.0000
     1.0000   1.0000   1.0000   1.0000   1.0000   1.0000   1.0000   1.0000
     1.0000   1.0000   1.0000   1.0000   1.0000   1.0000   1.0000   1.0000
     1.0000   1.0000   1.0000   1.0000   1.0000   1.0000   1.0000   1.0000
     1.0000   1.0000   1.0000   1.0000   1.0000   1.0000   1.0000   1.0000
     0.0000   0.0000   0.0000   0.0000   0.0000   0.0000   0.0000   0.0000
     0.0000   0.0000   0.0000   0.0000   0.0000   0.0000   0.0000   0.0000
     0.0000   0.0000   0.0000   0.0000   0.0000   0.0000   0.0000   0.0000
     0.0000   0.0000   0.0000   0.0000   0.0000   0.0000   0.0000   0.0000
     0.0000   0.0000   0.0000   0.0000   0.0000   0.0000   0.0000   0.0000
     0.0000   0.0000   0.0000   0.0000   0.0000   0.0000   0.0000   0.0000
     0.0000   0.0000   0.0000   0.0000   0.0000   0.0000   0.0000   0.0000
     0.0000   0.0000   0.0000   0.0000   0.0000   0.0000   0.0000   0.0000
     0.0000   0.0000   0.0000   0.0000   0.0000   0.0000   0.0000   0.0000
     0.0000   0.0000   0.0000   0.0000   0.0000   0.0000   0.0000   0.0000
     0.0000   0.0000   0.0000   0.0000   0.0000   0.0000   0.0000   0.0000
     0.0000   0.0000   0.0000   0.0000   0.0000   0.0000   0.0000   0.0000
     0.0000   0.0000   0.0000   0.0000   0.0000   0.0000   0.0000   0.0000
     0.0000   0.0000   0.0000   0.0000   0.0000   0.0000   0.0000   0.0000
     0.0000   0.0000   0.0000   0.0000   0.0000   0.0000   0.0000   0.0000
     0.0000   0.0000   0.0000   0.0000   0.0000   0.0000   0.0000   0.0000
     0.0000   0.0000   0.0000   0.0000   0.0000   0.0000   0.0000   0.0000
     0.0000   0.0000   0.0000   0.0000   0.0000   0.0000   0.0000   0.0000
     0.0000   0.0000   0.0000   0.0000

          k = 0.7500 0.0000 0.2500 ( 73903 PWs)   bands (ev):

   -18.1281 -18.1281 -18.0397 -18.0397 -17.9993 -17.9993 -17.9954 -17.9954
   -17.9651 -17.9651 -17.9608 -17.9608 -17.8047 -17.8047 -17.7796 -17.7796
   -15.3216 -15.3216 -15.3009 -15.3008 -15.2532 -15.2525 -15.2495 -15.2489
   -15.2402 -15.2401 -15.2353 -15.2352 -15.2229 -15.2229 -15.2149 -15.2149
   -15.1848 -15.1848 -15.1674 -15.1674 -15.0949 -15.0948 -15.0876 -15.0876
   -15.0734 -15.0733 -15.0688 -15.0687 -15.0092 -15.0092 -15.0005 -15.0005
   -12.7916 -12.7898 -12.7730 -12.7703 -12.7695 -12.7681 -12.7351 -12.7319
   -12.7271 -12.7266 -12.7240 -12.7227 -12.7161 -12.7141 -12.6988 -12.6985
   -12.6841 -12.6836 -12.6575 -12.6573 -12.6570 -12.6563 -12.6467 -12.6456
   -12.6415 -12.6411 -12.6336 -12.6335 -12.5933 -12.5925 -12.5900 -12.5898
   -12.5686 -12.5682 -12.5618 -12.5611 -12.5404 -12.5388 -12.5061 -12.5058
   -12.4984 -12.4982 -12.4914 -12.4911 -12.4901 -12.4894 -12.4173 -12.4172
   -11.4054 -11.4041 -11.3459 -11.3447 -11.2798 -11.2784 -11.2219 -11.2205
   -11.2030 -11.2009 -11.1633 -11.1619 -11.0909 -11.0890 -11.0755 -11.0723
   -11.0506 -11.0483 -11.0265 -11.0222 -11.0036 -11.0027 -10.9881 -10.9869
   -10.9698 -10.9669 -10.9260 -10.9245 -10.8940 -10.8931 -10.8607 -10.8576
   -10.8147 -10.8146 -10.7868 -10.7856 -10.7572 -10.7562 -10.6877 -10.6869
   -10.6415 -10.6412 -10.6218 -10.6211 -10.5888 -10.5882 -10.5396 -10.5390
    -6.0981  -6.0979  -6.0137  -6.0132  -5.9771  -5.9767  -5.9722  -5.9719
    -5.9417  -5.9414  -5.9351  -5.9350  -5.7958  -5.7957  -5.7737  -5.7733
    -5.2404  -5.2401  -4.9496  -4.9484  -4.9197  -4.9193  -4.7800  -4.7780
    -4.6065  -4.6037  -4.5178  -4.5110  -4.4987  -4.4914  -4.4764  -4.4689
    -4.4418  -4.4407  -4.4175  -4.4134  -4.3985  -4.3942  -4.3847  -4.3824
    -4.3782  -4.3751  -4.3676  -4.3642  -4.3584  -4.3555  -4.3505  -4.3473
    -4.3425  -4.3420  -4.3208  -4.3190  -4.3140  -4.3121  -4.2164  -4.2150
    -4.1922  -4.1885  -4.1871  -4.1851  -4.1776  -4.1760  -4.1153  -4.1121
    -0.9069  -0.8207  -0.7892  -0.7285  -0.7081  -0.7019  -0.6656  -0.6539
    -0.5753  -0.5531  -0.5317  -0.5164  -0.4839  -0.4575  -0.4358  -0.4248
    -0.3939  -0.3841  -0.3681  -0.3491  -0.2120  -0.2010  -0.1819  -0.1564
     0.1878   0.2496   0.2699   0.2882   0.3108   0.3236   0.3471   0.3657
     0.3877   0.3967   0.4084   0.4400   0.4490   0.4545   0.4651   0.4761
     0.4978   0.5209   0.5400   0.5459   0.5756   0.6084   0.6366   0.6709
     0.6775   0.6989   0.7126   0.7325   0.7508   0.7631   0.7769   0.7894
     0.7960   0.8305   0.8352   0.8466   0.8587   0.8639   0.8836   0.9019
     0.9062   0.9112   0.9304   0.9413   0.9514   0.9650   0.9753   0.9884
     0.9988   1.0060   1.0147   1.0232   1.0417   1.0543   1.0636   1.0692
     1.0822   1.0886   1.1075   1.1100   1.1235   1.1344   1.1447   1.1592
     1.1639   1.1732   1.1809   1.2037   1.2151   1.2186   1.2244   1.2440
     1.2562   1.2732   1.2850   1.2916   1.3057   1.3114   1.3190   1.3356
     1.3510   1.3614   1.3821   1.3874   1.3987   1.4058   1.4129   1.4354
     1.4464   1.4569   1.4665   1.4847   1.5072   1.5137   1.5333   1.5414
     1.5567   1.5696   1.5797   1.6109   1.6137   1.6233   1.6461   1.6550
     1.6768   1.6924   1.7187   1.7428   1.8056   1.8262   1.8352   1.8888
     1.9572   2.0077   2.0704   2.1051   2.1551   2.1976   2.3548   2.3726
     4.1276   4.1682   4.5022   4.5614   4.6482   4.7035   4.8673   4.8841
     5.1163   5.1913   5.3682   5.3969   5.4682   5.5182   5.5720   5.6396
     5.7351   5.8191   5.8540   5.9037   5.9264   5.9583   6.1015   6.1578
     6.5271   6.5615   6.7327   6.7802   6.9661   7.0246   7.0615   7.0914
     7.1776   7.2151   7.2498   7.2724   7.3018   7.3574   7.5125   7.5806
     7.6425   7.6684   7.6751   7.7161   7.7293   7.7629   7.7905   7.8352
     7.8616   7.8847   7.9030   7.9180   7.9649   7.9939   8.0286   8.0445
     8.0715   8.0968   8.1338   8.1780   8.1909   8.2123   8.2495   8.2677
     8.2909   8.3065   8.3275   8.3418   8.3592   8.3688   8.4030   8.4288
     8.4401   8.4621   8.4784   8.4908   8.5249   8.5435   8.5641   8.5778
     8.5829   8.5925   8.6020   8.6094   8.6295   8.6516   8.6612   8.7134
     8.7304   8.7518   8.7681   8.7835   8.8035   8.8103   8.8228   8.8330
     8.8579   8.8696   8.9126   8.9271   8.9399   8.9583   8.9714   8.9919
     9.0187   9.0376   9.0497   9.0753   9.1038   9.1129   9.1411   9.1525
     9.1555   9.1650   9.2007   9.2218   9.2550   9.2665   9.2757   9.3126
     9.3253   9.3525   9.3578   9.3733   9.4031   9.4127   9.4564   9.4667
     9.4829   9.5032   9.5171   9.5281   9.5661   9.5855   9.6022   9.6219
     9.6371   9.6538   9.6638   9.6812   9.7113   9.7381   9.7496   9.7521
     9.7900   9.8107   9.8834   9.9034

     occupation numbers 
     1.0000   1.0000   1.0000   1.0000   1.0000   1.0000   1.0000   1.0000
     1.0000   1.0000   1.0000   1.0000   1.0000   1.0000   1.0000   1.0000
     1.0000   1.0000   1.0000   1.0000   1.0000   1.0000   1.0000   1.0000
     1.0000   1.0000   1.0000   1.0000   1.0000   1.0000   1.0000   1.0000
     1.0000   1.0000   1.0000   1.0000   1.0000   1.0000   1.0000   1.0000
     1.0000   1.0000   1.0000   1.0000   1.0000   1.0000   1.0000   1.0000
     1.0000   1.0000   1.0000   1.0000   1.0000   1.0000   1.0000   1.0000
     1.0000   1.0000   1.0000   1.0000   1.0000   1.0000   1.0000   1.0000
     1.0000   1.0000   1.0000   1.0000   1.0000   1.0000   1.0000   1.0000
     1.0000   1.0000   1.0000   1.0000   1.0000   1.0000   1.0000   1.0000
     1.0000   1.0000   1.0000   1.0000   1.0000   1.0000   1.0000   1.0000
     1.0000   1.0000   1.0000   1.0000   1.0000   1.0000   1.0000   1.0000
     1.0000   1.0000   1.0000   1.0000   1.0000   1.0000   1.0000   1.0000
     1.0000   1.0000   1.0000   1.0000   1.0000   1.0000   1.0000   1.0000
     1.0000   1.0000   1.0000   1.0000   1.0000   1.0000   1.0000   1.0000
     1.0000   1.0000   1.0000   1.0000   1.0000   1.0000   1.0000   1.0000
     1.0000   1.0000   1.0000   1.0000   1.0000   1.0000   1.0000   1.0000
     1.0000   1.0000   1.0000   1.0000   1.0000   1.0000   1.0000   1.0000
     1.0000   1.0000   1.0000   1.0000   1.0000   1.0000   1.0000   1.0000
     1.0000   1.0000   1.0000   1.0000   1.0000   1.0000   1.0000   1.0000
     1.0000   1.0000   1.0000   1.0000   1.0000   1.0000   1.0000   1.0000
     1.0000   1.0000   1.0000   1.0000   1.0000   1.0000   1.0000   1.0000
     1.0000   1.0000   1.0000   1.0000   1.0000   1.0000   1.0000   1.0000
     1.0000   1.0000   1.0000   1.0000   1.0000   1.0000   1.0000   1.0000
     1.0000   1.0000   1.0000   1.0000   1.0000   1.0000   1.0000   1.0000
     1.0000   1.0000   1.0000   1.0000   1.0000   1.0000   1.0000   1.0000
     1.0000   1.0000   1.0000   1.0000   1.0000   1.0000   1.0000   1.0000
     1.0000   1.0000   1.0000   1.0000   1.0000   1.0000   1.0000   1.0000
     1.0000   1.0000   1.0000   1.0000   1.0000   1.0000   1.0000   1.0000
     1.0000   1.0000   1.0000   1.0000   1.0000   1.0000   1.0000   1.0000
     1.0000   1.0000   1.0000   1.0000   1.0000   1.0000   1.0000   1.0000
     1.0000   1.0000   1.0000   1.0000   1.0000   1.0000   1.0000   1.0000
     1.0000   1.0000   1.0000   1.0000   1.0000   1.0000   1.0000   1.0000
     1.0000   1.0000   1.0000   1.0000   1.0000   1.0000   1.0000   1.0000
     1.0000   1.0000   1.0000   1.0000   1.0000   1.0000   1.0000   1.0000
     1.0000   1.0000   1.0000   1.0000   1.0000   1.0000   1.0000   1.0000
     1.0000   1.0000   1.0000   1.0000   1.0000   1.0000   1.0000   1.0000
     1.0000   1.0000   1.0000   1.0000   1.0000   1.0000   1.0000   1.0000
     1.0000   1.0000   1.0000   1.0000   1.0000   1.0000   1.0000   1.0000
     1.0000   1.0000   1.0000   1.0000   1.0000   1.0000   1.0000   1.0000
     1.0000   1.0000   1.0000   1.0000   1.0000   1.0000   1.0000   1.0000
     1.0000   1.0000   1.0000   1.0000   1.0000   1.0000   1.0000   1.0000
     1.0000   1.0000   1.0000   1.0000   1.0000   1.0000   1.0000   1.0000
     1.0000   1.0000   1.0000   1.0000   1.0000   1.0000   1.0000   1.0000
     0.0000   0.0000   0.0000   0.0000   0.0000   0.0000   0.0000   0.0000
     0.0000   0.0000   0.0000   0.0000   0.0000   0.0000   0.0000   0.0000
     0.0000   0.0000   0.0000   0.0000   0.0000   0.0000   0.0000   0.0000
     0.0000   0.0000   0.0000   0.0000   0.0000   0.0000   0.0000   0.0000
     0.0000   0.0000   0.0000   0.0000   0.0000   0.0000   0.0000   0.0000
     0.0000   0.0000   0.0000   0.0000   0.0000   0.0000   0.0000   0.0000
     0.0000   0.0000   0.0000   0.0000   0.0000   0.0000   0.0000   0.0000
     0.0000   0.0000   0.0000   0.0000   0.0000   0.0000   0.0000   0.0000
     0.0000   0.0000   0.0000   0.0000   0.0000   0.0000   0.0000   0.0000
     0.0000   0.0000   0.0000   0.0000   0.0000   0.0000   0.0000   0.0000
     0.0000   0.0000   0.0000   0.0000   0.0000   0.0000   0.0000   0.0000
     0.0000   0.0000   0.0000   0.0000   0.0000   0.0000   0.0000   0.0000
     0.0000   0.0000   0.0000   0.0000   0.0000   0.0000   0.0000   0.0000
     0.0000   0.0000   0.0000   0.0000   0.0000   0.0000   0.0000   0.0000
     0.0000   0.0000   0.0000   0.0000   0.0000   0.0000   0.0000   0.0000
     0.0000   0.0000   0.0000   0.0000   0.0000   0.0000   0.0000   0.0000
     0.0000   0.0000   0.0000   0.0000   0.0000   0.0000   0.0000   0.0000
     0.0000   0.0000   0.0000   0.0000   0.0000   0.0000   0.0000   0.0000
     0.0000   0.0000   0.0000   0.0000

          k = 0.7500 0.0000 0.5000 ( 73986 PWs)   bands (ev):

   -18.1281 -18.1281 -18.0397 -18.0397 -17.9993 -17.9993 -17.9954 -17.9954
   -17.9651 -17.9651 -17.9608 -17.9608 -17.8047 -17.8047 -17.7796 -17.7796
   -15.3216 -15.3216 -15.3009 -15.3008 -15.2516 -15.2515 -15.2502 -15.2502
   -15.2402 -15.2402 -15.2356 -15.2355 -15.2229 -15.2229 -15.2149 -15.2149
   -15.1849 -15.1848 -15.1674 -15.1674 -15.0948 -15.0948 -15.0876 -15.0876
   -15.0733 -15.0732 -15.0688 -15.0687 -15.0093 -15.0092 -15.0005 -15.0005
   -12.7909 -12.7890 -12.7692 -12.7690 -12.7588 -12.7584 -12.7442 -12.7440
   -12.7270 -12.7265 -12.7262 -12.7249 -12.7163 -12.7142 -12.6983 -12.6981
   -12.6836 -12.6831 -12.6575 -12.6573 -12.6570 -12.6565 -12.6477 -12.6463
   -12.6419 -12.6416 -12.6336 -12.6335 -12.5936 -12.5929 -12.5899 -12.5899
   -12.5686 -12.5680 -12.5604 -12.5598 -12.5407 -12.5392 -12.5073 -12.5069
   -12.4983 -12.4982 -12.4923 -12.4919 -12.4906 -12.4902 -12.4173 -12.4172
   -11.3906 -11.3901 -11.3689 -11.3685 -11.2700 -11.2685 -11.2353 -11.2345
   -11.2015 -11.1991 -11.1582 -11.1567 -11.0871 -11.0866 -11.0652 -11.0627
   -11.0502 -11.0479 -11.0305 -11.0254 -11.0082 -11.0068 -10.9884 -10.9874
   -10.9701 -10.9673 -10.9272 -10.9259 -10.8901 -10.8900 -10.8603 -10.8574
   -10.8054 -10.8047 -10.7851 -10.7840 -10.7594 -10.7583 -10.6870 -10.6864
   -10.6416 -10.6413 -10.6183 -10.6177 -10.5980 -10.5969 -10.5430 -10.5429
    -6.0981  -6.0979  -6.0135  -6.0132  -5.9768  -5.9766  -5.9722  -5.9720
    -5.9420  -5.9416  -5.9352  -5.9351  -5.7959  -5.7957  -5.7735  -5.7734
    -5.1007  -5.1001  -5.0855  -5.0846  -4.8116  -4.8107  -4.7927  -4.7915
    -4.6396  -4.6393  -4.5927  -4.5902  -4.5018  -4.5008  -4.4815  -4.4798
    -4.4235  -4.4177  -4.4057  -4.3978  -4.3914  -4.3891  -4.3803  -4.3786
    -4.3725  -4.3674  -4.3619  -4.3616  -4.3545  -4.3525  -4.3471  -4.3456
    -4.3263  -4.3239  -4.3202  -4.3158  -4.3054  -4.3015  -4.2786  -4.2760
    -4.2132  -4.2128  -4.1874  -4.1870  -4.1841  -4.1823  -4.1740  -4.1723
    -0.8100  -0.7731  -0.7505  -0.7152  -0.6848  -0.6616  -0.6222  -0.5783
    -0.5503  -0.5243  -0.5174  -0.5115  -0.3867  -0.3731  -0.3233  -0.3052
    -0.2291  -0.2142  -0.0935  -0.0745  -0.0493  -0.0449  -0.0203  -0.0144
     0.0373   0.0446   0.1597   0.1685   0.2334   0.2506   0.2620   0.2915
     0.3239   0.3296   0.3454   0.3552   0.3746   0.3946   0.4036   0.4179
     0.4270   0.4620   0.4830   0.5049   0.5296   0.5516   0.5905   0.6168
     0.6430   0.6652   0.6869   0.7136   0.7228   0.7400   0.7502   0.7771
     0.7943   0.7987   0.8084   0.8316   0.8419   0.8500   0.8685   0.8839
     0.8893   0.9078   0.9155   0.9267   0.9374   0.9462   0.9627   0.9775
     0.9847   0.9990   1.0139   1.0284   1.0338   1.0428   1.0545   1.0691
     1.0735   1.0975   1.1024   1.1085   1.1122   1.1260   1.1428   1.1518
     1.1646   1.1804   1.1841   1.1947   1.2102   1.2237   1.2278   1.2403
     1.2561   1.2663   1.2768   1.2933   1.3000   1.3155   1.3341   1.3440
     1.3525   1.3659   1.3708   1.3883   1.3970   1.4064   1.4242   1.4337
     1.4431   1.4553   1.4790   1.4896   1.5003   1.5082   1.5276   1.5337
     1.5385   1.5558   1.5703   1.5946   1.6137   1.6332   1.6454   1.6705
     1.6768   1.6856   1.7056   1.7243   1.7417   1.7625   1.8310   1.8409
     1.9350   1.9588   1.9786   2.0023   2.1864   2.1964   2.2111   2.2339
     4.3142   4.3248   4.5036   4.5452   4.8270   4.8387   4.8992   4.9475
     5.2206   5.2435   5.3034   5.3811   5.6098   5.6249   5.7704   5.7952
     6.0280   6.0619   6.1351   6.2112   6.3936   6.4175   6.4454   6.5014
     6.5293   6.5477   6.5922   6.6251   6.6778   6.7229   6.7774   6.7991
     7.0320   7.0606   7.0947   7.1207   7.2675   7.3072   7.3586   7.3817
     7.5031   7.5527   7.5742   7.6538   7.6862   7.7062   7.7618   7.8175
     7.8784   7.9036   7.9327   7.9388   7.9588   7.9797   8.0058   8.0210
     8.0360   8.0525   8.0760   8.0937   8.1300   8.1490   8.1773   8.2092
     8.2272   8.2373   8.2762   8.2989   8.3495   8.3612   8.3913   8.4090
     8.4244   8.4411   8.4675   8.4799   8.5013   8.5108   8.5324   8.5502
     8.5738   8.5827   8.5991   8.6304   8.6446   8.6670   8.6776   8.6860
     8.7031   8.7292   8.7493   8.7709   8.7827   8.8000   8.8204   8.8440
     8.8579   8.8823   8.9060   8.9237   8.9574   8.9692   8.9849   9.0152
     9.0231   9.0336   9.0542   9.0690   9.0821   9.0919   9.1193   9.1296
     9.1493   9.1641   9.1896   9.2021   9.2301   9.2457   9.2904   9.3117
     9.3286   9.3367   9.3525   9.3647   9.3715   9.3854   9.4201   9.4269
     9.4590   9.4737   9.4839   9.4934   9.5212   9.5369   9.5630   9.5713
     9.5920   9.6085   9.6311   9.6387   9.6956   9.7067   9.7347   9.7406
     9.8088   9.8196   9.9056   9.9188

     occupation numbers 
     1.0000   1.0000   1.0000   1.0000   1.0000   1.0000   1.0000   1.0000
     1.0000   1.0000   1.0000   1.0000   1.0000   1.0000   1.0000   1.0000
     1.0000   1.0000   1.0000   1.0000   1.0000   1.0000   1.0000   1.0000
     1.0000   1.0000   1.0000   1.0000   1.0000   1.0000   1.0000   1.0000
     1.0000   1.0000   1.0000   1.0000   1.0000   1.0000   1.0000   1.0000
     1.0000   1.0000   1.0000   1.0000   1.0000   1.0000   1.0000   1.0000
     1.0000   1.0000   1.0000   1.0000   1.0000   1.0000   1.0000   1.0000
     1.0000   1.0000   1.0000   1.0000   1.0000   1.0000   1.0000   1.0000
     1.0000   1.0000   1.0000   1.0000   1.0000   1.0000   1.0000   1.0000
     1.0000   1.0000   1.0000   1.0000   1.0000   1.0000   1.0000   1.0000
     1.0000   1.0000   1.0000   1.0000   1.0000   1.0000   1.0000   1.0000
     1.0000   1.0000   1.0000   1.0000   1.0000   1.0000   1.0000   1.0000
     1.0000   1.0000   1.0000   1.0000   1.0000   1.0000   1.0000   1.0000
     1.0000   1.0000   1.0000   1.0000   1.0000   1.0000   1.0000   1.0000
     1.0000   1.0000   1.0000   1.0000   1.0000   1.0000   1.0000   1.0000
     1.0000   1.0000   1.0000   1.0000   1.0000   1.0000   1.0000   1.0000
     1.0000   1.0000   1.0000   1.0000   1.0000   1.0000   1.0000   1.0000
     1.0000   1.0000   1.0000   1.0000   1.0000   1.0000   1.0000   1.0000
     1.0000   1.0000   1.0000   1.0000   1.0000   1.0000   1.0000   1.0000
     1.0000   1.0000   1.0000   1.0000   1.0000   1.0000   1.0000   1.0000
     1.0000   1.0000   1.0000   1.0000   1.0000   1.0000   1.0000   1.0000
     1.0000   1.0000   1.0000   1.0000   1.0000   1.0000   1.0000   1.0000
     1.0000   1.0000   1.0000   1.0000   1.0000   1.0000   1.0000   1.0000
     1.0000   1.0000   1.0000   1.0000   1.0000   1.0000   1.0000   1.0000
     1.0000   1.0000   1.0000   1.0000   1.0000   1.0000   1.0000   1.0000
     1.0000   1.0000   1.0000   1.0000   1.0000   1.0000   1.0000   1.0000
     1.0000   1.0000   1.0000   1.0000   1.0000   1.0000   1.0000   1.0000
     1.0000   1.0000   1.0000   1.0000   1.0000   1.0000   1.0000   1.0000
     1.0000   1.0000   1.0000   1.0000   1.0000   1.0000   1.0000   1.0000
     1.0000   1.0000   1.0000   1.0000   1.0000   1.0000   1.0000   1.0000
     1.0000   1.0000   1.0000   1.0000   1.0000   1.0000   1.0000   1.0000
     1.0000   1.0000   1.0000   1.0000   1.0000   1.0000   1.0000   1.0000
     1.0000   1.0000   1.0000   1.0000   1.0000   1.0000   1.0000   1.0000
     1.0000   1.0000   1.0000   1.0000   1.0000   1.0000   1.0000   1.0000
     1.0000   1.0000   1.0000   1.0000   1.0000   1.0000   1.0000   1.0000
     1.0000   1.0000   1.0000   1.0000   1.0000   1.0000   1.0000   1.0000
     1.0000   1.0000   1.0000   1.0000   1.0000   1.0000   1.0000   1.0000
     1.0000   1.0000   1.0000   1.0000   1.0000   1.0000   1.0000   1.0000
     1.0000   1.0000   1.0000   1.0000   1.0000   1.0000   1.0000   1.0000
     1.0000   1.0000   1.0000   1.0000   1.0000   1.0000   1.0000   1.0000
     1.0000   1.0000   1.0000   1.0000   1.0000   1.0000   1.0000   1.0000
     1.0000   1.0000   1.0000   1.0000   1.0000   1.0000   1.0000   1.0000
     1.0000   1.0000   1.0000   1.0000   1.0000   1.0000   1.0000   1.0000
     1.0000   1.0000   1.0000   1.0000   1.0000   1.0000   1.0000   1.0000
     0.0000   0.0000   0.0000   0.0000   0.0000   0.0000   0.0000   0.0000
     0.0000   0.0000   0.0000   0.0000   0.0000   0.0000   0.0000   0.0000
     0.0000   0.0000   0.0000   0.0000   0.0000   0.0000   0.0000   0.0000
     0.0000   0.0000   0.0000   0.0000   0.0000   0.0000   0.0000   0.0000
     0.0000   0.0000   0.0000   0.0000   0.0000   0.0000   0.0000   0.0000
     0.0000   0.0000   0.0000   0.0000   0.0000   0.0000   0.0000   0.0000
     0.0000   0.0000   0.0000   0.0000   0.0000   0.0000   0.0000   0.0000
     0.0000   0.0000   0.0000   0.0000   0.0000   0.0000   0.0000   0.0000
     0.0000   0.0000   0.0000   0.0000   0.0000   0.0000   0.0000   0.0000
     0.0000   0.0000   0.0000   0.0000   0.0000   0.0000   0.0000   0.0000
     0.0000   0.0000   0.0000   0.0000   0.0000   0.0000   0.0000   0.0000
     0.0000   0.0000   0.0000   0.0000   0.0000   0.0000   0.0000   0.0000
     0.0000   0.0000   0.0000   0.0000   0.0000   0.0000   0.0000   0.0000
     0.0000   0.0000   0.0000   0.0000   0.0000   0.0000   0.0000   0.0000
     0.0000   0.0000   0.0000   0.0000   0.0000   0.0000   0.0000   0.0000
     0.0000   0.0000   0.0000   0.0000   0.0000   0.0000   0.0000   0.0000
     0.0000   0.0000   0.0000   0.0000   0.0000   0.0000   0.0000   0.0000
     0.0000   0.0000   0.0000   0.0000   0.0000   0.0000   0.0000   0.0000
     0.0000   0.0000   0.0000   0.0000

          k = 0.7500 0.0000 0.7500 ( 73903 PWs)   bands (ev):

   -18.1281 -18.1281 -18.0397 -18.0397 -17.9993 -17.9993 -17.9954 -17.9954
   -17.9651 -17.9651 -17.9608 -17.9608 -17.8047 -17.8047 -17.7796 -17.7796
   -15.3216 -15.3216 -15.3009 -15.3009 -15.2532 -15.2525 -15.2495 -15.2489
   -15.2402 -15.2401 -15.2354 -15.2351 -15.2229 -15.2229 -15.2149 -15.2149
   -15.1849 -15.1848 -15.1674 -15.1674 -15.0949 -15.0948 -15.0876 -15.0876
   -15.0734 -15.0733 -15.0688 -15.0687 -15.0092 -15.0092 -15.0005 -15.0005
   -12.7916 -12.7898 -12.7729 -12.7703 -12.7695 -12.7682 -12.7355 -12.7315
   -12.7271 -12.7265 -12.7242 -12.7225 -12.7162 -12.7141 -12.6988 -12.6985
   -12.6842 -12.6835 -12.6577 -12.6571 -12.6567 -12.6566 -12.6472 -12.6451
   -12.6415 -12.6412 -12.6336 -12.6335 -12.5933 -12.5925 -12.5900 -12.5898
   -12.5686 -12.5682 -12.5618 -12.5610 -12.5402 -12.5390 -12.5062 -12.5057
   -12.4984 -12.4982 -12.4915 -12.4912 -12.4900 -12.4895 -12.4173 -12.4172
   -11.4030 -11.4019 -11.3526 -11.3513 -11.2665 -11.2652 -11.2401 -11.2387
   -11.1987 -11.1964 -11.1548 -11.1539 -11.0902 -11.0892 -11.0740 -11.0724
   -11.0458 -11.0436 -11.0259 -11.0217 -11.0151 -11.0139 -10.9886 -10.9885
   -10.9758 -10.9736 -10.9192 -10.9180 -10.8911 -10.8897 -10.8600 -10.8569
   -10.8156 -10.8148 -10.7885 -10.7869 -10.7570 -10.7556 -10.6852 -10.6844
   -10.6390 -10.6384 -10.6296 -10.6292 -10.5860 -10.5850 -10.5395 -10.5390
    -6.0981  -6.0980  -6.0136  -6.0132  -5.9771  -5.9767  -5.9722  -5.9719
    -5.9418  -5.9413  -5.9352  -5.9350  -5.7959  -5.7956  -5.7737  -5.7733
    -5.2417  -5.2405  -4.9453  -4.9449  -4.9213  -4.9201  -4.7804  -4.7790
    -4.6115  -4.6088  -4.5089  -4.5067  -4.4972  -4.4963  -4.4769  -4.4739
    -4.4410  -4.4392  -4.4154  -4.4132  -4.3981  -4.3931  -4.3860  -4.3822
    -4.3774  -4.3744  -4.3658  -4.3647  -4.3574  -4.3559  -4.3491  -4.3486
    -4.3429  -4.3413  -4.3203  -4.3187  -4.3143  -4.3129  -4.2171  -4.2159
    -4.1946  -4.1912  -4.1877  -4.1856  -4.1769  -4.1766  -4.1150  -4.1103
    -0.8834  -0.8254  -0.7671  -0.7383  -0.7092  -0.6856  -0.6706  -0.6445
    -0.6000  -0.5801  -0.5305  -0.5180  -0.5041  -0.4844  -0.4462  -0.4234
    -0.3944  -0.3603  -0.3275  -0.2991  -0.2370  -0.2221  -0.1946  -0.1892
     0.2110   0.2309   0.2846   0.3019   0.3107   0.3207   0.3532   0.3706
     0.3834   0.3981   0.4192   0.4348   0.4440   0.4515   0.4753   0.4877
     0.4981   0.5147   0.5319   0.5486   0.5701   0.5991   0.6360   0.6565
     0.6720   0.6898   0.7116   0.7343   0.7538   0.7665   0.7790   0.7966
     0.8110   0.8273   0.8394   0.8469   0.8593   0.8776   0.8880   0.8993
     0.9090   0.9154   0.9367   0.9443   0.9535   0.9641   0.9666   0.9819
     0.9961   1.0114   1.0152   1.0177   1.0339   1.0446   1.0490   1.0687
     1.0758   1.0890   1.1026   1.1153   1.1243   1.1370   1.1462   1.1659
     1.1750   1.1802   1.1900   1.2023   1.2095   1.2195   1.2226   1.2341
     1.2554   1.2686   1.2779   1.2925   1.3058   1.3142   1.3195   1.3431
     1.3488   1.3603   1.3801   1.3916   1.4068   1.4123   1.4254   1.4315
     1.4423   1.4685   1.4783   1.4867   1.4951   1.5214   1.5259   1.5397
     1.5491   1.5669   1.5787   1.6029   1.6129   1.6292   1.6550   1.6567
     1.6776   1.7010   1.7179   1.7478   1.7813   1.8174   1.8422   1.8756
     1.9778   1.9992   2.0921   2.1195   2.1441   2.1612   2.3570   2.3652
     4.1199   4.1706   4.5090   4.5593   4.6621   4.7050   4.8491   4.8975
     5.1395   5.1704   5.3551   5.4205   5.4656   5.5216   5.5825   5.6346
     5.7316   5.7924   5.8610   5.9037   5.9306   5.9547   6.1180   6.1337
     6.5290   6.5470   6.7345   6.7961   6.9558   7.0403   7.0624   7.1131
     7.1675   7.2012   7.2462   7.2977   7.3247   7.3494   7.5136   7.5567
     7.5982   7.6285   7.6637   7.6732   7.7477   7.7978   7.8186   7.8403
     7.8600   7.8818   7.9333   7.9514   7.9689   7.9985   8.0149   8.0582
     8.0737   8.0952   8.1331   8.1439   8.1966   8.2120   8.2244   8.2473
     8.2761   8.3111   8.3298   8.3485   8.3589   8.3860   8.4135   8.4178
     8.4493   8.4607   8.4753   8.4873   8.5110   8.5273   8.5495   8.5741
     8.5841   8.6075   8.6387   8.6493   8.6664   8.6763   8.6860   8.6964
     8.7212   8.7408   8.7670   8.7752   8.8007   8.8110   8.8371   8.8479
     8.8664   8.8772   8.8878   8.9125   8.9337   8.9464   8.9600   8.9721
     8.9976   9.0146   9.0535   9.0622   9.0830   9.0934   9.1329   9.1527
     9.1579   9.1844   9.2259   9.2436   9.2677   9.2788   9.3201   9.3270
     9.3465   9.3563   9.3899   9.4107   9.4196   9.4328   9.4557   9.4715
     9.4777   9.4909   9.5067   9.5138   9.5366   9.5468   9.5813   9.5937
     9.6211   9.6434   9.6548   9.6750   9.6930   9.7003   9.7267   9.7303
     9.7721   9.7849   9.9602   9.9838

     occupation numbers 
     1.0000   1.0000   1.0000   1.0000   1.0000   1.0000   1.0000   1.0000
     1.0000   1.0000   1.0000   1.0000   1.0000   1.0000   1.0000   1.0000
     1.0000   1.0000   1.0000   1.0000   1.0000   1.0000   1.0000   1.0000
     1.0000   1.0000   1.0000   1.0000   1.0000   1.0000   1.0000   1.0000
     1.0000   1.0000   1.0000   1.0000   1.0000   1.0000   1.0000   1.0000
     1.0000   1.0000   1.0000   1.0000   1.0000   1.0000   1.0000   1.0000
     1.0000   1.0000   1.0000   1.0000   1.0000   1.0000   1.0000   1.0000
     1.0000   1.0000   1.0000   1.0000   1.0000   1.0000   1.0000   1.0000
     1.0000   1.0000   1.0000   1.0000   1.0000   1.0000   1.0000   1.0000
     1.0000   1.0000   1.0000   1.0000   1.0000   1.0000   1.0000   1.0000
     1.0000   1.0000   1.0000   1.0000   1.0000   1.0000   1.0000   1.0000
     1.0000   1.0000   1.0000   1.0000   1.0000   1.0000   1.0000   1.0000
     1.0000   1.0000   1.0000   1.0000   1.0000   1.0000   1.0000   1.0000
     1.0000   1.0000   1.0000   1.0000   1.0000   1.0000   1.0000   1.0000
     1.0000   1.0000   1.0000   1.0000   1.0000   1.0000   1.0000   1.0000
     1.0000   1.0000   1.0000   1.0000   1.0000   1.0000   1.0000   1.0000
     1.0000   1.0000   1.0000   1.0000   1.0000   1.0000   1.0000   1.0000
     1.0000   1.0000   1.0000   1.0000   1.0000   1.0000   1.0000   1.0000
     1.0000   1.0000   1.0000   1.0000   1.0000   1.0000   1.0000   1.0000
     1.0000   1.0000   1.0000   1.0000   1.0000   1.0000   1.0000   1.0000
     1.0000   1.0000   1.0000   1.0000   1.0000   1.0000   1.0000   1.0000
     1.0000   1.0000   1.0000   1.0000   1.0000   1.0000   1.0000   1.0000
     1.0000   1.0000   1.0000   1.0000   1.0000   1.0000   1.0000   1.0000
     1.0000   1.0000   1.0000   1.0000   1.0000   1.0000   1.0000   1.0000
     1.0000   1.0000   1.0000   1.0000   1.0000   1.0000   1.0000   1.0000
     1.0000   1.0000   1.0000   1.0000   1.0000   1.0000   1.0000   1.0000
     1.0000   1.0000   1.0000   1.0000   1.0000   1.0000   1.0000   1.0000
     1.0000   1.0000   1.0000   1.0000   1.0000   1.0000   1.0000   1.0000
     1.0000   1.0000   1.0000   1.0000   1.0000   1.0000   1.0000   1.0000
     1.0000   1.0000   1.0000   1.0000   1.0000   1.0000   1.0000   1.0000
     1.0000   1.0000   1.0000   1.0000   1.0000   1.0000   1.0000   1.0000
     1.0000   1.0000   1.0000   1.0000   1.0000   1.0000   1.0000   1.0000
     1.0000   1.0000   1.0000   1.0000   1.0000   1.0000   1.0000   1.0000
     1.0000   1.0000   1.0000   1.0000   1.0000   1.0000   1.0000   1.0000
     1.0000   1.0000   1.0000   1.0000   1.0000   1.0000   1.0000   1.0000
     1.0000   1.0000   1.0000   1.0000   1.0000   1.0000   1.0000   1.0000
     1.0000   1.0000   1.0000   1.0000   1.0000   1.0000   1.0000   1.0000
     1.0000   1.0000   1.0000   1.0000   1.0000   1.0000   1.0000   1.0000
     1.0000   1.0000   1.0000   1.0000   1.0000   1.0000   1.0000   1.0000
     1.0000   1.0000   1.0000   1.0000   1.0000   1.0000   1.0000   1.0000
     1.0000   1.0000   1.0000   1.0000   1.0000   1.0000   1.0000   1.0000
     1.0000   1.0000   1.0000   1.0000   1.0000   1.0000   1.0000   1.0000
     1.0000   1.0000   1.0000   1.0000   1.0000   1.0000   1.0000   1.0000
     1.0000   1.0000   1.0000   1.0000   1.0000   1.0000   1.0000   1.0000
     0.0000   0.0000   0.0000   0.0000   0.0000   0.0000   0.0000   0.0000
     0.0000   0.0000   0.0000   0.0000   0.0000   0.0000   0.0000   0.0000
     0.0000   0.0000   0.0000   0.0000   0.0000   0.0000   0.0000   0.0000
     0.0000   0.0000   0.0000   0.0000   0.0000   0.0000   0.0000   0.0000
     0.0000   0.0000   0.0000   0.0000   0.0000   0.0000   0.0000   0.0000
     0.0000   0.0000   0.0000   0.0000   0.0000   0.0000   0.0000   0.0000
     0.0000   0.0000   0.0000   0.0000   0.0000   0.0000   0.0000   0.0000
     0.0000   0.0000   0.0000   0.0000   0.0000   0.0000   0.0000   0.0000
     0.0000   0.0000   0.0000   0.0000   0.0000   0.0000   0.0000   0.0000
     0.0000   0.0000   0.0000   0.0000   0.0000   0.0000   0.0000   0.0000
     0.0000   0.0000   0.0000   0.0000   0.0000   0.0000   0.0000   0.0000
     0.0000   0.0000   0.0000   0.0000   0.0000   0.0000   0.0000   0.0000
     0.0000   0.0000   0.0000   0.0000   0.0000   0.0000   0.0000   0.0000
     0.0000   0.0000   0.0000   0.0000   0.0000   0.0000   0.0000   0.0000
     0.0000   0.0000   0.0000   0.0000   0.0000   0.0000   0.0000   0.0000
     0.0000   0.0000   0.0000   0.0000   0.0000   0.0000   0.0000   0.0000
     0.0000   0.0000   0.0000   0.0000   0.0000   0.0000   0.0000   0.0000
     0.0000   0.0000   0.0000   0.0000   0.0000   0.0000   0.0000   0.0000
     0.0000   0.0000   0.0000   0.0000

          k = 0.7500 0.2500 0.0000 ( 73903 PWs)   bands (ev):

   -18.1281 -18.1281 -18.0397 -18.0397 -17.9993 -17.9993 -17.9954 -17.9954
   -17.9651 -17.9651 -17.9608 -17.9608 -17.8047 -17.8047 -17.7796 -17.7796
   -15.3216 -15.3216 -15.3009 -15.3009 -15.2537 -15.2537 -15.2487 -15.2487
   -15.2401 -15.2401 -15.2350 -15.2349 -15.2228 -15.2228 -15.2149 -15.2149
   -15.1849 -15.1848 -15.1675 -15.1674 -15.0949 -15.0948 -15.0876 -15.0876
   -15.0734 -15.0733 -15.0688 -15.0686 -15.0092 -15.0092 -15.0005 -15.0005
   -12.7925 -12.7907 -12.7775 -12.7774 -12.7705 -12.7698 -12.7303 -12.7293
   -12.7270 -12.7264 -12.7197 -12.7187 -12.7140 -12.7131 -12.6967 -12.6959
   -12.6835 -12.6829 -12.6577 -12.6574 -12.6569 -12.6564 -12.6484 -12.6466
   -12.6433 -12.6423 -12.6337 -12.6336 -12.5933 -12.5928 -12.5900 -12.5899
   -12.5705 -12.5697 -12.5630 -12.5622 -12.5398 -12.5385 -12.5059 -12.5053
   -12.4986 -12.4983 -12.4911 -12.4910 -12.4887 -12.4884 -12.4173 -12.4172
   -11.4084 -11.4081 -11.3345 -11.3338 -11.2762 -11.2749 -11.2255 -11.2237
   -11.2120 -11.2108 -11.1704 -11.1697 -11.0985 -11.0978 -11.0789 -11.0769
   -11.0513 -11.0488 -11.0268 -11.0239 -11.0074 -11.0045 -10.9745 -10.9740
   -10.9555 -10.9521 -10.9106 -10.9091 -10.8931 -10.8903 -10.8604 -10.8566
   -10.8296 -10.8277 -10.7917 -10.7906 -10.7632 -10.7607 -10.6851 -10.6846
   -10.6395 -10.6390 -10.6305 -10.6296 -10.5809 -10.5804 -10.5400 -10.5395
    -6.0981  -6.0980  -6.0137  -6.0133  -5.9769  -5.9765  -5.9725  -5.9721
    -5.9422  -5.9394  -5.9371  -5.9341  -5.7960  -5.7958  -5.7735  -5.7735
    -5.2526  -5.2519  -4.9596  -4.9586  -4.8848  -4.8840  -4.7963  -4.7950
    -4.6001  -4.5976  -4.5120  -4.5060  -4.4937  -4.4867  -4.4784  -4.4735
    -4.4547  -4.4513  -4.4139  -4.4121  -4.3980  -4.3956  -4.3849  -4.3810
    -4.3747  -4.3738  -4.3682  -4.3616  -4.3594  -4.3560  -4.3509  -4.3470
    -4.3419  -4.3390  -4.3211  -4.3175  -4.3159  -4.3127  -4.2167  -4.2147
    -4.1936  -4.1913  -4.1874  -4.1851  -4.1777  -4.1747  -4.1108  -4.1060
    -1.0273  -0.9872  -0.7389  -0.7274  -0.6673  -0.6411  -0.6302  -0.5991
    -0.5677  -0.5588  -0.5413  -0.5260  -0.4693  -0.4508  -0.4344  -0.4224
    -0.4025  -0.3976  -0.3409  -0.3343  -0.2546  -0.2132  -0.1860  -0.1393
     0.2152   0.2419   0.2567   0.2800   0.2956   0.3173   0.3489   0.3601
     0.3878   0.3940   0.4082   0.4307   0.4447   0.4659   0.4834   0.5048
     0.5103   0.5262   0.5377   0.5444   0.5701   0.6015   0.6500   0.6706
     0.6870   0.7079   0.7159   0.7328   0.7452   0.7652   0.7860   0.8027
     0.8053   0.8167   0.8343   0.8474   0.8639   0.8732   0.8803   0.8871
     0.9029   0.9144   0.9237   0.9324   0.9455   0.9630   0.9760   0.9827
     0.9993   1.0105   1.0177   1.0257   1.0336   1.0559   1.0601   1.0633
     1.0792   1.0916   1.1072   1.1153   1.1307   1.1400   1.1463   1.1658
     1.1713   1.1826   1.1908   1.1991   1.2131   1.2217   1.2318   1.2497
     1.2580   1.2700   1.2824   1.2917   1.2998   1.3114   1.3143   1.3321
     1.3367   1.3668   1.3781   1.3893   1.3988   1.4065   1.4223   1.4294
     1.4435   1.4601   1.4658   1.4789   1.4945   1.5049   1.5198   1.5399
     1.5573   1.5741   1.5887   1.6011   1.6123   1.6182   1.6366   1.6609
     1.6877   1.6997   1.7341   1.7485   1.7845   1.8148   1.8840   1.9111
     1.9728   2.0148   2.0818   2.0939   2.1385   2.1829   2.3635   2.3773
     4.0837   4.2070   4.5122   4.5766   4.6467   4.6720   4.8673   4.9301
     5.1320   5.2128   5.3688   5.3998   5.4700   5.4879   5.5427   5.6506
     5.6845   5.7153   5.8248   5.8580   5.8889   5.9494   6.1335   6.1877
     6.4946   6.5427   6.7327   6.7794   6.9573   6.9985   7.0796   7.1222
     7.1373   7.1703   7.2227   7.2807   7.3147   7.3659   7.5038   7.5579
     7.5887   7.6567   7.6926   7.7257   7.7473   7.7689   7.7880   7.8339
     7.8615   7.8707   7.9359   7.9774   8.0051   8.0376   8.0448   8.0762
     8.0947   8.1175   8.1551   8.1652   8.1858   8.2069   8.2243   8.2573
     8.2826   8.2987   8.3150   8.3344   8.3434   8.3690   8.3853   8.4079
     8.4494   8.4681   8.4942   8.5076   8.5249   8.5528   8.5730   8.5810
     8.5882   8.6077   8.6187   8.6418   8.6572   8.6722   8.6896   8.7188
     8.7338   8.7576   8.7629   8.7766   8.7979   8.8127   8.8339   8.8541
     8.8653   8.8920   8.9018   8.9149   8.9494   8.9636   8.9797   8.9949
     9.0071   9.0213   9.0700   9.0860   9.1027   9.1196   9.1499   9.1545
     9.1750   9.1956   9.2082   9.2313   9.2605   9.2680   9.3051   9.3191
     9.3438   9.3594   9.3701   9.3821   9.4147   9.4289   9.4616   9.4730
     9.4808   9.4967   9.5285   9.5419   9.5522   9.5617   9.5891   9.6005
     9.6137   9.6392   9.6559   9.6724   9.7077   9.7260   9.7524   9.7564
     9.8627   9.8683   9.9128   9.9364

     occupation numbers 
     1.0000   1.0000   1.0000   1.0000   1.0000   1.0000   1.0000   1.0000
     1.0000   1.0000   1.0000   1.0000   1.0000   1.0000   1.0000   1.0000
     1.0000   1.0000   1.0000   1.0000   1.0000   1.0000   1.0000   1.0000
     1.0000   1.0000   1.0000   1.0000   1.0000   1.0000   1.0000   1.0000
     1.0000   1.0000   1.0000   1.0000   1.0000   1.0000   1.0000   1.0000
     1.0000   1.0000   1.0000   1.0000   1.0000   1.0000   1.0000   1.0000
     1.0000   1.0000   1.0000   1.0000   1.0000   1.0000   1.0000   1.0000
     1.0000   1.0000   1.0000   1.0000   1.0000   1.0000   1.0000   1.0000
     1.0000   1.0000   1.0000   1.0000   1.0000   1.0000   1.0000   1.0000
     1.0000   1.0000   1.0000   1.0000   1.0000   1.0000   1.0000   1.0000
     1.0000   1.0000   1.0000   1.0000   1.0000   1.0000   1.0000   1.0000
     1.0000   1.0000   1.0000   1.0000   1.0000   1.0000   1.0000   1.0000
     1.0000   1.0000   1.0000   1.0000   1.0000   1.0000   1.0000   1.0000
     1.0000   1.0000   1.0000   1.0000   1.0000   1.0000   1.0000   1.0000
     1.0000   1.0000   1.0000   1.0000   1.0000   1.0000   1.0000   1.0000
     1.0000   1.0000   1.0000   1.0000   1.0000   1.0000   1.0000   1.0000
     1.0000   1.0000   1.0000   1.0000   1.0000   1.0000   1.0000   1.0000
     1.0000   1.0000   1.0000   1.0000   1.0000   1.0000   1.0000   1.0000
     1.0000   1.0000   1.0000   1.0000   1.0000   1.0000   1.0000   1.0000
     1.0000   1.0000   1.0000   1.0000   1.0000   1.0000   1.0000   1.0000
     1.0000   1.0000   1.0000   1.0000   1.0000   1.0000   1.0000   1.0000
     1.0000   1.0000   1.0000   1.0000   1.0000   1.0000   1.0000   1.0000
     1.0000   1.0000   1.0000   1.0000   1.0000   1.0000   1.0000   1.0000
     1.0000   1.0000   1.0000   1.0000   1.0000   1.0000   1.0000   1.0000
     1.0000   1.0000   1.0000   1.0000   1.0000   1.0000   1.0000   1.0000
     1.0000   1.0000   1.0000   1.0000   1.0000   1.0000   1.0000   1.0000
     1.0000   1.0000   1.0000   1.0000   1.0000   1.0000   1.0000   1.0000
     1.0000   1.0000   1.0000   1.0000   1.0000   1.0000   1.0000   1.0000
     1.0000   1.0000   1.0000   1.0000   1.0000   1.0000   1.0000   1.0000
     1.0000   1.0000   1.0000   1.0000   1.0000   1.0000   1.0000   1.0000
     1.0000   1.0000   1.0000   1.0000   1.0000   1.0000   1.0000   1.0000
     1.0000   1.0000   1.0000   1.0000   1.0000   1.0000   1.0000   1.0000
     1.0000   1.0000   1.0000   1.0000   1.0000   1.0000   1.0000   1.0000
     1.0000   1.0000   1.0000   1.0000   1.0000   1.0000   1.0000   1.0000
     1.0000   1.0000   1.0000   1.0000   1.0000   1.0000   1.0000   1.0000
     1.0000   1.0000   1.0000   1.0000   1.0000   1.0000   1.0000   1.0000
     1.0000   1.0000   1.0000   1.0000   1.0000   1.0000   1.0000   1.0000
     1.0000   1.0000   1.0000   1.0000   1.0000   1.0000   1.0000   1.0000
     1.0000   1.0000   1.0000   1.0000   1.0000   1.0000   1.0000   1.0000
     1.0000   1.0000   1.0000   1.0000   1.0000   1.0000   1.0000   1.0000
     1.0000   1.0000   1.0000   1.0000   1.0000   1.0000   1.0000   1.0000
     1.0000   1.0000   1.0000   1.0000   1.0000   1.0000   1.0000   1.0000
     1.0000   1.0000   1.0000   1.0000   1.0000   1.0000   1.0000   1.0000
     1.0000   1.0000   1.0000   1.0000   1.0000   1.0000   1.0000   1.0000
     0.0000   0.0000   0.0000   0.0000   0.0000   0.0000   0.0000   0.0000
     0.0000   0.0000   0.0000   0.0000   0.0000   0.0000   0.0000   0.0000
     0.0000   0.0000   0.0000   0.0000   0.0000   0.0000   0.0000   0.0000
     0.0000   0.0000   0.0000   0.0000   0.0000   0.0000   0.0000   0.0000
     0.0000   0.0000   0.0000   0.0000   0.0000   0.0000   0.0000   0.0000
     0.0000   0.0000   0.0000   0.0000   0.0000   0.0000   0.0000   0.0000
     0.0000   0.0000   0.0000   0.0000   0.0000   0.0000   0.0000   0.0000
     0.0000   0.0000   0.0000   0.0000   0.0000   0.0000   0.0000   0.0000
     0.0000   0.0000   0.0000   0.0000   0.0000   0.0000   0.0000   0.0000
     0.0000   0.0000   0.0000   0.0000   0.0000   0.0000   0.0000   0.0000
     0.0000   0.0000   0.0000   0.0000   0.0000   0.0000   0.0000   0.0000
     0.0000   0.0000   0.0000   0.0000   0.0000   0.0000   0.0000   0.0000
     0.0000   0.0000   0.0000   0.0000   0.0000   0.0000   0.0000   0.0000
     0.0000   0.0000   0.0000   0.0000   0.0000   0.0000   0.0000   0.0000
     0.0000   0.0000   0.0000   0.0000   0.0000   0.0000   0.0000   0.0000
     0.0000   0.0000   0.0000   0.0000   0.0000   0.0000   0.0000   0.0000
     0.0000   0.0000   0.0000   0.0000   0.0000   0.0000   0.0000   0.0000
     0.0000   0.0000   0.0000   0.0000   0.0000   0.0000   0.0000   0.0000
     0.0000   0.0000   0.0000   0.0000

          k = 0.7500 0.2500 0.2500 ( 73932 PWs)   bands (ev):

   -18.1281 -18.1281 -18.0397 -18.0397 -17.9993 -17.9993 -17.9954 -17.9954
   -17.9651 -17.9651 -17.9608 -17.9608 -17.8047 -17.8047 -17.7796 -17.7796
   -15.3216 -15.3216 -15.3009 -15.3008 -15.2532 -15.2525 -15.2495 -15.2489
   -15.2402 -15.2401 -15.2353 -15.2352 -15.2228 -15.2228 -15.2149 -15.2149
   -15.1849 -15.1848 -15.1675 -15.1675 -15.0949 -15.0948 -15.0876 -15.0876
   -15.0734 -15.0733 -15.0688 -15.0687 -15.0092 -15.0092 -15.0005 -15.0005
   -12.7916 -12.7897 -12.7730 -12.7701 -12.7692 -12.7679 -12.7349 -12.7318
   -12.7270 -12.7265 -12.7236 -12.7222 -12.7148 -12.7134 -12.6962 -12.6950
   -12.6831 -12.6826 -12.6576 -12.6575 -12.6571 -12.6563 -12.6485 -12.6468
   -12.6445 -12.6434 -12.6337 -12.6336 -12.5936 -12.5932 -12.5901 -12.5899
   -12.5702 -12.5693 -12.5619 -12.5612 -12.5405 -12.5388 -12.5067 -12.5062
   -12.4985 -12.4983 -12.4915 -12.4911 -12.4902 -12.4895 -12.4173 -12.4172
   -11.4032 -11.4019 -11.3461 -11.3449 -11.2759 -11.2747 -11.2257 -11.2249
   -11.2142 -11.2122 -11.1700 -11.1692 -11.0969 -11.0957 -11.0758 -11.0736
   -11.0471 -11.0446 -11.0310 -11.0289 -11.0047 -11.0026 -10.9707 -10.9696
   -10.9514 -10.9480 -10.9193 -10.9169 -10.8903 -10.8883 -10.8602 -10.8566
   -10.8225 -10.8205 -10.7898 -10.7892 -10.7632 -10.7609 -10.6883 -10.6876
   -10.6426 -10.6422 -10.6197 -10.6186 -10.5911 -10.5906 -10.5431 -10.5427
    -6.0981  -6.0979  -6.0136  -6.0132  -5.9766  -5.9764  -5.9724  -5.9721
    -5.9425  -5.9397  -5.9372  -5.9342  -5.7959  -5.7958  -5.7737  -5.7733
    -5.1931  -5.1927  -4.9066  -4.9055  -4.8820  -4.8811  -4.8355  -4.8345
    -4.5802  -4.5771  -4.5346  -4.5312  -4.5145  -4.5116  -4.4981  -4.4949
    -4.4757  -4.4742  -4.4179  -4.4162  -4.4011  -4.3969  -4.3866  -4.3828
    -4.3775  -4.3747  -4.3682  -4.3645  -4.3594  -4.3578  -4.3528  -4.3490
    -4.3430  -4.3402  -4.3227  -4.3183  -4.3162  -4.3131  -4.2224  -4.2178
    -4.2072  -4.1974  -4.1876  -4.1864  -4.1845  -4.1780  -4.1692  -4.1649
    -0.8987  -0.8121  -0.7015  -0.6623  -0.6051  -0.5921  -0.5546  -0.5330
    -0.5065  -0.5015  -0.4799  -0.4500  -0.4132  -0.4086  -0.3879  -0.3653
    -0.3581  -0.3339  -0.3223  -0.3142  -0.1931  -0.1708  -0.1492  -0.1254
     0.1726   0.2348   0.2471   0.2779   0.2828   0.3165   0.3392   0.3462
     0.3503   0.3715   0.3890   0.3996   0.4115   0.4298   0.4561   0.4631
     0.4841   0.4889   0.5054   0.5152   0.5512   0.5587   0.6105   0.6256
     0.6664   0.6809   0.7046   0.7173   0.7387   0.7482   0.7599   0.7662
     0.7837   0.7988   0.8203   0.8294   0.8339   0.8483   0.8629   0.8744
     0.8778   0.8982   0.9040   0.9192   0.9340   0.9475   0.9532   0.9636
     0.9797   0.9896   1.0026   1.0159   1.0229   1.0409   1.0546   1.0623
     1.0769   1.0805   1.0945   1.1114   1.1197   1.1300   1.1428   1.1534
     1.1651   1.1747   1.1813   1.1961   1.2064   1.2198   1.2290   1.2443
     1.2627   1.2705   1.2778   1.2891   1.2983   1.3174   1.3256   1.3336
     1.3568   1.3642   1.3693   1.3840   1.3919   1.4054   1.4232   1.4314
     1.4392   1.4679   1.4738   1.4800   1.4909   1.5063   1.5191   1.5410
     1.5492   1.5740   1.5896   1.5941   1.6156   1.6188   1.6373   1.6469
     1.6677   1.6839   1.7043   1.7298   1.7394   1.7574   1.8150   1.8625
     1.9098   1.9456   1.9748   2.0272   2.0650   2.1001   2.2236   2.2420
     4.2870   4.3743   4.7281   4.7733   4.8348   4.8612   4.9265   4.9947
     5.3113   5.3262   5.3857   5.4401   5.4723   5.5396   5.6612   5.7459
     5.7946   5.8816   5.9914   6.0068   6.0360   6.1138   6.1673   6.1992
     6.4337   6.4767   6.7939   6.8483   6.9451   6.9999   7.0352   7.0509
     7.1217   7.1432   7.1840   7.2485   7.2673   7.3068   7.3846   7.4280
     7.5138   7.5305   7.6005   7.6257   7.6768   7.7085   7.7563   7.7818
     7.8046   7.8540   7.8760   7.8871   7.9198   7.9466   7.9734   8.0169
     8.0614   8.0714   8.0903   8.1186   8.1266   8.1426   8.1908   8.2149
     8.2576   8.2824   8.3005   8.3108   8.3353   8.3597   8.3669   8.3981
     8.4168   8.4359   8.4440   8.4699   8.5009   8.5214   8.5362   8.5496
     8.5824   8.5866   8.6170   8.6265   8.6455   8.6667   8.6773   8.6980
     8.7154   8.7374   8.7552   8.7756   8.7981   8.7997   8.8203   8.8323
     8.8478   8.8652   8.8863   8.9043   8.9360   8.9585   8.9760   8.9897
     9.0042   9.0225   9.0609   9.0762   9.1097   9.1244   9.1377   9.1599
     9.1720   9.1903   9.2161   9.2288   9.2489   9.2636   9.2770   9.3039
     9.3115   9.3286   9.3524   9.3719   9.4147   9.4264   9.4733   9.4937
     9.5075   9.5102   9.5340   9.5448   9.5554   9.5673   9.5864   9.6168
     9.6437   9.6564   9.6762   9.6865   9.7316   9.7427   9.7565   9.7663
     9.9308   9.9528   9.9600   9.9769

     occupation numbers 
     1.0000   1.0000   1.0000   1.0000   1.0000   1.0000   1.0000   1.0000
     1.0000   1.0000   1.0000   1.0000   1.0000   1.0000   1.0000   1.0000
     1.0000   1.0000   1.0000   1.0000   1.0000   1.0000   1.0000   1.0000
     1.0000   1.0000   1.0000   1.0000   1.0000   1.0000   1.0000   1.0000
     1.0000   1.0000   1.0000   1.0000   1.0000   1.0000   1.0000   1.0000
     1.0000   1.0000   1.0000   1.0000   1.0000   1.0000   1.0000   1.0000
     1.0000   1.0000   1.0000   1.0000   1.0000   1.0000   1.0000   1.0000
     1.0000   1.0000   1.0000   1.0000   1.0000   1.0000   1.0000   1.0000
     1.0000   1.0000   1.0000   1.0000   1.0000   1.0000   1.0000   1.0000
     1.0000   1.0000   1.0000   1.0000   1.0000   1.0000   1.0000   1.0000
     1.0000   1.0000   1.0000   1.0000   1.0000   1.0000   1.0000   1.0000
     1.0000   1.0000   1.0000   1.0000   1.0000   1.0000   1.0000   1.0000
     1.0000   1.0000   1.0000   1.0000   1.0000   1.0000   1.0000   1.0000
     1.0000   1.0000   1.0000   1.0000   1.0000   1.0000   1.0000   1.0000
     1.0000   1.0000   1.0000   1.0000   1.0000   1.0000   1.0000   1.0000
     1.0000   1.0000   1.0000   1.0000   1.0000   1.0000   1.0000   1.0000
     1.0000   1.0000   1.0000   1.0000   1.0000   1.0000   1.0000   1.0000
     1.0000   1.0000   1.0000   1.0000   1.0000   1.0000   1.0000   1.0000
     1.0000   1.0000   1.0000   1.0000   1.0000   1.0000   1.0000   1.0000
     1.0000   1.0000   1.0000   1.0000   1.0000   1.0000   1.0000   1.0000
     1.0000   1.0000   1.0000   1.0000   1.0000   1.0000   1.0000   1.0000
     1.0000   1.0000   1.0000   1.0000   1.0000   1.0000   1.0000   1.0000
     1.0000   1.0000   1.0000   1.0000   1.0000   1.0000   1.0000   1.0000
     1.0000   1.0000   1.0000   1.0000   1.0000   1.0000   1.0000   1.0000
     1.0000   1.0000   1.0000   1.0000   1.0000   1.0000   1.0000   1.0000
     1.0000   1.0000   1.0000   1.0000   1.0000   1.0000   1.0000   1.0000
     1.0000   1.0000   1.0000   1.0000   1.0000   1.0000   1.0000   1.0000
     1.0000   1.0000   1.0000   1.0000   1.0000   1.0000   1.0000   1.0000
     1.0000   1.0000   1.0000   1.0000   1.0000   1.0000   1.0000   1.0000
     1.0000   1.0000   1.0000   1.0000   1.0000   1.0000   1.0000   1.0000
     1.0000   1.0000   1.0000   1.0000   1.0000   1.0000   1.0000   1.0000
     1.0000   1.0000   1.0000   1.0000   1.0000   1.0000   1.0000   1.0000
     1.0000   1.0000   1.0000   1.0000   1.0000   1.0000   1.0000   1.0000
     1.0000   1.0000   1.0000   1.0000   1.0000   1.0000   1.0000   1.0000
     1.0000   1.0000   1.0000   1.0000   1.0000   1.0000   1.0000   1.0000
     1.0000   1.0000   1.0000   1.0000   1.0000   1.0000   1.0000   1.0000
     1.0000   1.0000   1.0000   1.0000   1.0000   1.0000   1.0000   1.0000
     1.0000   1.0000   1.0000   1.0000   1.0000   1.0000   1.0000   1.0000
     1.0000   1.0000   1.0000   1.0000   1.0000   1.0000   1.0000   1.0000
     1.0000   1.0000   1.0000   1.0000   1.0000   1.0000   1.0000   1.0000
     1.0000   1.0000   1.0000   1.0000   1.0000   1.0000   1.0000   1.0000
     1.0000   1.0000   1.0000   1.0000   1.0000   1.0000   1.0000   1.0000
     1.0000   1.0000   1.0000   1.0000   1.0000   1.0000   1.0000   1.0000
     1.0000   1.0000   1.0000   1.0000   1.0000   1.0000   1.0000   1.0000
     0.0000   0.0000   0.0000   0.0000   0.0000   0.0000   0.0000   0.0000
     0.0000   0.0000   0.0000   0.0000   0.0000   0.0000   0.0000   0.0000
     0.0000   0.0000   0.0000   0.0000   0.0000   0.0000   0.0000   0.0000
     0.0000   0.0000   0.0000   0.0000   0.0000   0.0000   0.0000   0.0000
     0.0000   0.0000   0.0000   0.0000   0.0000   0.0000   0.0000   0.0000
     0.0000   0.0000   0.0000   0.0000   0.0000   0.0000   0.0000   0.0000
     0.0000   0.0000   0.0000   0.0000   0.0000   0.0000   0.0000   0.0000
     0.0000   0.0000   0.0000   0.0000   0.0000   0.0000   0.0000   0.0000
     0.0000   0.0000   0.0000   0.0000   0.0000   0.0000   0.0000   0.0000
     0.0000   0.0000   0.0000   0.0000   0.0000   0.0000   0.0000   0.0000
     0.0000   0.0000   0.0000   0.0000   0.0000   0.0000   0.0000   0.0000
     0.0000   0.0000   0.0000   0.0000   0.0000   0.0000   0.0000   0.0000
     0.0000   0.0000   0.0000   0.0000   0.0000   0.0000   0.0000   0.0000
     0.0000   0.0000   0.0000   0.0000   0.0000   0.0000   0.0000   0.0000
     0.0000   0.0000   0.0000   0.0000   0.0000   0.0000   0.0000   0.0000
     0.0000   0.0000   0.0000   0.0000   0.0000   0.0000   0.0000   0.0000
     0.0000   0.0000   0.0000   0.0000   0.0000   0.0000   0.0000   0.0000
     0.0000   0.0000   0.0000   0.0000   0.0000   0.0000   0.0000   0.0000
     0.0000   0.0000   0.0000   0.0000

          k = 0.7500 0.2500 0.5000 ( 73882 PWs)   bands (ev):

   -18.1281 -18.1281 -18.0397 -18.0397 -17.9993 -17.9993 -17.9954 -17.9954
   -17.9651 -17.9651 -17.9608 -17.9608 -17.8047 -17.8047 -17.7796 -17.7796
   -15.3216 -15.3216 -15.3009 -15.3008 -15.2516 -15.2515 -15.2502 -15.2502
   -15.2402 -15.2402 -15.2356 -15.2355 -15.2228 -15.2228 -15.2148 -15.2148
   -15.1849 -15.1848 -15.1675 -15.1675 -15.0949 -15.0948 -15.0876 -15.0876
   -15.0733 -15.0732 -15.0688 -15.0687 -15.0092 -15.0092 -15.0005 -15.0005
   -12.7908 -12.7889 -12.7691 -12.7684 -12.7587 -12.7583 -12.7441 -12.7439
   -12.7269 -12.7264 -12.7258 -12.7243 -12.7150 -12.7134 -12.6953 -12.6945
   -12.6827 -12.6822 -12.6577 -12.6573 -12.6570 -12.6565 -12.6488 -12.6475
   -12.6452 -12.6446 -12.6337 -12.6336 -12.5939 -12.5935 -12.5900 -12.5899
   -12.5700 -12.5691 -12.5606 -12.5599 -12.5407 -12.5392 -12.5078 -12.5073
   -12.4984 -12.4982 -12.4924 -12.4919 -12.4906 -12.4902 -12.4173 -12.4172
   -11.3904 -11.3898 -11.3672 -11.3669 -11.2706 -11.2693 -11.2323 -11.2306
   -11.2104 -11.2084 -11.1633 -11.1625 -11.1074 -11.1060 -11.0680 -11.0668
   -11.0485 -11.0445 -11.0284 -11.0261 -11.0012 -10.9992 -10.9696 -10.9684
   -10.9539 -10.9508 -10.9250 -10.9223 -10.8843 -10.8830 -10.8597 -10.8562
   -10.8152 -10.8134 -10.7900 -10.7896 -10.7612 -10.7589 -10.6845 -10.6843
   -10.6458 -10.6451 -10.6208 -10.6202 -10.5972 -10.5959 -10.5458 -10.5452
    -6.0980  -6.0979  -6.0135  -6.0131  -5.9765  -5.9763  -5.9724  -5.9721
    -5.9427  -5.9398  -5.9373  -5.9343  -5.7960  -5.7958  -5.7735  -5.7734
    -5.0537  -5.0529  -5.0393  -5.0386  -4.7983  -4.7962  -4.7548  -4.7527
    -4.6907  -4.6896  -4.6265  -4.6248  -4.5022  -4.5011  -4.4852  -4.4830
    -4.4299  -4.4265  -4.4167  -4.4054  -4.3979  -4.3900  -4.3865  -4.3825
    -4.3789  -4.3769  -4.3727  -4.3673  -4.3588  -4.3571  -4.3517  -4.3501
    -4.3474  -4.3437  -4.3323  -4.3280  -4.3184  -4.3161  -4.3145  -4.3107
    -4.2142  -4.2138  -4.1880  -4.1870  -4.1846  -4.1838  -4.1750  -4.1746
    -0.7274  -0.6947  -0.6288  -0.6200  -0.5743  -0.5529  -0.5135  -0.5023
    -0.4782  -0.4721  -0.4322  -0.4179  -0.3737  -0.3601  -0.2911  -0.2531
    -0.2170  -0.2060  -0.0818  -0.0651  -0.0547  -0.0390  -0.0152  -0.0084
     0.0411   0.0577   0.1466   0.1623   0.2290   0.2349   0.2558   0.2854
     0.3018   0.3165   0.3229   0.3331   0.3460   0.3679   0.3820   0.4028
     0.4097   0.4241   0.4360   0.4887   0.4990   0.5256   0.5572   0.5728
     0.6524   0.6770   0.6884   0.7090   0.7206   0.7393   0.7469   0.7588
     0.7807   0.7887   0.7999   0.8149   0.8195   0.8305   0.8403   0.8501
     0.8785   0.8865   0.8943   0.9119   0.9173   0.9260   0.9432   0.9543
     0.9578   0.9807   0.9878   0.9996   1.0170   1.0298   1.0418   1.0442
     1.0635   1.0732   1.0799   1.1006   1.1018   1.1237   1.1331   1.1473
     1.1608   1.1734   1.1805   1.1898   1.2090   1.2267   1.2343   1.2442
     1.2474   1.2744   1.2855   1.2988   1.3048   1.3170   1.3306   1.3365
     1.3515   1.3650   1.3679   1.3866   1.4046   1.4112   1.4189   1.4417
     1.4454   1.4539   1.4674   1.4881   1.4965   1.5064   1.5168   1.5318
     1.5389   1.5589   1.5718   1.5875   1.6006   1.6104   1.6254   1.6448
     1.6633   1.6818   1.7002   1.7073   1.7376   1.7431   1.7713   1.7910
     1.8258   1.8356   1.9378   1.9570   2.0397   2.0708   2.1045   2.1364
     4.4510   4.5356   4.7850   4.8183   5.0194   5.0856   5.1049   5.1463
     5.2366   5.3037   5.3187   5.4100   5.6402   5.7400   5.8744   5.9420
     6.0233   6.0645   6.1403   6.2092   6.4014   6.4515   6.4746   6.5358
     6.5530   6.5808   6.6056   6.6504   6.6769   6.7133   6.7563   6.8405
     7.0409   7.0668   7.0933   7.1448   7.2342   7.2917   7.3048   7.3169
     7.3656   7.4112   7.4437   7.5181   7.5397   7.5822   7.5908   7.6503
     7.7890   7.8262   7.8865   7.9057   7.9252   7.9490   7.9636   7.9838
     8.0223   8.0342   8.0500   8.0693   8.0916   8.1170   8.1383   8.1616
     8.1913   8.2129   8.2467   8.2726   8.2874   8.3051   8.3752   8.3865
     8.4120   8.4248   8.4576   8.4715   8.4825   8.4982   8.5309   8.5409
     8.5577   8.5821   8.6195   8.6295   8.6416   8.6538   8.6659   8.6772
     8.6910   8.6996   8.7350   8.7543   8.8008   8.8141   8.8277   8.8476
     8.8612   8.8787   8.9136   8.9273   8.9510   8.9598   9.0094   9.0309
     9.0484   9.0606   9.0685   9.0828   9.1109   9.1181   9.1378   9.1513
     9.1618   9.1831   9.2060   9.2178   9.2536   9.2612   9.2888   9.3004
     9.3214   9.3306   9.3412   9.3489   9.3979   9.4090   9.4418   9.4525
     9.4688   9.4783   9.5024   9.5129   9.5373   9.5495   9.5631   9.5756
     9.5931   9.6062   9.6469   9.6637   9.6811   9.6928   9.6967   9.7047
     9.9379   9.9414  10.0129  10.0275

     occupation numbers 
     1.0000   1.0000   1.0000   1.0000   1.0000   1.0000   1.0000   1.0000
     1.0000   1.0000   1.0000   1.0000   1.0000   1.0000   1.0000   1.0000
     1.0000   1.0000   1.0000   1.0000   1.0000   1.0000   1.0000   1.0000
     1.0000   1.0000   1.0000   1.0000   1.0000   1.0000   1.0000   1.0000
     1.0000   1.0000   1.0000   1.0000   1.0000   1.0000   1.0000   1.0000
     1.0000   1.0000   1.0000   1.0000   1.0000   1.0000   1.0000   1.0000
     1.0000   1.0000   1.0000   1.0000   1.0000   1.0000   1.0000   1.0000
     1.0000   1.0000   1.0000   1.0000   1.0000   1.0000   1.0000   1.0000
     1.0000   1.0000   1.0000   1.0000   1.0000   1.0000   1.0000   1.0000
     1.0000   1.0000   1.0000   1.0000   1.0000   1.0000   1.0000   1.0000
     1.0000   1.0000   1.0000   1.0000   1.0000   1.0000   1.0000   1.0000
     1.0000   1.0000   1.0000   1.0000   1.0000   1.0000   1.0000   1.0000
     1.0000   1.0000   1.0000   1.0000   1.0000   1.0000   1.0000   1.0000
     1.0000   1.0000   1.0000   1.0000   1.0000   1.0000   1.0000   1.0000
     1.0000   1.0000   1.0000   1.0000   1.0000   1.0000   1.0000   1.0000
     1.0000   1.0000   1.0000   1.0000   1.0000   1.0000   1.0000   1.0000
     1.0000   1.0000   1.0000   1.0000   1.0000   1.0000   1.0000   1.0000
     1.0000   1.0000   1.0000   1.0000   1.0000   1.0000   1.0000   1.0000
     1.0000   1.0000   1.0000   1.0000   1.0000   1.0000   1.0000   1.0000
     1.0000   1.0000   1.0000   1.0000   1.0000   1.0000   1.0000   1.0000
     1.0000   1.0000   1.0000   1.0000   1.0000   1.0000   1.0000   1.0000
     1.0000   1.0000   1.0000   1.0000   1.0000   1.0000   1.0000   1.0000
     1.0000   1.0000   1.0000   1.0000   1.0000   1.0000   1.0000   1.0000
     1.0000   1.0000   1.0000   1.0000   1.0000   1.0000   1.0000   1.0000
     1.0000   1.0000   1.0000   1.0000   1.0000   1.0000   1.0000   1.0000
     1.0000   1.0000   1.0000   1.0000   1.0000   1.0000   1.0000   1.0000
     1.0000   1.0000   1.0000   1.0000   1.0000   1.0000   1.0000   1.0000
     1.0000   1.0000   1.0000   1.0000   1.0000   1.0000   1.0000   1.0000
     1.0000   1.0000   1.0000   1.0000   1.0000   1.0000   1.0000   1.0000
     1.0000   1.0000   1.0000   1.0000   1.0000   1.0000   1.0000   1.0000
     1.0000   1.0000   1.0000   1.0000   1.0000   1.0000   1.0000   1.0000
     1.0000   1.0000   1.0000   1.0000   1.0000   1.0000   1.0000   1.0000
     1.0000   1.0000   1.0000   1.0000   1.0000   1.0000   1.0000   1.0000
     1.0000   1.0000   1.0000   1.0000   1.0000   1.0000   1.0000   1.0000
     1.0000   1.0000   1.0000   1.0000   1.0000   1.0000   1.0000   1.0000
     1.0000   1.0000   1.0000   1.0000   1.0000   1.0000   1.0000   1.0000
     1.0000   1.0000   1.0000   1.0000   1.0000   1.0000   1.0000   1.0000
     1.0000   1.0000   1.0000   1.0000   1.0000   1.0000   1.0000   1.0000
     1.0000   1.0000   1.0000   1.0000   1.0000   1.0000   1.0000   1.0000
     1.0000   1.0000   1.0000   1.0000   1.0000   1.0000   1.0000   1.0000
     1.0000   1.0000   1.0000   1.0000   1.0000   1.0000   1.0000   1.0000
     1.0000   1.0000   1.0000   1.0000   1.0000   1.0000   1.0000   1.0000
     1.0000   1.0000   1.0000   1.0000   1.0000   1.0000   1.0000   1.0000
     1.0000   1.0000   1.0000   1.0000   1.0000   1.0000   1.0000   1.0000
     0.0000   0.0000   0.0000   0.0000   0.0000   0.0000   0.0000   0.0000
     0.0000   0.0000   0.0000   0.0000   0.0000   0.0000   0.0000   0.0000
     0.0000   0.0000   0.0000   0.0000   0.0000   0.0000   0.0000   0.0000
     0.0000   0.0000   0.0000   0.0000   0.0000   0.0000   0.0000   0.0000
     0.0000   0.0000   0.0000   0.0000   0.0000   0.0000   0.0000   0.0000
     0.0000   0.0000   0.0000   0.0000   0.0000   0.0000   0.0000   0.0000
     0.0000   0.0000   0.0000   0.0000   0.0000   0.0000   0.0000   0.0000
     0.0000   0.0000   0.0000   0.0000   0.0000   0.0000   0.0000   0.0000
     0.0000   0.0000   0.0000   0.0000   0.0000   0.0000   0.0000   0.0000
     0.0000   0.0000   0.0000   0.0000   0.0000   0.0000   0.0000   0.0000
     0.0000   0.0000   0.0000   0.0000   0.0000   0.0000   0.0000   0.0000
     0.0000   0.0000   0.0000   0.0000   0.0000   0.0000   0.0000   0.0000
     0.0000   0.0000   0.0000   0.0000   0.0000   0.0000   0.0000   0.0000
     0.0000   0.0000   0.0000   0.0000   0.0000   0.0000   0.0000   0.0000
     0.0000   0.0000   0.0000   0.0000   0.0000   0.0000   0.0000   0.0000
     0.0000   0.0000   0.0000   0.0000   0.0000   0.0000   0.0000   0.0000
     0.0000   0.0000   0.0000   0.0000   0.0000   0.0000   0.0000   0.0000
     0.0000   0.0000   0.0000   0.0000   0.0000   0.0000   0.0000   0.0000
     0.0000   0.0000   0.0000   0.0000

          k = 0.7500 0.2500 0.7500 ( 73932 PWs)   bands (ev):

   -18.1281 -18.1281 -18.0397 -18.0397 -17.9993 -17.9993 -17.9954 -17.9954
   -17.9651 -17.9651 -17.9608 -17.9608 -17.8047 -17.8047 -17.7796 -17.7796
   -15.3216 -15.3216 -15.3009 -15.3009 -15.2532 -15.2525 -15.2495 -15.2489
   -15.2402 -15.2401 -15.2354 -15.2351 -15.2228 -15.2228 -15.2149 -15.2149
   -15.1849 -15.1848 -15.1675 -15.1675 -15.0949 -15.0948 -15.0876 -15.0876
   -15.0734 -15.0733 -15.0688 -15.0687 -15.0092 -15.0092 -15.0005 -15.0005
   -12.7916 -12.7897 -12.7728 -12.7702 -12.7691 -12.7681 -12.7354 -12.7314
   -12.7269 -12.7264 -12.7238 -12.7219 -12.7148 -12.7134 -12.6958 -12.6953
   -12.6832 -12.6825 -12.6578 -12.6571 -12.6568 -12.6566 -12.6486 -12.6469
   -12.6444 -12.6434 -12.6337 -12.6336 -12.5937 -12.5930 -12.5901 -12.5899
   -12.5702 -12.5693 -12.5619 -12.5611 -12.5403 -12.5390 -12.5068 -12.5061
   -12.4985 -12.4983 -12.4915 -12.4912 -12.4901 -12.4895 -12.4173 -12.4172
   -11.4015 -11.4004 -11.3520 -11.3507 -11.2714 -11.2704 -11.2323 -11.2303
   -11.2054 -11.2035 -11.1641 -11.1636 -11.1084 -11.1074 -11.0742 -11.0727
   -11.0495 -11.0458 -11.0256 -11.0231 -11.0051 -11.0024 -10.9746 -10.9739
   -10.9560 -10.9527 -10.9166 -10.9140 -10.8869 -10.8847 -10.8598 -10.8562
   -10.8222 -10.8206 -10.7920 -10.7910 -10.7614 -10.7589 -10.6810 -10.6804
   -10.6428 -10.6419 -10.6337 -10.6328 -10.5851 -10.5843 -10.5428 -10.5419
    -6.0981  -6.0979  -6.0136  -6.0132  -5.9769  -5.9762  -5.9725  -5.9722
    -5.9425  -5.9396  -5.9372  -5.9342  -5.7960  -5.7958  -5.7737  -5.7733
    -5.1977  -5.1967  -4.9072  -4.9060  -4.8767  -4.8756  -4.8255  -4.8242
    -4.5817  -4.5785  -4.5582  -4.5555  -4.5055  -4.5031  -4.4963  -4.4922
    -4.4765  -4.4743  -4.4171  -4.4144  -4.3999  -4.3963  -4.3857  -4.3838
    -4.3767  -4.3756  -4.3677  -4.3624  -4.3607  -4.3561  -4.3517  -4.3503
    -4.3423  -4.3394  -4.3212  -4.3177  -4.3172  -4.3134  -4.2233  -4.2211
    -4.2085  -4.2044  -4.1878  -4.1859  -4.1796  -4.1748  -4.1683  -4.1642
    -0.8255  -0.7921  -0.6992  -0.6743  -0.6212  -0.6104  -0.5749  -0.5419
    -0.5213  -0.5040  -0.4772  -0.4622  -0.4344  -0.4135  -0.3915  -0.3825
    -0.3698  -0.3500  -0.2985  -0.2756  -0.2035  -0.1854  -0.1629  -0.1196
     0.2103   0.2237   0.2556   0.2787   0.2871   0.3134   0.3333   0.3439
     0.3606   0.3848   0.3974   0.4032   0.4132   0.4268   0.4482   0.4575
     0.4750   0.4931   0.5043   0.5242   0.5386   0.5495   0.5791   0.6242
     0.6737   0.6861   0.7023   0.7242   0.7355   0.7466   0.7719   0.7841
     0.7948   0.8066   0.8204   0.8299   0.8351   0.8570   0.8652   0.8689
     0.8866   0.9078   0.9140   0.9234   0.9390   0.9439   0.9534   0.9623
     0.9759   0.9851   0.9989   1.0112   1.0224   1.0283   1.0430   1.0596
     1.0731   1.0828   1.0939   1.1045   1.1158   1.1219   1.1433   1.1507
     1.1690   1.1801   1.1898   1.1967   1.2052   1.2255   1.2358   1.2448
     1.2656   1.2769   1.2831   1.2923   1.3008   1.3191   1.3254   1.3327
     1.3477   1.3686   1.3784   1.3899   1.4016   1.4138   1.4229   1.4300
     1.4460   1.4558   1.4702   1.4785   1.4899   1.5015   1.5194   1.5307
     1.5447   1.5668   1.5776   1.5855   1.6028   1.6156   1.6369   1.6530
     1.6761   1.6939   1.7069   1.7230   1.7574   1.7862   1.8392   1.8619
     1.9166   1.9484   1.9783   2.0007   2.0415   2.0643   2.2211   2.2331
     4.2789   4.3840   4.7053   4.7798   4.8461   4.8698   4.9562   4.9922
     5.3112   5.3418   5.4065   5.4188   5.4758   5.5448   5.6402   5.7351
     5.7926   5.8879   5.9693   6.0145   6.0573   6.1010   6.1339   6.2020
     6.4280   6.5001   6.8130   6.8553   6.8953   6.9904   7.0277   7.0652
     7.1075   7.1678   7.2050   7.2382   7.2834   7.3270   7.3812   7.4276
     7.4688   7.4979   7.5914   7.6278   7.6765   7.6994   7.7370   7.7831
     7.8193   7.8471   7.8727   7.9205   7.9348   7.9592   7.9821   7.9967
     8.0367   8.0593   8.0718   8.0898   8.1245   8.1789   8.2020   8.2238
     8.2400   8.2802   8.2826   8.3004   8.3421   8.3574   8.3893   8.3962
     8.4369   8.4504   8.4805   8.4950   8.5083   8.5197   8.5254   8.5478
     8.5885   8.5944   8.6025   8.6277   8.6549   8.6793   8.6943   8.7241
     8.7456   8.7726   8.7901   8.7961   8.8046   8.8241   8.8448   8.8607
     8.8823   8.8963   8.9170   8.9243   8.9463   8.9616   8.9719   8.9801
     9.0175   9.0398   9.0447   9.0657   9.0744   9.0879   9.0957   9.1274
     9.1496   9.1609   9.2163   9.2281   9.2594   9.2773   9.3087   9.3277
     9.3449   9.3621   9.3762   9.3868   9.3936   9.4004   9.4382   9.4491
     9.4713   9.4805   9.5191   9.5273   9.5377   9.5536   9.5677   9.5765
     9.5912   9.6025   9.6324   9.6550   9.6713   9.6812   9.7118   9.7245
     9.8813   9.8960   9.9759  10.0061

     occupation numbers 
     1.0000   1.0000   1.0000   1.0000   1.0000   1.0000   1.0000   1.0000
     1.0000   1.0000   1.0000   1.0000   1.0000   1.0000   1.0000   1.0000
     1.0000   1.0000   1.0000   1.0000   1.0000   1.0000   1.0000   1.0000
     1.0000   1.0000   1.0000   1.0000   1.0000   1.0000   1.0000   1.0000
     1.0000   1.0000   1.0000   1.0000   1.0000   1.0000   1.0000   1.0000
     1.0000   1.0000   1.0000   1.0000   1.0000   1.0000   1.0000   1.0000
     1.0000   1.0000   1.0000   1.0000   1.0000   1.0000   1.0000   1.0000
     1.0000   1.0000   1.0000   1.0000   1.0000   1.0000   1.0000   1.0000
     1.0000   1.0000   1.0000   1.0000   1.0000   1.0000   1.0000   1.0000
     1.0000   1.0000   1.0000   1.0000   1.0000   1.0000   1.0000   1.0000
     1.0000   1.0000   1.0000   1.0000   1.0000   1.0000   1.0000   1.0000
     1.0000   1.0000   1.0000   1.0000   1.0000   1.0000   1.0000   1.0000
     1.0000   1.0000   1.0000   1.0000   1.0000   1.0000   1.0000   1.0000
     1.0000   1.0000   1.0000   1.0000   1.0000   1.0000   1.0000   1.0000
     1.0000   1.0000   1.0000   1.0000   1.0000   1.0000   1.0000   1.0000
     1.0000   1.0000   1.0000   1.0000   1.0000   1.0000   1.0000   1.0000
     1.0000   1.0000   1.0000   1.0000   1.0000   1.0000   1.0000   1.0000
     1.0000   1.0000   1.0000   1.0000   1.0000   1.0000   1.0000   1.0000
     1.0000   1.0000   1.0000   1.0000   1.0000   1.0000   1.0000   1.0000
     1.0000   1.0000   1.0000   1.0000   1.0000   1.0000   1.0000   1.0000
     1.0000   1.0000   1.0000   1.0000   1.0000   1.0000   1.0000   1.0000
     1.0000   1.0000   1.0000   1.0000   1.0000   1.0000   1.0000   1.0000
     1.0000   1.0000   1.0000   1.0000   1.0000   1.0000   1.0000   1.0000
     1.0000   1.0000   1.0000   1.0000   1.0000   1.0000   1.0000   1.0000
     1.0000   1.0000   1.0000   1.0000   1.0000   1.0000   1.0000   1.0000
     1.0000   1.0000   1.0000   1.0000   1.0000   1.0000   1.0000   1.0000
     1.0000   1.0000   1.0000   1.0000   1.0000   1.0000   1.0000   1.0000
     1.0000   1.0000   1.0000   1.0000   1.0000   1.0000   1.0000   1.0000
     1.0000   1.0000   1.0000   1.0000   1.0000   1.0000   1.0000   1.0000
     1.0000   1.0000   1.0000   1.0000   1.0000   1.0000   1.0000   1.0000
     1.0000   1.0000   1.0000   1.0000   1.0000   1.0000   1.0000   1.0000
     1.0000   1.0000   1.0000   1.0000   1.0000   1.0000   1.0000   1.0000
     1.0000   1.0000   1.0000   1.0000   1.0000   1.0000   1.0000   1.0000
     1.0000   1.0000   1.0000   1.0000   1.0000   1.0000   1.0000   1.0000
     1.0000   1.0000   1.0000   1.0000   1.0000   1.0000   1.0000   1.0000
     1.0000   1.0000   1.0000   1.0000   1.0000   1.0000   1.0000   1.0000
     1.0000   1.0000   1.0000   1.0000   1.0000   1.0000   1.0000   1.0000
     1.0000   1.0000   1.0000   1.0000   1.0000   1.0000   1.0000   1.0000
     1.0000   1.0000   1.0000   1.0000   1.0000   1.0000   1.0000   1.0000
     1.0000   1.0000   1.0000   1.0000   1.0000   1.0000   1.0000   1.0000
     1.0000   1.0000   1.0000   1.0000   1.0000   1.0000   1.0000   1.0000
     1.0000   1.0000   1.0000   1.0000   1.0000   1.0000   1.0000   1.0000
     1.0000   1.0000   1.0000   1.0000   1.0000   1.0000   1.0000   1.0000
     1.0000   1.0000   1.0000   1.0000   1.0000   1.0000   1.0000   1.0000
     0.0000   0.0000   0.0000   0.0000   0.0000   0.0000   0.0000   0.0000
     0.0000   0.0000   0.0000   0.0000   0.0000   0.0000   0.0000   0.0000
     0.0000   0.0000   0.0000   0.0000   0.0000   0.0000   0.0000   0.0000
     0.0000   0.0000   0.0000   0.0000   0.0000   0.0000   0.0000   0.0000
     0.0000   0.0000   0.0000   0.0000   0.0000   0.0000   0.0000   0.0000
     0.0000   0.0000   0.0000   0.0000   0.0000   0.0000   0.0000   0.0000
     0.0000   0.0000   0.0000   0.0000   0.0000   0.0000   0.0000   0.0000
     0.0000   0.0000   0.0000   0.0000   0.0000   0.0000   0.0000   0.0000
     0.0000   0.0000   0.0000   0.0000   0.0000   0.0000   0.0000   0.0000
     0.0000   0.0000   0.0000   0.0000   0.0000   0.0000   0.0000   0.0000
     0.0000   0.0000   0.0000   0.0000   0.0000   0.0000   0.0000   0.0000
     0.0000   0.0000   0.0000   0.0000   0.0000   0.0000   0.0000   0.0000
     0.0000   0.0000   0.0000   0.0000   0.0000   0.0000   0.0000   0.0000
     0.0000   0.0000   0.0000   0.0000   0.0000   0.0000   0.0000   0.0000
     0.0000   0.0000   0.0000   0.0000   0.0000   0.0000   0.0000   0.0000
     0.0000   0.0000   0.0000   0.0000   0.0000   0.0000   0.0000   0.0000
     0.0000   0.0000   0.0000   0.0000   0.0000   0.0000   0.0000   0.0000
     0.0000   0.0000   0.0000   0.0000   0.0000   0.0000   0.0000   0.0000
     0.0000   0.0000   0.0000   0.0000

          k = 0.7500 0.5000 0.0000 ( 73986 PWs)   bands (ev):

   -18.1281 -18.1281 -18.0397 -18.0397 -17.9993 -17.9993 -17.9954 -17.9954
   -17.9650 -17.9650 -17.9608 -17.9608 -17.8047 -17.8047 -17.7796 -17.7796
   -15.3216 -15.3216 -15.3009 -15.3009 -15.2537 -15.2537 -15.2487 -15.2487
   -15.2401 -15.2401 -15.2350 -15.2349 -15.2228 -15.2228 -15.2149 -15.2148
   -15.1849 -15.1848 -15.1675 -15.1675 -15.0949 -15.0949 -15.0876 -15.0876
   -15.0734 -15.0733 -15.0688 -15.0687 -15.0092 -15.0092 -15.0005 -15.0005
   -12.7925 -12.7907 -12.7774 -12.7773 -12.7699 -12.7698 -12.7300 -12.7292
   -12.7268 -12.7263 -12.7192 -12.7185 -12.7131 -12.7117 -12.6936 -12.6936
   -12.6811 -12.6805 -12.6582 -12.6575 -12.6570 -12.6566 -12.6521 -12.6513
   -12.6441 -12.6429 -12.6338 -12.6337 -12.5939 -12.5932 -12.5900 -12.5900
   -12.5716 -12.5714 -12.5631 -12.5623 -12.5399 -12.5386 -12.5063 -12.5060
   -12.4986 -12.4985 -12.4911 -12.4911 -12.4888 -12.4884 -12.4173 -12.4172
   -11.4059 -11.4059 -11.3341 -11.3335 -11.2694 -11.2686 -11.2392 -11.2386
   -11.2160 -11.2147 -11.1776 -11.1758 -11.1013 -11.1001 -11.0805 -11.0790
   -11.0519 -11.0488 -11.0321 -11.0305 -11.0017 -10.9982 -10.9618 -10.9608
   -10.9304 -10.9294 -10.9089 -10.9081 -10.8881 -10.8869 -10.8563 -10.8525
   -10.8411 -10.8405 -10.7902 -10.7893 -10.7721 -10.7702 -10.6815 -10.6813
   -10.6482 -10.6479 -10.6239 -10.6231 -10.5828 -10.5823 -10.5440 -10.5439
    -6.0981  -6.0979  -6.0137  -6.0133  -5.9764  -5.9759  -5.9728  -5.9724
    -5.9412  -5.9410  -5.9355  -5.9353  -5.7961  -5.7959  -5.7735  -5.7735
    -5.1837  -5.1832  -4.9920  -4.9909  -4.8592  -4.8582  -4.7354  -4.7339
    -4.6723  -4.6687  -4.5697  -4.5663  -4.5024  -4.5008  -4.4805  -4.4796
    -4.4278  -4.4233  -4.4076  -4.3977  -4.3930  -4.3883  -4.3840  -4.3796
    -4.3725  -4.3698  -4.3639  -4.3596  -4.3586  -4.3566  -4.3468  -4.3428
    -4.3304  -4.3272  -4.3190  -4.3178  -4.3149  -4.3123  -4.2534  -4.2492
    -4.2120  -4.2097  -4.1880  -4.1866  -4.1840  -4.1818  -4.1743  -4.1714
    -1.0213  -1.0000  -0.6931  -0.6857  -0.6345  -0.6186  -0.5945  -0.5684
    -0.5453  -0.5314  -0.5210  -0.4912  -0.4000  -0.3871  -0.3439  -0.3021
    -0.1658  -0.1401  -0.0843  -0.0766  -0.0506  -0.0340   0.0027   0.0164
     0.0607   0.0688   0.1488   0.1651   0.1886   0.2069   0.2305   0.2483
     0.2838   0.3012   0.3362   0.3670   0.3939   0.4114   0.4278   0.4526
     0.4679   0.4788   0.4998   0.5241   0.5414   0.5636   0.5921   0.6146
     0.6622   0.6857   0.7081   0.7162   0.7256   0.7446   0.7567   0.7739
     0.7919   0.7955   0.8178   0.8297   0.8420   0.8615   0.8659   0.8864
     0.8912   0.8990   0.9042   0.9243   0.9398   0.9538   0.9673   0.9788
     0.9852   0.9969   1.0031   1.0154   1.0267   1.0364   1.0496   1.0610
     1.0781   1.0874   1.0966   1.1036   1.1202   1.1360   1.1467   1.1547
     1.1657   1.1739   1.1849   1.2011   1.2148   1.2229   1.2300   1.2424
     1.2644   1.2717   1.2824   1.2864   1.3033   1.3075   1.3155   1.3367
     1.3498   1.3591   1.3667   1.3775   1.3904   1.4041   1.4162   1.4275
     1.4384   1.4571   1.4704   1.4805   1.4916   1.5140   1.5260   1.5351
     1.5531   1.5643   1.5797   1.5841   1.5988   1.6178   1.6401   1.6635
     1.6877   1.6964   1.7303   1.7343   1.7948   1.8006   1.8502   1.8714
     1.9169   1.9302   2.0020   2.0179   2.1432   2.1584   2.2395   2.2558
     4.2922   4.3666   4.5128   4.5593   4.7878   4.8027   4.9904   5.0094
     5.1891   5.1973   5.3397   5.4066   5.5843   5.7100   5.7250   5.7692
     5.9185   5.9543   6.1220   6.1612   6.2283   6.2433   6.2791   6.3586
     6.4795   6.5154   6.6209   6.6440   6.6914   6.7720   6.8270   6.8982
     7.0424   7.0653   7.1080   7.1346   7.2300   7.2693   7.3339   7.3939
     7.5297   7.6097   7.6586   7.6799   7.7229   7.7376   7.7991   7.8197
     7.8819   7.9218   7.9301   7.9472   7.9729   8.0047   8.0234   8.0570
     8.0701   8.0948   8.1054   8.1267   8.1471   8.1710   8.1969   8.2070
     8.2203   8.2265   8.2621   8.2728   8.3199   8.3465   8.3627   8.3898
     8.4055   8.4281   8.4644   8.4784   8.5033   8.5210   8.5321   8.5472
     8.6108   8.6267   8.6529   8.6635   8.6712   8.6856   8.6976   8.7045
     8.7350   8.7611   8.7682   8.7863   8.8022   8.8195   8.8364   8.8453
     8.8687   8.8859   8.9163   8.9276   8.9428   8.9572   8.9981   9.0072
     9.0333   9.0356   9.0666   9.0781   9.0885   9.1056   9.1256   9.1580
     9.1858   9.1951   9.2200   9.2477   9.2844   9.3002   9.3116   9.3199
     9.3322   9.3524   9.3577   9.3715   9.3824   9.3926   9.4037   9.4170
     9.4296   9.4502   9.4727   9.4794   9.4997   9.5043   9.5206   9.5339
     9.5538   9.5676   9.6189   9.6329   9.6683   9.6722   9.7185   9.7241
     9.8686   9.8791   9.8974   9.9233

     occupation numbers 
     1.0000   1.0000   1.0000   1.0000   1.0000   1.0000   1.0000   1.0000
     1.0000   1.0000   1.0000   1.0000   1.0000   1.0000   1.0000   1.0000
     1.0000   1.0000   1.0000   1.0000   1.0000   1.0000   1.0000   1.0000
     1.0000   1.0000   1.0000   1.0000   1.0000   1.0000   1.0000   1.0000
     1.0000   1.0000   1.0000   1.0000   1.0000   1.0000   1.0000   1.0000
     1.0000   1.0000   1.0000   1.0000   1.0000   1.0000   1.0000   1.0000
     1.0000   1.0000   1.0000   1.0000   1.0000   1.0000   1.0000   1.0000
     1.0000   1.0000   1.0000   1.0000   1.0000   1.0000   1.0000   1.0000
     1.0000   1.0000   1.0000   1.0000   1.0000   1.0000   1.0000   1.0000
     1.0000   1.0000   1.0000   1.0000   1.0000   1.0000   1.0000   1.0000
     1.0000   1.0000   1.0000   1.0000   1.0000   1.0000   1.0000   1.0000
     1.0000   1.0000   1.0000   1.0000   1.0000   1.0000   1.0000   1.0000
     1.0000   1.0000   1.0000   1.0000   1.0000   1.0000   1.0000   1.0000
     1.0000   1.0000   1.0000   1.0000   1.0000   1.0000   1.0000   1.0000
     1.0000   1.0000   1.0000   1.0000   1.0000   1.0000   1.0000   1.0000
     1.0000   1.0000   1.0000   1.0000   1.0000   1.0000   1.0000   1.0000
     1.0000   1.0000   1.0000   1.0000   1.0000   1.0000   1.0000   1.0000
     1.0000   1.0000   1.0000   1.0000   1.0000   1.0000   1.0000   1.0000
     1.0000   1.0000   1.0000   1.0000   1.0000   1.0000   1.0000   1.0000
     1.0000   1.0000   1.0000   1.0000   1.0000   1.0000   1.0000   1.0000
     1.0000   1.0000   1.0000   1.0000   1.0000   1.0000   1.0000   1.0000
     1.0000   1.0000   1.0000   1.0000   1.0000   1.0000   1.0000   1.0000
     1.0000   1.0000   1.0000   1.0000   1.0000   1.0000   1.0000   1.0000
     1.0000   1.0000   1.0000   1.0000   1.0000   1.0000   1.0000   1.0000
     1.0000   1.0000   1.0000   1.0000   1.0000   1.0000   1.0000   1.0000
     1.0000   1.0000   1.0000   1.0000   1.0000   1.0000   1.0000   1.0000
     1.0000   1.0000   1.0000   1.0000   1.0000   1.0000   1.0000   1.0000
     1.0000   1.0000   1.0000   1.0000   1.0000   1.0000   1.0000   1.0000
     1.0000   1.0000   1.0000   1.0000   1.0000   1.0000   1.0000   1.0000
     1.0000   1.0000   1.0000   1.0000   1.0000   1.0000   1.0000   1.0000
     1.0000   1.0000   1.0000   1.0000   1.0000   1.0000   1.0000   1.0000
     1.0000   1.0000   1.0000   1.0000   1.0000   1.0000   1.0000   1.0000
     1.0000   1.0000   1.0000   1.0000   1.0000   1.0000   1.0000   1.0000
     1.0000   1.0000   1.0000   1.0000   1.0000   1.0000   1.0000   1.0000
     1.0000   1.0000   1.0000   1.0000   1.0000   1.0000   1.0000   1.0000
     1.0000   1.0000   1.0000   1.0000   1.0000   1.0000   1.0000   1.0000
     1.0000   1.0000   1.0000   1.0000   1.0000   1.0000   1.0000   1.0000
     1.0000   1.0000   1.0000   1.0000   1.0000   1.0000   1.0000   1.0000
     1.0000   1.0000   1.0000   1.0000   1.0000   1.0000   1.0000   1.0000
     1.0000   1.0000   1.0000   1.0000   1.0000   1.0000   1.0000   1.0000
     1.0000   1.0000   1.0000   1.0000   1.0000   1.0000   1.0000   1.0000
     1.0000   1.0000   1.0000   1.0000   1.0000   1.0000   1.0000   1.0000
     1.0000   1.0000   1.0000   1.0000   1.0000   1.0000   1.0000   1.0000
     1.0000   1.0000   1.0000   1.0000   1.0000   1.0000   1.0000   1.0000
     0.0000   0.0000   0.0000   0.0000   0.0000   0.0000   0.0000   0.0000
     0.0000   0.0000   0.0000   0.0000   0.0000   0.0000   0.0000   0.0000
     0.0000   0.0000   0.0000   0.0000   0.0000   0.0000   0.0000   0.0000
     0.0000   0.0000   0.0000   0.0000   0.0000   0.0000   0.0000   0.0000
     0.0000   0.0000   0.0000   0.0000   0.0000   0.0000   0.0000   0.0000
     0.0000   0.0000   0.0000   0.0000   0.0000   0.0000   0.0000   0.0000
     0.0000   0.0000   0.0000   0.0000   0.0000   0.0000   0.0000   0.0000
     0.0000   0.0000   0.0000   0.0000   0.0000   0.0000   0.0000   0.0000
     0.0000   0.0000   0.0000   0.0000   0.0000   0.0000   0.0000   0.0000
     0.0000   0.0000   0.0000   0.0000   0.0000   0.0000   0.0000   0.0000
     0.0000   0.0000   0.0000   0.0000   0.0000   0.0000   0.0000   0.0000
     0.0000   0.0000   0.0000   0.0000   0.0000   0.0000   0.0000   0.0000
     0.0000   0.0000   0.0000   0.0000   0.0000   0.0000   0.0000   0.0000
     0.0000   0.0000   0.0000   0.0000   0.0000   0.0000   0.0000   0.0000
     0.0000   0.0000   0.0000   0.0000   0.0000   0.0000   0.0000   0.0000
     0.0000   0.0000   0.0000   0.0000   0.0000   0.0000   0.0000   0.0000
     0.0000   0.0000   0.0000   0.0000   0.0000   0.0000   0.0000   0.0000
     0.0000   0.0000   0.0000   0.0000   0.0000   0.0000   0.0000   0.0000
     0.0000   0.0000   0.0000   0.0000

          k = 0.7500 0.5000 0.2500 ( 73882 PWs)   bands (ev):

   -18.1281 -18.1281 -18.0397 -18.0397 -17.9993 -17.9993 -17.9954 -17.9954
   -17.9650 -17.9650 -17.9608 -17.9608 -17.8047 -17.8047 -17.7796 -17.7796
   -15.3216 -15.3216 -15.3009 -15.3008 -15.2532 -15.2525 -15.2495 -15.2489
   -15.2402 -15.2401 -15.2353 -15.2352 -15.2228 -15.2227 -15.2148 -15.2148
   -15.1849 -15.1848 -15.1675 -15.1675 -15.0949 -15.0948 -15.0876 -15.0876
   -15.0734 -15.0733 -15.0688 -15.0687 -15.0092 -15.0092 -15.0005 -15.0005
   -12.7915 -12.7897 -12.7729 -12.7699 -12.7689 -12.7678 -12.7349 -12.7316
   -12.7268 -12.7264 -12.7230 -12.7218 -12.7139 -12.7121 -12.6929 -12.6923
   -12.6810 -12.6803 -12.6581 -12.6576 -12.6571 -12.6566 -12.6523 -12.6514
   -12.6454 -12.6442 -12.6338 -12.6337 -12.5942 -12.5935 -12.5900 -12.5899
   -12.5712 -12.5710 -12.5620 -12.5612 -12.5405 -12.5389 -12.5072 -12.5068
   -12.4986 -12.4983 -12.4915 -12.4912 -12.4902 -12.4895 -12.4173 -12.4172
   -11.4022 -11.4009 -11.3453 -11.3440 -11.2708 -11.2702 -11.2351 -11.2342
   -11.2159 -11.2147 -11.1756 -11.1738 -11.1140 -11.1119 -11.0748 -11.0721
   -11.0524 -11.0480 -11.0251 -11.0223 -10.9969 -10.9938 -10.9606 -10.9601
   -10.9262 -10.9240 -10.9196 -10.9174 -10.8876 -10.8870 -10.8561 -10.8523
   -10.8333 -10.8326 -10.7924 -10.7913 -10.7674 -10.7658 -10.6809 -10.6803
   -10.6538 -10.6533 -10.6178 -10.6169 -10.5914 -10.5907 -10.5463 -10.5459
    -6.0981  -6.0979  -6.0136  -6.0131  -5.9762  -5.9759  -5.9728  -5.9724
    -5.9414  -5.9411  -5.9357  -5.9354  -5.7960  -5.7959  -5.7736  -5.7733
    -5.1243  -5.1238  -4.9439  -4.9427  -4.8282  -4.8278  -4.7660  -4.7651
    -4.6887  -4.6867  -4.5923  -4.5894  -4.5031  -4.5018  -4.4814  -4.4795
    -4.4601  -4.4510  -4.4207  -4.4110  -4.4067  -4.3952  -4.3863  -4.3840
    -4.3791  -4.3767  -4.3674  -4.3643  -4.3620  -4.3572  -4.3530  -4.3483
    -4.3393  -4.3382  -4.3271  -4.3246  -4.3167  -4.3153  -4.3044  -4.2987
    -4.2142  -4.2137  -4.1888  -4.1872  -4.1856  -4.1845  -4.1750  -4.1746
    -0.8710  -0.8084  -0.6310  -0.5826  -0.5559  -0.5270  -0.5183  -0.5068
    -0.4757  -0.4558  -0.4367  -0.4066  -0.3720  -0.3535  -0.2897  -0.2554
    -0.1605  -0.1358  -0.0818  -0.0735  -0.0414  -0.0209   0.0087   0.0199
     0.0412   0.0526   0.1234   0.1482   0.1867   0.2010   0.2089   0.2352
     0.2776   0.2951   0.3327   0.3497   0.3772   0.3899   0.4053   0.4222
     0.4394   0.4552   0.4726   0.4888   0.5105   0.5342   0.5563   0.5810
     0.6507   0.6772   0.6927   0.7016   0.7160   0.7410   0.7522   0.7618
     0.7801   0.7855   0.8040   0.8150   0.8184   0.8359   0.8454   0.8611
     0.8717   0.8799   0.8975   0.9117   0.9145   0.9277   0.9388   0.9519
     0.9621   0.9693   0.9924   1.0000   1.0093   1.0344   1.0390   1.0527
     1.0578   1.0760   1.0846   1.0970   1.1172   1.1213   1.1311   1.1424
     1.1635   1.1740   1.1823   1.1863   1.1967   1.2139   1.2276   1.2365
     1.2498   1.2654   1.2754   1.2898   1.3079   1.3134   1.3260   1.3355
     1.3508   1.3612   1.3734   1.3787   1.3967   1.4101   1.4199   1.4295
     1.4491   1.4628   1.4782   1.4822   1.4922   1.5105   1.5254   1.5268
     1.5385   1.5510   1.5586   1.5852   1.5975   1.6125   1.6320   1.6453
     1.6696   1.6821   1.7026   1.7146   1.7411   1.7622   1.7999   1.8156
     1.8462   1.8673   1.9492   1.9570   1.9955   2.0378   2.1111   2.1293
     4.5328   4.5667   4.7103   4.7929   4.9889   5.0767   5.1213   5.1836
     5.2290   5.2547   5.4130   5.4382   5.7215   5.7879   5.8571   5.8869
     5.9727   6.0195   6.1072   6.1798   6.2538   6.3012   6.3286   6.3937
     6.5052   6.5728   6.6182   6.6644   6.7132   6.7514   6.7958   6.8869
     7.0330   7.0978   7.1314   7.1632   7.2403   7.2730   7.3284   7.3437
     7.3979   7.4197   7.4725   7.4967   7.5449   7.6200   7.6414   7.7239
     7.8215   7.8380   7.8788   7.9123   7.9260   7.9763   7.9904   8.0022
     8.0378   8.0430   8.0624   8.0770   8.1044   8.1207   8.1325   8.1571
     8.1841   8.2003   8.2459   8.2644   8.2999   8.3161   8.3445   8.3652
     8.3919   8.4136   8.4371   8.4618   8.4955   8.5022   8.5280   8.5501
     8.5731   8.5875   8.5934   8.6032   8.6428   8.6523   8.6879   8.7073
     8.7179   8.7322   8.7609   8.7695   8.7941   8.8056   8.8140   8.8359
     8.8640   8.8766   8.9106   8.9324   8.9505   8.9655   9.0176   9.0285
     9.0326   9.0512   9.0842   9.0942   9.1130   9.1270   9.1640   9.1756
     9.1933   9.2062   9.2341   9.2544   9.2592   9.2767   9.2942   9.3010
     9.3093   9.3268   9.3565   9.3693   9.3908   9.4027   9.4390   9.4449
     9.4542   9.4662   9.4805   9.4961   9.5103   9.5271   9.5407   9.5494
     9.6084   9.6273   9.6492   9.6602   9.6767   9.6890   9.7418   9.7506
     9.9114   9.9247   9.9619   9.9823

     occupation numbers 
     1.0000   1.0000   1.0000   1.0000   1.0000   1.0000   1.0000   1.0000
     1.0000   1.0000   1.0000   1.0000   1.0000   1.0000   1.0000   1.0000
     1.0000   1.0000   1.0000   1.0000   1.0000   1.0000   1.0000   1.0000
     1.0000   1.0000   1.0000   1.0000   1.0000   1.0000   1.0000   1.0000
     1.0000   1.0000   1.0000   1.0000   1.0000   1.0000   1.0000   1.0000
     1.0000   1.0000   1.0000   1.0000   1.0000   1.0000   1.0000   1.0000
     1.0000   1.0000   1.0000   1.0000   1.0000   1.0000   1.0000   1.0000
     1.0000   1.0000   1.0000   1.0000   1.0000   1.0000   1.0000   1.0000
     1.0000   1.0000   1.0000   1.0000   1.0000   1.0000   1.0000   1.0000
     1.0000   1.0000   1.0000   1.0000   1.0000   1.0000   1.0000   1.0000
     1.0000   1.0000   1.0000   1.0000   1.0000   1.0000   1.0000   1.0000
     1.0000   1.0000   1.0000   1.0000   1.0000   1.0000   1.0000   1.0000
     1.0000   1.0000   1.0000   1.0000   1.0000   1.0000   1.0000   1.0000
     1.0000   1.0000   1.0000   1.0000   1.0000   1.0000   1.0000   1.0000
     1.0000   1.0000   1.0000   1.0000   1.0000   1.0000   1.0000   1.0000
     1.0000   1.0000   1.0000   1.0000   1.0000   1.0000   1.0000   1.0000
     1.0000   1.0000   1.0000   1.0000   1.0000   1.0000   1.0000   1.0000
     1.0000   1.0000   1.0000   1.0000   1.0000   1.0000   1.0000   1.0000
     1.0000   1.0000   1.0000   1.0000   1.0000   1.0000   1.0000   1.0000
     1.0000   1.0000   1.0000   1.0000   1.0000   1.0000   1.0000   1.0000
     1.0000   1.0000   1.0000   1.0000   1.0000   1.0000   1.0000   1.0000
     1.0000   1.0000   1.0000   1.0000   1.0000   1.0000   1.0000   1.0000
     1.0000   1.0000   1.0000   1.0000   1.0000   1.0000   1.0000   1.0000
     1.0000   1.0000   1.0000   1.0000   1.0000   1.0000   1.0000   1.0000
     1.0000   1.0000   1.0000   1.0000   1.0000   1.0000   1.0000   1.0000
     1.0000   1.0000   1.0000   1.0000   1.0000   1.0000   1.0000   1.0000
     1.0000   1.0000   1.0000   1.0000   1.0000   1.0000   1.0000   1.0000
     1.0000   1.0000   1.0000   1.0000   1.0000   1.0000   1.0000   1.0000
     1.0000   1.0000   1.0000   1.0000   1.0000   1.0000   1.0000   1.0000
     1.0000   1.0000   1.0000   1.0000   1.0000   1.0000   1.0000   1.0000
     1.0000   1.0000   1.0000   1.0000   1.0000   1.0000   1.0000   1.0000
     1.0000   1.0000   1.0000   1.0000   1.0000   1.0000   1.0000   1.0000
     1.0000   1.0000   1.0000   1.0000   1.0000   1.0000   1.0000   1.0000
     1.0000   1.0000   1.0000   1.0000   1.0000   1.0000   1.0000   1.0000
     1.0000   1.0000   1.0000   1.0000   1.0000   1.0000   1.0000   1.0000
     1.0000   1.0000   1.0000   1.0000   1.0000   1.0000   1.0000   1.0000
     1.0000   1.0000   1.0000   1.0000   1.0000   1.0000   1.0000   1.0000
     1.0000   1.0000   1.0000   1.0000   1.0000   1.0000   1.0000   1.0000
     1.0000   1.0000   1.0000   1.0000   1.0000   1.0000   1.0000   1.0000
     1.0000   1.0000   1.0000   1.0000   1.0000   1.0000   1.0000   1.0000
     1.0000   1.0000   1.0000   1.0000   1.0000   1.0000   1.0000   1.0000
     1.0000   1.0000   1.0000   1.0000   1.0000   1.0000   1.0000   1.0000
     1.0000   1.0000   1.0000   1.0000   1.0000   1.0000   1.0000   1.0000
     1.0000   1.0000   1.0000   1.0000   1.0000   1.0000   1.0000   1.0000
     0.0000   0.0000   0.0000   0.0000   0.0000   0.0000   0.0000   0.0000
     0.0000   0.0000   0.0000   0.0000   0.0000   0.0000   0.0000   0.0000
     0.0000   0.0000   0.0000   0.0000   0.0000   0.0000   0.0000   0.0000
     0.0000   0.0000   0.0000   0.0000   0.0000   0.0000   0.0000   0.0000
     0.0000   0.0000   0.0000   0.0000   0.0000   0.0000   0.0000   0.0000
     0.0000   0.0000   0.0000   0.0000   0.0000   0.0000   0.0000   0.0000
     0.0000   0.0000   0.0000   0.0000   0.0000   0.0000   0.0000   0.0000
     0.0000   0.0000   0.0000   0.0000   0.0000   0.0000   0.0000   0.0000
     0.0000   0.0000   0.0000   0.0000   0.0000   0.0000   0.0000   0.0000
     0.0000   0.0000   0.0000   0.0000   0.0000   0.0000   0.0000   0.0000
     0.0000   0.0000   0.0000   0.0000   0.0000   0.0000   0.0000   0.0000
     0.0000   0.0000   0.0000   0.0000   0.0000   0.0000   0.0000   0.0000
     0.0000   0.0000   0.0000   0.0000   0.0000   0.0000   0.0000   0.0000
     0.0000   0.0000   0.0000   0.0000   0.0000   0.0000   0.0000   0.0000
     0.0000   0.0000   0.0000   0.0000   0.0000   0.0000   0.0000   0.0000
     0.0000   0.0000   0.0000   0.0000   0.0000   0.0000   0.0000   0.0000
     0.0000   0.0000   0.0000   0.0000   0.0000   0.0000   0.0000   0.0000
     0.0000   0.0000   0.0000   0.0000   0.0000   0.0000   0.0000   0.0000
     0.0000   0.0000   0.0000   0.0000

          k = 0.7500 0.5000 0.5000 ( 73972 PWs)   bands (ev):

   -18.1281 -18.1281 -18.0397 -18.0397 -17.9993 -17.9993 -17.9954 -17.9954
   -17.9650 -17.9650 -17.9608 -17.9608 -17.8047 -17.8047 -17.7796 -17.7796
   -15.3216 -15.3216 -15.3009 -15.3008 -15.2516 -15.2515 -15.2502 -15.2502
   -15.2402 -15.2402 -15.2356 -15.2355 -15.2227 -15.2227 -15.2148 -15.2148
   -15.1849 -15.1848 -15.1676 -15.1676 -15.0949 -15.0948 -15.0876 -15.0876
   -15.0733 -15.0733 -15.0688 -15.0687 -15.0093 -15.0092 -15.0005 -15.0005
   -12.7908 -12.7889 -12.7686 -12.7684 -12.7586 -12.7582 -12.7440 -12.7437
   -12.7268 -12.7263 -12.7252 -12.7239 -12.7143 -12.7122 -12.6916 -12.6916
   -12.6808 -12.6802 -12.6581 -12.6574 -12.6571 -12.6568 -12.6524 -12.6519
   -12.6466 -12.6453 -12.6337 -12.6337 -12.5945 -12.5938 -12.5900 -12.5900
   -12.5711 -12.5707 -12.5608 -12.5601 -12.5408 -12.5393 -12.5082 -12.5079
   -12.4984 -12.4983 -12.4925 -12.4921 -12.4906 -12.4902 -12.4173 -12.4172
   -11.3908 -11.3903 -11.3646 -11.3642 -11.2715 -11.2709 -11.2310 -11.2306
   -11.2096 -11.2082 -11.1775 -11.1760 -11.1199 -11.1187 -11.0702 -11.0693
   -11.0528 -11.0461 -11.0232 -11.0208 -10.9935 -10.9905 -10.9578 -10.9573
   -10.9286 -10.9273 -10.9236 -10.9224 -10.8821 -10.8812 -10.8549 -10.8513
   -10.8297 -10.8292 -10.7925 -10.7915 -10.7643 -10.7626 -10.6761 -10.6760
   -10.6573 -10.6567 -10.6209 -10.6203 -10.5961 -10.5951 -10.5483 -10.5483
    -6.0980  -6.0979  -6.0134  -6.0131  -5.9761  -5.9758  -5.9727  -5.9724
    -5.9415  -5.9414  -5.9357  -5.9356  -5.7961  -5.7959  -5.7735  -5.7734
    -4.9831  -4.9828  -4.9600  -4.9594  -4.8350  -4.8337  -4.8012  -4.8000
    -4.6482  -4.6464  -4.6129  -4.6110  -4.5115  -4.5089  -4.5016  -4.4993
    -4.4778  -4.4757  -4.4692  -4.4658  -4.4150  -4.4122  -4.3947  -4.3918
    -4.3842  -4.3827  -4.3769  -4.3741  -4.3626  -4.3607  -4.3583  -4.3564
    -4.3503  -4.3499  -4.3393  -4.3386  -4.3199  -4.3190  -4.3157  -4.3143
    -4.2148  -4.2142  -4.1885  -4.1867  -4.1864  -4.1850  -4.1755  -4.1747
    -0.6658  -0.6336  -0.5988  -0.5732  -0.4895  -0.4608  -0.4385  -0.4324
    -0.3864  -0.3619  -0.2801  -0.2661  -0.2122  -0.2030  -0.1657  -0.1476
    -0.1104  -0.0982  -0.0642  -0.0579  -0.0362  -0.0151  -0.0048   0.0105
     0.0191   0.0314   0.0997   0.1111   0.1697   0.1796   0.1924   0.2189
     0.2398   0.2479   0.2606   0.2771   0.2960   0.3155   0.3386   0.3594
     0.3696   0.3755   0.3992   0.4342   0.4533   0.4790   0.4969   0.5228
     0.6647   0.6887   0.6944   0.7010   0.7160   0.7213   0.7311   0.7458
     0.7605   0.7705   0.7890   0.7980   0.8123   0.8214   0.8305   0.8413
     0.8659   0.8710   0.8850   0.8892   0.9029   0.9073   0.9239   0.9382
     0.9405   0.9556   0.9635   0.9777   0.9849   1.0066   1.0244   1.0384
     1.0525   1.0582   1.0779   1.0854   1.0963   1.1058   1.1177   1.1265
     1.1441   1.1595   1.1686   1.1795   1.1981   1.2057   1.2337   1.2380
     1.2562   1.2653   1.2814   1.2932   1.2989   1.3181   1.3340   1.3411
     1.3497   1.3550   1.3805   1.3884   1.3983   1.4096   1.4202   1.4329
     1.4527   1.4678   1.4724   1.4810   1.4913   1.4959   1.5190   1.5256
     1.5331   1.5559   1.5626   1.5714   1.5784   1.6005   1.6061   1.6332
     1.6450   1.6649   1.6862   1.6990   1.7171   1.7320   1.7497   1.7574
     1.8014   1.8202   1.8845   1.9043   1.9515   1.9644   2.0210   2.0375
     4.7190   4.8450   4.8764   4.9623   5.0520   5.0875   5.1267   5.1741
     5.5010   5.5647   5.6159   5.6559   5.7481   5.7863   5.8715   5.9112
     6.1172   6.2517   6.3033   6.3551   6.4110   6.4556   6.4886   6.5137
     6.5744   6.6012   6.6387   6.6644   6.7433   6.7636   6.8372   6.8662
     6.9159   6.9498   6.9860   7.0196   7.0690   7.0929   7.1263   7.1723
     7.3167   7.3493   7.3796   7.4080   7.4470   7.4669   7.4987   7.5353
     7.7314   7.7412   7.7898   7.8218   7.8500   7.8961   7.9329   7.9574
     7.9750   7.9973   8.0235   8.0562   8.0784   8.0997   8.1174   8.1316
     8.2141   8.2273   8.2386   8.2550   8.3017   8.3177   8.3354   8.3520
     8.3905   8.4027   8.4122   8.4241   8.4407   8.4636   8.4835   8.4985
     8.5246   8.5497   8.5897   8.5967   8.6331   8.6369   8.6580   8.6814
     8.6851   8.6986   8.7148   8.7259   8.7694   8.7797   8.8421   8.8583
     8.8943   8.9107   8.9368   8.9467   8.9741   8.9845   9.0275   9.0351
     9.0543   9.0671   9.1046   9.1268   9.1507   9.1660   9.1756   9.1873
     9.2121   9.2156   9.2366   9.2414   9.2792   9.2954   9.2998   9.3163
     9.3274   9.3575   9.3687   9.3873   9.4084   9.4213   9.4270   9.4381
     9.4525   9.4658   9.4904   9.5019   9.5060   9.5145   9.5559   9.5582
     9.5922   9.6045   9.6410   9.6531   9.6702   9.6779   9.7341   9.7445
    10.0146  10.0305  10.0635  10.0729

     occupation numbers 
     1.0000   1.0000   1.0000   1.0000   1.0000   1.0000   1.0000   1.0000
     1.0000   1.0000   1.0000   1.0000   1.0000   1.0000   1.0000   1.0000
     1.0000   1.0000   1.0000   1.0000   1.0000   1.0000   1.0000   1.0000
     1.0000   1.0000   1.0000   1.0000   1.0000   1.0000   1.0000   1.0000
     1.0000   1.0000   1.0000   1.0000   1.0000   1.0000   1.0000   1.0000
     1.0000   1.0000   1.0000   1.0000   1.0000   1.0000   1.0000   1.0000
     1.0000   1.0000   1.0000   1.0000   1.0000   1.0000   1.0000   1.0000
     1.0000   1.0000   1.0000   1.0000   1.0000   1.0000   1.0000   1.0000
     1.0000   1.0000   1.0000   1.0000   1.0000   1.0000   1.0000   1.0000
     1.0000   1.0000   1.0000   1.0000   1.0000   1.0000   1.0000   1.0000
     1.0000   1.0000   1.0000   1.0000   1.0000   1.0000   1.0000   1.0000
     1.0000   1.0000   1.0000   1.0000   1.0000   1.0000   1.0000   1.0000
     1.0000   1.0000   1.0000   1.0000   1.0000   1.0000   1.0000   1.0000
     1.0000   1.0000   1.0000   1.0000   1.0000   1.0000   1.0000   1.0000
     1.0000   1.0000   1.0000   1.0000   1.0000   1.0000   1.0000   1.0000
     1.0000   1.0000   1.0000   1.0000   1.0000   1.0000   1.0000   1.0000
     1.0000   1.0000   1.0000   1.0000   1.0000   1.0000   1.0000   1.0000
     1.0000   1.0000   1.0000   1.0000   1.0000   1.0000   1.0000   1.0000
     1.0000   1.0000   1.0000   1.0000   1.0000   1.0000   1.0000   1.0000
     1.0000   1.0000   1.0000   1.0000   1.0000   1.0000   1.0000   1.0000
     1.0000   1.0000   1.0000   1.0000   1.0000   1.0000   1.0000   1.0000
     1.0000   1.0000   1.0000   1.0000   1.0000   1.0000   1.0000   1.0000
     1.0000   1.0000   1.0000   1.0000   1.0000   1.0000   1.0000   1.0000
     1.0000   1.0000   1.0000   1.0000   1.0000   1.0000   1.0000   1.0000
     1.0000   1.0000   1.0000   1.0000   1.0000   1.0000   1.0000   1.0000
     1.0000   1.0000   1.0000   1.0000   1.0000   1.0000   1.0000   1.0000
     1.0000   1.0000   1.0000   1.0000   1.0000   1.0000   1.0000   1.0000
     1.0000   1.0000   1.0000   1.0000   1.0000   1.0000   1.0000   1.0000
     1.0000   1.0000   1.0000   1.0000   1.0000   1.0000   1.0000   1.0000
     1.0000   1.0000   1.0000   1.0000   1.0000   1.0000   1.0000   1.0000
     1.0000   1.0000   1.0000   1.0000   1.0000   1.0000   1.0000   1.0000
     1.0000   1.0000   1.0000   1.0000   1.0000   1.0000   1.0000   1.0000
     1.0000   1.0000   1.0000   1.0000   1.0000   1.0000   1.0000   1.0000
     1.0000   1.0000   1.0000   1.0000   1.0000   1.0000   1.0000   1.0000
     1.0000   1.0000   1.0000   1.0000   1.0000   1.0000   1.0000   1.0000
     1.0000   1.0000   1.0000   1.0000   1.0000   1.0000   1.0000   1.0000
     1.0000   1.0000   1.0000   1.0000   1.0000   1.0000   1.0000   1.0000
     1.0000   1.0000   1.0000   1.0000   1.0000   1.0000   1.0000   1.0000
     1.0000   1.0000   1.0000   1.0000   1.0000   1.0000   1.0000   1.0000
     1.0000   1.0000   1.0000   1.0000   1.0000   1.0000   1.0000   1.0000
     1.0000   1.0000   1.0000   1.0000   1.0000   1.0000   1.0000   1.0000
     1.0000   1.0000   1.0000   1.0000   1.0000   1.0000   1.0000   1.0000
     1.0000   1.0000   1.0000   1.0000   1.0000   1.0000   1.0000   1.0000
     1.0000   1.0000   1.0000   1.0000   1.0000   1.0000   1.0000   1.0000
     0.0000   0.0000   0.0000   0.0000   0.0000   0.0000   0.0000   0.0000
     0.0000   0.0000   0.0000   0.0000   0.0000   0.0000   0.0000   0.0000
     0.0000   0.0000   0.0000   0.0000   0.0000   0.0000   0.0000   0.0000
     0.0000   0.0000   0.0000   0.0000   0.0000   0.0000   0.0000   0.0000
     0.0000   0.0000   0.0000   0.0000   0.0000   0.0000   0.0000   0.0000
     0.0000   0.0000   0.0000   0.0000   0.0000   0.0000   0.0000   0.0000
     0.0000   0.0000   0.0000   0.0000   0.0000   0.0000   0.0000   0.0000
     0.0000   0.0000   0.0000   0.0000   0.0000   0.0000   0.0000   0.0000
     0.0000   0.0000   0.0000   0.0000   0.0000   0.0000   0.0000   0.0000
     0.0000   0.0000   0.0000   0.0000   0.0000   0.0000   0.0000   0.0000
     0.0000   0.0000   0.0000   0.0000   0.0000   0.0000   0.0000   0.0000
     0.0000   0.0000   0.0000   0.0000   0.0000   0.0000   0.0000   0.0000
     0.0000   0.0000   0.0000   0.0000   0.0000   0.0000   0.0000   0.0000
     0.0000   0.0000   0.0000   0.0000   0.0000   0.0000   0.0000   0.0000
     0.0000   0.0000   0.0000   0.0000   0.0000   0.0000   0.0000   0.0000
     0.0000   0.0000   0.0000   0.0000   0.0000   0.0000   0.0000   0.0000
     0.0000   0.0000   0.0000   0.0000   0.0000   0.0000   0.0000   0.0000
     0.0000   0.0000   0.0000   0.0000   0.0000   0.0000   0.0000   0.0000
     0.0000   0.0000   0.0000   0.0000

          k = 0.7500 0.5000 0.7500 ( 73882 PWs)   bands (ev):

   -18.1281 -18.1281 -18.0397 -18.0397 -17.9993 -17.9993 -17.9954 -17.9954
   -17.9650 -17.9650 -17.9608 -17.9608 -17.8047 -17.8047 -17.7796 -17.7796
   -15.3216 -15.3216 -15.3009 -15.3008 -15.2532 -15.2525 -15.2495 -15.2489
   -15.2402 -15.2401 -15.2354 -15.2351 -15.2228 -15.2227 -15.2148 -15.2148
   -15.1849 -15.1848 -15.1675 -15.1675 -15.0949 -15.0948 -15.0876 -15.0876
   -15.0734 -15.0733 -15.0688 -15.0687 -15.0092 -15.0092 -15.0005 -15.0005
   -12.7915 -12.7897 -12.7728 -12.7699 -12.7689 -12.7679 -12.7353 -12.7313
   -12.7268 -12.7263 -12.7232 -12.7216 -12.7140 -12.7120 -12.6929 -12.6923
   -12.6810 -12.6803 -12.6582 -12.6572 -12.6570 -12.6569 -12.6521 -12.6516
   -12.6455 -12.6440 -12.6338 -12.6337 -12.5942 -12.5935 -12.5901 -12.5899
   -12.5713 -12.5709 -12.5621 -12.5612 -12.5404 -12.5391 -12.5072 -12.5068
   -12.4985 -12.4984 -12.4916 -12.4912 -12.4901 -12.4896 -12.4173 -12.4172
   -11.3994 -11.3982 -11.3512 -11.3499 -11.2709 -11.2702 -11.2355 -11.2350
   -11.2086 -11.2069 -11.1768 -11.1751 -11.1120 -11.1111 -11.0745 -11.0733
   -11.0522 -11.0468 -11.0311 -11.0296 -10.9991 -10.9957 -10.9597 -10.9584
   -10.9284 -10.9277 -10.9165 -10.9148 -10.8816 -10.8803 -10.8551 -10.8514
   -10.8381 -10.8377 -10.7904 -10.7895 -10.7692 -10.7672 -10.6783 -10.6777
   -10.6494 -10.6485 -10.6291 -10.6282 -10.5865 -10.5860 -10.5463 -10.5460
    -6.0981  -6.0979  -6.0136  -6.0131  -5.9764  -5.9757  -5.9728  -5.9724
    -5.9414  -5.9412  -5.9356  -5.9355  -5.7961  -5.7959  -5.7737  -5.7733
    -5.1256  -5.1246  -4.9431  -4.9423  -4.8295  -4.8280  -4.7616  -4.7607
    -4.6921  -4.6913  -4.5861  -4.5842  -4.5059  -4.5031  -4.4836  -4.4808
    -4.4577  -4.4561  -4.4161  -4.4140  -4.4032  -4.3962  -4.3870  -4.3843
    -4.3776  -4.3756  -4.3680  -4.3635  -4.3609  -4.3582  -4.3532  -4.3493
    -4.3409  -4.3381  -4.3272  -4.3235  -4.3191  -4.3155  -4.3078  -4.3023
    -4.2144  -4.2123  -4.1883  -4.1864  -4.1853  -4.1837  -4.1756  -4.1725
    -0.8208  -0.8033  -0.6577  -0.6226  -0.5722  -0.5474  -0.5282  -0.5195
    -0.4608  -0.4393  -0.4190  -0.4004  -0.3453  -0.3316  -0.3019  -0.2645
    -0.1695  -0.1485  -0.0824  -0.0654  -0.0426  -0.0368   0.0049   0.0156
     0.0444   0.0547   0.1193   0.1435   0.1854   0.2020   0.2246   0.2471
     0.2667   0.3123   0.3247   0.3499   0.3864   0.4004   0.4103   0.4183
     0.4321   0.4414   0.4671   0.4893   0.5084   0.5241   0.5491   0.5659
     0.6632   0.6814   0.7014   0.7141   0.7242   0.7323   0.7580   0.7604
     0.7762   0.7913   0.8000   0.8151   0.8255   0.8398   0.8492   0.8657
     0.8797   0.8851   0.8932   0.9048   0.9194   0.9268   0.9458   0.9596
     0.9642   0.9692   0.9846   0.9949   1.0040   1.0153   1.0266   1.0406
     1.0664   1.0779   1.0869   1.1072   1.1112   1.1196   1.1346   1.1456
     1.1537   1.1624   1.1740   1.1811   1.2033   1.2199   1.2420   1.2510
     1.2633   1.2718   1.2812   1.2857   1.3032   1.3196   1.3289   1.3322
     1.3389   1.3581   1.3665   1.3852   1.4059   1.4120   1.4224   1.4327
     1.4457   1.4526   1.4655   1.4810   1.4889   1.5091   1.5296   1.5419
     1.5447   1.5562   1.5670   1.5866   1.6033   1.6072   1.6171   1.6449
     1.6710   1.6866   1.7008   1.7252   1.7434   1.7573   1.7929   1.8241
     1.8453   1.8679   1.9261   1.9524   2.0187   2.0340   2.0941   2.1139
     4.4996   4.6055   4.7091   4.7995   5.0125   5.0461   5.1497   5.1660
     5.2137   5.2999   5.3782   5.4591   5.7091   5.7792   5.8322   5.9077
     5.9736   6.0119   6.1081   6.1788   6.2604   6.3089   6.3197   6.3802
     6.5078   6.5752   6.6255   6.6474   6.7042   6.7720   6.8178   6.8801
     7.0544   7.0725   7.0978   7.1411   7.2495   7.2859   7.3229   7.3741
     7.4132   7.4325   7.4663   7.4976   7.5849   7.6092   7.6648   7.6965
     7.8027   7.8417   7.8632   7.8833   7.9176   7.9534   7.9835   7.9918
     8.0235   8.0487   8.0615   8.0819   8.1130   8.1368   8.1572   8.1706
     8.1911   8.2281   8.2545   8.2634   8.2810   8.2979   8.3185   8.3492
     8.3787   8.3996   8.4367   8.4473   8.4892   8.5053   8.5446   8.5596
     8.5669   8.5776   8.5975   8.6142   8.6613   8.6783   8.6952   8.7016
     8.7194   8.7333   8.7686   8.7824   8.8088   8.8270   8.8626   8.8692
     8.8786   8.8961   8.9122   8.9249   8.9418   8.9519   9.0070   9.0175
     9.0425   9.0601   9.0897   9.0961   9.1269   9.1547   9.1627   9.1893
     9.2038   9.2191   9.2332   9.2463   9.2605   9.2712   9.2869   9.2960
     9.3217   9.3425   9.3594   9.3720   9.3832   9.3954   9.4046   9.4115
     9.4285   9.4378   9.4764   9.4933   9.5191   9.5268   9.5484   9.5596
     9.5843   9.5966   9.6117   9.6191   9.6583   9.6653   9.6757   9.6886
     9.9319   9.9357   9.9928  10.0248

     occupation numbers 
     1.0000   1.0000   1.0000   1.0000   1.0000   1.0000   1.0000   1.0000
     1.0000   1.0000   1.0000   1.0000   1.0000   1.0000   1.0000   1.0000
     1.0000   1.0000   1.0000   1.0000   1.0000   1.0000   1.0000   1.0000
     1.0000   1.0000   1.0000   1.0000   1.0000   1.0000   1.0000   1.0000
     1.0000   1.0000   1.0000   1.0000   1.0000   1.0000   1.0000   1.0000
     1.0000   1.0000   1.0000   1.0000   1.0000   1.0000   1.0000   1.0000
     1.0000   1.0000   1.0000   1.0000   1.0000   1.0000   1.0000   1.0000
     1.0000   1.0000   1.0000   1.0000   1.0000   1.0000   1.0000   1.0000
     1.0000   1.0000   1.0000   1.0000   1.0000   1.0000   1.0000   1.0000
     1.0000   1.0000   1.0000   1.0000   1.0000   1.0000   1.0000   1.0000
     1.0000   1.0000   1.0000   1.0000   1.0000   1.0000   1.0000   1.0000
     1.0000   1.0000   1.0000   1.0000   1.0000   1.0000   1.0000   1.0000
     1.0000   1.0000   1.0000   1.0000   1.0000   1.0000   1.0000   1.0000
     1.0000   1.0000   1.0000   1.0000   1.0000   1.0000   1.0000   1.0000
     1.0000   1.0000   1.0000   1.0000   1.0000   1.0000   1.0000   1.0000
     1.0000   1.0000   1.0000   1.0000   1.0000   1.0000   1.0000   1.0000
     1.0000   1.0000   1.0000   1.0000   1.0000   1.0000   1.0000   1.0000
     1.0000   1.0000   1.0000   1.0000   1.0000   1.0000   1.0000   1.0000
     1.0000   1.0000   1.0000   1.0000   1.0000   1.0000   1.0000   1.0000
     1.0000   1.0000   1.0000   1.0000   1.0000   1.0000   1.0000   1.0000
     1.0000   1.0000   1.0000   1.0000   1.0000   1.0000   1.0000   1.0000
     1.0000   1.0000   1.0000   1.0000   1.0000   1.0000   1.0000   1.0000
     1.0000   1.0000   1.0000   1.0000   1.0000   1.0000   1.0000   1.0000
     1.0000   1.0000   1.0000   1.0000   1.0000   1.0000   1.0000   1.0000
     1.0000   1.0000   1.0000   1.0000   1.0000   1.0000   1.0000   1.0000
     1.0000   1.0000   1.0000   1.0000   1.0000   1.0000   1.0000   1.0000
     1.0000   1.0000   1.0000   1.0000   1.0000   1.0000   1.0000   1.0000
     1.0000   1.0000   1.0000   1.0000   1.0000   1.0000   1.0000   1.0000
     1.0000   1.0000   1.0000   1.0000   1.0000   1.0000   1.0000   1.0000
     1.0000   1.0000   1.0000   1.0000   1.0000   1.0000   1.0000   1.0000
     1.0000   1.0000   1.0000   1.0000   1.0000   1.0000   1.0000   1.0000
     1.0000   1.0000   1.0000   1.0000   1.0000   1.0000   1.0000   1.0000
     1.0000   1.0000   1.0000   1.0000   1.0000   1.0000   1.0000   1.0000
     1.0000   1.0000   1.0000   1.0000   1.0000   1.0000   1.0000   1.0000
     1.0000   1.0000   1.0000   1.0000   1.0000   1.0000   1.0000   1.0000
     1.0000   1.0000   1.0000   1.0000   1.0000   1.0000   1.0000   1.0000
     1.0000   1.0000   1.0000   1.0000   1.0000   1.0000   1.0000   1.0000
     1.0000   1.0000   1.0000   1.0000   1.0000   1.0000   1.0000   1.0000
     1.0000   1.0000   1.0000   1.0000   1.0000   1.0000   1.0000   1.0000
     1.0000   1.0000   1.0000   1.0000   1.0000   1.0000   1.0000   1.0000
     1.0000   1.0000   1.0000   1.0000   1.0000   1.0000   1.0000   1.0000
     1.0000   1.0000   1.0000   1.0000   1.0000   1.0000   1.0000   1.0000
     1.0000   1.0000   1.0000   1.0000   1.0000   1.0000   1.0000   1.0000
     1.0000   1.0000   1.0000   1.0000   1.0000   1.0000   1.0000   1.0000
     0.0000   0.0000   0.0000   0.0000   0.0000   0.0000   0.0000   0.0000
     0.0000   0.0000   0.0000   0.0000   0.0000   0.0000   0.0000   0.0000
     0.0000   0.0000   0.0000   0.0000   0.0000   0.0000   0.0000   0.0000
     0.0000   0.0000   0.0000   0.0000   0.0000   0.0000   0.0000   0.0000
     0.0000   0.0000   0.0000   0.0000   0.0000   0.0000   0.0000   0.0000
     0.0000   0.0000   0.0000   0.0000   0.0000   0.0000   0.0000   0.0000
     0.0000   0.0000   0.0000   0.0000   0.0000   0.0000   0.0000   0.0000
     0.0000   0.0000   0.0000   0.0000   0.0000   0.0000   0.0000   0.0000
     0.0000   0.0000   0.0000   0.0000   0.0000   0.0000   0.0000   0.0000
     0.0000   0.0000   0.0000   0.0000   0.0000   0.0000   0.0000   0.0000
     0.0000   0.0000   0.0000   0.0000   0.0000   0.0000   0.0000   0.0000
     0.0000   0.0000   0.0000   0.0000   0.0000   0.0000   0.0000   0.0000
     0.0000   0.0000   0.0000   0.0000   0.0000   0.0000   0.0000   0.0000
     0.0000   0.0000   0.0000   0.0000   0.0000   0.0000   0.0000   0.0000
     0.0000   0.0000   0.0000   0.0000   0.0000   0.0000   0.0000   0.0000
     0.0000   0.0000   0.0000   0.0000   0.0000   0.0000   0.0000   0.0000
     0.0000   0.0000   0.0000   0.0000   0.0000   0.0000   0.0000   0.0000
     0.0000   0.0000   0.0000   0.0000   0.0000   0.0000   0.0000   0.0000
     0.0000   0.0000   0.0000   0.0000

          k = 0.7500 0.7500 0.0000 ( 73903 PWs)   bands (ev):

   -18.1281 -18.1281 -18.0397 -18.0397 -17.9993 -17.9993 -17.9954 -17.9954
   -17.9651 -17.9651 -17.9608 -17.9608 -17.8047 -17.8047 -17.7796 -17.7796
   -15.3216 -15.3216 -15.3009 -15.3009 -15.2537 -15.2537 -15.2487 -15.2487
   -15.2401 -15.2401 -15.2350 -15.2349 -15.2229 -15.2228 -15.2149 -15.2149
   -15.1849 -15.1848 -15.1675 -15.1674 -15.0949 -15.0948 -15.0876 -15.0876
   -15.0734 -15.0733 -15.0688 -15.0686 -15.0092 -15.0092 -15.0005 -15.0005
   -12.7925 -12.7908 -12.7775 -12.7774 -12.7704 -12.7700 -12.7303 -12.7293
   -12.7270 -12.7264 -12.7195 -12.7189 -12.7145 -12.7125 -12.6967 -12.6958
   -12.6835 -12.6829 -12.6577 -12.6574 -12.6568 -12.6565 -12.6480 -12.6471
   -12.6430 -12.6425 -12.6337 -12.6336 -12.5938 -12.5924 -12.5900 -12.5899
   -12.5704 -12.5697 -12.5630 -12.5622 -12.5398 -12.5386 -12.5060 -12.5052
   -12.4986 -12.4983 -12.4911 -12.4911 -12.4887 -12.4884 -12.4173 -12.4172
   -11.4089 -11.4084 -11.3342 -11.3338 -11.2675 -11.2667 -11.2431 -11.2419
   -11.2044 -11.2025 -11.1677 -11.1662 -11.1028 -11.1013 -11.0817 -11.0781
   -11.0465 -11.0443 -11.0234 -11.0211 -11.0088 -11.0063 -10.9754 -10.9734
   -10.9531 -10.9500 -10.9154 -10.9137 -10.8923 -10.8909 -10.8564 -10.8534
   -10.8355 -10.8337 -10.7884 -10.7869 -10.7628 -10.7615 -10.6827 -10.6823
   -10.6477 -10.6472 -10.6237 -10.6231 -10.5818 -10.5811 -10.5399 -10.5394
    -6.0981  -6.0980  -6.0137  -6.0133  -5.9768  -5.9765  -5.9725  -5.9722
    -5.9424  -5.9393  -5.9371  -5.9341  -5.7960  -5.7958  -5.7736  -5.7734
    -5.2528  -5.2519  -4.9633  -4.9627  -4.8784  -4.8777  -4.7974  -4.7962
    -4.5997  -4.5980  -4.5152  -4.5122  -4.4954  -4.4933  -4.4804  -4.4758
    -4.4467  -4.4373  -4.4200  -4.4097  -4.3958  -4.3899  -4.3851  -4.3821
    -4.3774  -4.3755  -4.3650  -4.3628  -4.3570  -4.3564  -4.3503  -4.3477
    -4.3420  -4.3390  -4.3204  -4.3176  -4.3148  -4.3135  -4.2181  -4.2163
    -4.1924  -4.1898  -4.1880  -4.1864  -4.1781  -4.1760  -4.1111  -4.1076
    -1.0335  -0.9866  -0.7219  -0.7013  -0.6727  -0.6311  -0.6115  -0.5843
    -0.5714  -0.5644  -0.5409  -0.5257  -0.4997  -0.4684  -0.4410  -0.4211
    -0.4075  -0.3891  -0.3354  -0.3246  -0.2695  -0.2346  -0.1968  -0.1820
     0.2158   0.2506   0.2626   0.2812   0.3033   0.3282   0.3485   0.3550
     0.3818   0.4081   0.4251   0.4421   0.4561   0.4674   0.4795   0.4903
     0.5094   0.5243   0.5326   0.5692   0.5881   0.5971   0.6387   0.6722
     0.6881   0.7034   0.7123   0.7327   0.7426   0.7663   0.7766   0.7926
     0.8029   0.8210   0.8387   0.8475   0.8615   0.8705   0.8837   0.8898
     0.9043   0.9225   0.9377   0.9447   0.9502   0.9612   0.9714   0.9820
     0.9966   1.0132   1.0199   1.0291   1.0427   1.0527   1.0570   1.0720
     1.0811   1.0916   1.0975   1.1116   1.1205   1.1354   1.1487   1.1556
     1.1694   1.1804   1.1911   1.2012   1.2100   1.2223   1.2317   1.2415
     1.2557   1.2638   1.2815   1.2908   1.2942   1.3042   1.3231   1.3259
     1.3534   1.3605   1.3706   1.3752   1.3884   1.4090   1.4257   1.4345
     1.4462   1.4643   1.4727   1.4883   1.4926   1.5116   1.5312   1.5468
     1.5578   1.5677   1.5745   1.5990   1.6117   1.6313   1.6450   1.6614
     1.6809   1.6976   1.7311   1.7507   1.7897   1.8134   1.8905   1.9116
     1.9809   2.0174   2.0420   2.0934   2.1556   2.1957   2.3413   2.3621
     4.1024   4.2446   4.5148   4.5526   4.6305   4.6805   4.8379   4.9625
     5.1416   5.1894   5.3515   5.4069   5.4300   5.5292   5.5764   5.6232
     5.7031   5.7434   5.8066   5.8649   5.9358   5.9564   6.0425   6.1462
     6.4924   6.5638   6.7497   6.7610   6.9230   7.0052   7.0548   7.0743
     7.1585   7.1769   7.2124   7.2948   7.3576   7.4003   7.5443   7.5812
     7.6170   7.6794   7.7129   7.7269   7.7358   7.7867   7.8058   7.8358
     7.8708   7.8914   7.9153   7.9465   7.9760   8.0120   8.0344   8.0616
     8.0813   8.1109   8.1248   8.1648   8.1831   8.2142   8.2360   8.2533
     8.2761   8.2984   8.3280   8.3333   8.3501   8.3775   8.3948   8.4093
     8.4369   8.4632   8.4829   8.5073   8.5308   8.5576   8.5694   8.5989
     8.6103   8.6325   8.6438   8.6577   8.6756   8.6842   8.6926   8.7069
     8.7352   8.7467   8.7606   8.7797   8.7923   8.8233   8.8313   8.8409
     8.8604   8.8659   8.9075   8.9331   8.9469   8.9575   8.9723   8.9857
     9.0045   9.0211   9.0362   9.0646   9.1046   9.1169   9.1526   9.1737
     9.1761   9.1981   9.2060   9.2123   9.2766   9.2905   9.3056   9.3160
     9.3415   9.3496   9.3722   9.3856   9.4216   9.4333   9.4339   9.4518
     9.4676   9.4848   9.4971   9.5073   9.5322   9.5408   9.5606   9.5641
     9.5943   9.6076   9.6631   9.6702   9.6983   9.7082   9.7370   9.7624
     9.8423   9.8547   9.9393   9.9504

     occupation numbers 
     1.0000   1.0000   1.0000   1.0000   1.0000   1.0000   1.0000   1.0000
     1.0000   1.0000   1.0000   1.0000   1.0000   1.0000   1.0000   1.0000
     1.0000   1.0000   1.0000   1.0000   1.0000   1.0000   1.0000   1.0000
     1.0000   1.0000   1.0000   1.0000   1.0000   1.0000   1.0000   1.0000
     1.0000   1.0000   1.0000   1.0000   1.0000   1.0000   1.0000   1.0000
     1.0000   1.0000   1.0000   1.0000   1.0000   1.0000   1.0000   1.0000
     1.0000   1.0000   1.0000   1.0000   1.0000   1.0000   1.0000   1.0000
     1.0000   1.0000   1.0000   1.0000   1.0000   1.0000   1.0000   1.0000
     1.0000   1.0000   1.0000   1.0000   1.0000   1.0000   1.0000   1.0000
     1.0000   1.0000   1.0000   1.0000   1.0000   1.0000   1.0000   1.0000
     1.0000   1.0000   1.0000   1.0000   1.0000   1.0000   1.0000   1.0000
     1.0000   1.0000   1.0000   1.0000   1.0000   1.0000   1.0000   1.0000
     1.0000   1.0000   1.0000   1.0000   1.0000   1.0000   1.0000   1.0000
     1.0000   1.0000   1.0000   1.0000   1.0000   1.0000   1.0000   1.0000
     1.0000   1.0000   1.0000   1.0000   1.0000   1.0000   1.0000   1.0000
     1.0000   1.0000   1.0000   1.0000   1.0000   1.0000   1.0000   1.0000
     1.0000   1.0000   1.0000   1.0000   1.0000   1.0000   1.0000   1.0000
     1.0000   1.0000   1.0000   1.0000   1.0000   1.0000   1.0000   1.0000
     1.0000   1.0000   1.0000   1.0000   1.0000   1.0000   1.0000   1.0000
     1.0000   1.0000   1.0000   1.0000   1.0000   1.0000   1.0000   1.0000
     1.0000   1.0000   1.0000   1.0000   1.0000   1.0000   1.0000   1.0000
     1.0000   1.0000   1.0000   1.0000   1.0000   1.0000   1.0000   1.0000
     1.0000   1.0000   1.0000   1.0000   1.0000   1.0000   1.0000   1.0000
     1.0000   1.0000   1.0000   1.0000   1.0000   1.0000   1.0000   1.0000
     1.0000   1.0000   1.0000   1.0000   1.0000   1.0000   1.0000   1.0000
     1.0000   1.0000   1.0000   1.0000   1.0000   1.0000   1.0000   1.0000
     1.0000   1.0000   1.0000   1.0000   1.0000   1.0000   1.0000   1.0000
     1.0000   1.0000   1.0000   1.0000   1.0000   1.0000   1.0000   1.0000
     1.0000   1.0000   1.0000   1.0000   1.0000   1.0000   1.0000   1.0000
     1.0000   1.0000   1.0000   1.0000   1.0000   1.0000   1.0000   1.0000
     1.0000   1.0000   1.0000   1.0000   1.0000   1.0000   1.0000   1.0000
     1.0000   1.0000   1.0000   1.0000   1.0000   1.0000   1.0000   1.0000
     1.0000   1.0000   1.0000   1.0000   1.0000   1.0000   1.0000   1.0000
     1.0000   1.0000   1.0000   1.0000   1.0000   1.0000   1.0000   1.0000
     1.0000   1.0000   1.0000   1.0000   1.0000   1.0000   1.0000   1.0000
     1.0000   1.0000   1.0000   1.0000   1.0000   1.0000   1.0000   1.0000
     1.0000   1.0000   1.0000   1.0000   1.0000   1.0000   1.0000   1.0000
     1.0000   1.0000   1.0000   1.0000   1.0000   1.0000   1.0000   1.0000
     1.0000   1.0000   1.0000   1.0000   1.0000   1.0000   1.0000   1.0000
     1.0000   1.0000   1.0000   1.0000   1.0000   1.0000   1.0000   1.0000
     1.0000   1.0000   1.0000   1.0000   1.0000   1.0000   1.0000   1.0000
     1.0000   1.0000   1.0000   1.0000   1.0000   1.0000   1.0000   1.0000
     1.0000   1.0000   1.0000   1.0000   1.0000   1.0000   1.0000   1.0000
     1.0000   1.0000   1.0000   1.0000   1.0000   1.0000   1.0000   1.0000
     0.0000   0.0000   0.0000   0.0000   0.0000   0.0000   0.0000   0.0000
     0.0000   0.0000   0.0000   0.0000   0.0000   0.0000   0.0000   0.0000
     0.0000   0.0000   0.0000   0.0000   0.0000   0.0000   0.0000   0.0000
     0.0000   0.0000   0.0000   0.0000   0.0000   0.0000   0.0000   0.0000
     0.0000   0.0000   0.0000   0.0000   0.0000   0.0000   0.0000   0.0000
     0.0000   0.0000   0.0000   0.0000   0.0000   0.0000   0.0000   0.0000
     0.0000   0.0000   0.0000   0.0000   0.0000   0.0000   0.0000   0.0000
     0.0000   0.0000   0.0000   0.0000   0.0000   0.0000   0.0000   0.0000
     0.0000   0.0000   0.0000   0.0000   0.0000   0.0000   0.0000   0.0000
     0.0000   0.0000   0.0000   0.0000   0.0000   0.0000   0.0000   0.0000
     0.0000   0.0000   0.0000   0.0000   0.0000   0.0000   0.0000   0.0000
     0.0000   0.0000   0.0000   0.0000   0.0000   0.0000   0.0000   0.0000
     0.0000   0.0000   0.0000   0.0000   0.0000   0.0000   0.0000   0.0000
     0.0000   0.0000   0.0000   0.0000   0.0000   0.0000   0.0000   0.0000
     0.0000   0.0000   0.0000   0.0000   0.0000   0.0000   0.0000   0.0000
     0.0000   0.0000   0.0000   0.0000   0.0000   0.0000   0.0000   0.0000
     0.0000   0.0000   0.0000   0.0000   0.0000   0.0000   0.0000   0.0000
     0.0000   0.0000   0.0000   0.0000   0.0000   0.0000   0.0000   0.0000
     0.0000   0.0000   0.0000   0.0000

          k = 0.7500 0.7500 0.2500 ( 73932 PWs)   bands (ev):

   -18.1281 -18.1281 -18.0397 -18.0397 -17.9993 -17.9993 -17.9954 -17.9954
   -17.9651 -17.9651 -17.9608 -17.9608 -17.8047 -17.8047 -17.7796 -17.7796
   -15.3216 -15.3216 -15.3009 -15.3008 -15.2532 -15.2525 -15.2495 -15.2489
   -15.2402 -15.2401 -15.2353 -15.2352 -15.2228 -15.2228 -15.2149 -15.2149
   -15.1849 -15.1848 -15.1675 -15.1675 -15.0949 -15.0948 -15.0876 -15.0876
   -15.0734 -15.0733 -15.0688 -15.0687 -15.0092 -15.0092 -15.0005 -15.0005
   -12.7915 -12.7898 -12.7729 -12.7702 -12.7692 -12.7679 -12.7350 -12.7317
   -12.7270 -12.7265 -12.7236 -12.7222 -12.7153 -12.7129 -12.6959 -12.6952
   -12.6831 -12.6826 -12.6576 -12.6573 -12.6570 -12.6564 -12.6481 -12.6473
   -12.6445 -12.6434 -12.6337 -12.6336 -12.5941 -12.5927 -12.5900 -12.5899
   -12.5701 -12.5693 -12.5619 -12.5612 -12.5405 -12.5389 -12.5069 -12.5060
   -12.4985 -12.4983 -12.4915 -12.4912 -12.4902 -12.4895 -12.4173 -12.4172
   -11.4045 -11.4032 -11.3450 -11.3438 -11.2769 -11.2758 -11.2285 -11.2271
   -11.1974 -11.1957 -11.1806 -11.1797 -11.1063 -11.1054 -11.0785 -11.0745
   -11.0480 -11.0447 -11.0187 -11.0162 -11.0001 -10.9980 -10.9743 -10.9726
   -10.9492 -10.9464 -10.9264 -10.9243 -10.8934 -10.8914 -10.8576 -10.8547
   -10.8228 -10.8216 -10.7892 -10.7879 -10.7605 -10.7593 -10.6815 -10.6808
   -10.6521 -10.6517 -10.6201 -10.6194 -10.5890 -10.5883 -10.5428 -10.5419
    -6.0981  -6.0979  -6.0136  -6.0132  -5.9768  -5.9763  -5.9724  -5.9722
    -5.9426  -5.9395  -5.9372  -5.9342  -5.7959  -5.7958  -5.7736  -5.7733
    -5.1967  -5.1961  -4.9139  -4.9126  -4.8765  -4.8760  -4.8177  -4.8171
    -4.5899  -4.5855  -4.5544  -4.5504  -4.5057  -4.5014  -4.4913  -4.4897
    -4.4789  -4.4760  -4.4194  -4.4149  -4.3992  -4.3940  -4.3859  -4.3837
    -4.3790  -4.3763  -4.3662  -4.3646  -4.3580  -4.3573  -4.3525  -4.3498
    -4.3423  -4.3397  -4.3214  -4.3185  -4.3151  -4.3136  -4.2214  -4.2202
    -4.2016  -4.2005  -4.1883  -4.1868  -4.1818  -4.1785  -4.1708  -4.1675
    -0.8779  -0.7974  -0.6751  -0.6297  -0.6062  -0.5767  -0.5436  -0.5330
    -0.5226  -0.5065  -0.4767  -0.4632  -0.4442  -0.4356  -0.4093  -0.3946
    -0.3793  -0.3506  -0.3250  -0.3059  -0.1969  -0.1772  -0.1590  -0.1220
     0.1858   0.2345   0.2546   0.2696   0.2926   0.3173   0.3287   0.3362
     0.3673   0.3881   0.4009   0.4115   0.4189   0.4309   0.4452   0.4648
     0.4772   0.4879   0.5128   0.5274   0.5461   0.5712   0.5903   0.6383
     0.6563   0.6770   0.6942   0.7238   0.7305   0.7467   0.7639   0.7787
     0.7871   0.8073   0.8199   0.8317   0.8429   0.8494   0.8709   0.8799
     0.8881   0.8993   0.9046   0.9200   0.9374   0.9551   0.9642   0.9758
     0.9833   0.9976   1.0048   1.0127   1.0254   1.0289   1.0424   1.0597
     1.0638   1.0847   1.0934   1.1029   1.1108   1.1310   1.1410   1.1487
     1.1560   1.1755   1.1863   1.1963   1.2020   1.2175   1.2238   1.2434
     1.2577   1.2677   1.2830   1.2869   1.3027   1.3116   1.3293   1.3374
     1.3505   1.3635   1.3851   1.3905   1.3967   1.4105   1.4235   1.4310
     1.4415   1.4566   1.4695   1.4784   1.4909   1.5128   1.5216   1.5318
     1.5484   1.5544   1.5774   1.5883   1.5989   1.6178   1.6284   1.6562
     1.6758   1.6959   1.7082   1.7372   1.7724   1.7856   1.8435   1.8556
     1.9021   1.9310   1.9762   2.0075   2.0523   2.1029   2.1917   2.2236
     4.3191   4.4378   4.6882   4.7604   4.8001   4.8407   4.9136   5.0310
     5.2787   5.3311   5.4240   5.4533   5.4679   5.5560   5.6916   5.7687
     5.8018   5.9227   5.9404   5.9858   6.0470   6.0766   6.1076   6.1778
     6.4314   6.5027   6.8125   6.8339   6.9022   6.9511   7.0333   7.0607
     7.1176   7.1518   7.2051   7.2539   7.2701   7.3215   7.3916   7.4511
     7.5115   7.5427   7.6262   7.6388   7.6767   7.7261   7.7375   7.7910
     7.8197   7.8248   7.8763   7.9059   7.9418   7.9681   8.0060   8.0149
     8.0321   8.0650   8.0835   8.1158   8.1326   8.1438   8.1992   8.2172
     8.2424   8.2549   8.2710   8.3087   8.3210   8.3393   8.3649   8.3796
     8.4184   8.4493   8.4566   8.4995   8.5139   8.5358   8.5449   8.5596
     8.5710   8.5820   8.6178   8.6262   8.6574   8.6643   8.7054   8.7100
     8.7355   8.7428   8.7596   8.7762   8.7898   8.8014   8.8523   8.8649
     8.8853   8.8950   8.9075   8.9167   8.9376   8.9599   8.9778   8.9997
     9.0187   9.0410   9.0654   9.0792   9.1094   9.1355   9.1668   9.1760
     9.1860   9.1941   9.2111   9.2184   9.2412   9.2568   9.2761   9.2787
     9.3252   9.3333   9.3558   9.3641   9.3816   9.3915   9.4082   9.4213
     9.4451   9.4594   9.4690   9.4933   9.5197   9.5338   9.5594   9.5751
     9.6335   9.6537   9.6650   9.6737   9.6971   9.7017   9.7150   9.7299
     9.8418   9.8659   9.9865   9.9978

     occupation numbers 
     1.0000   1.0000   1.0000   1.0000   1.0000   1.0000   1.0000   1.0000
     1.0000   1.0000   1.0000   1.0000   1.0000   1.0000   1.0000   1.0000
     1.0000   1.0000   1.0000   1.0000   1.0000   1.0000   1.0000   1.0000
     1.0000   1.0000   1.0000   1.0000   1.0000   1.0000   1.0000   1.0000
     1.0000   1.0000   1.0000   1.0000   1.0000   1.0000   1.0000   1.0000
     1.0000   1.0000   1.0000   1.0000   1.0000   1.0000   1.0000   1.0000
     1.0000   1.0000   1.0000   1.0000   1.0000   1.0000   1.0000   1.0000
     1.0000   1.0000   1.0000   1.0000   1.0000   1.0000   1.0000   1.0000
     1.0000   1.0000   1.0000   1.0000   1.0000   1.0000   1.0000   1.0000
     1.0000   1.0000   1.0000   1.0000   1.0000   1.0000   1.0000   1.0000
     1.0000   1.0000   1.0000   1.0000   1.0000   1.0000   1.0000   1.0000
     1.0000   1.0000   1.0000   1.0000   1.0000   1.0000   1.0000   1.0000
     1.0000   1.0000   1.0000   1.0000   1.0000   1.0000   1.0000   1.0000
     1.0000   1.0000   1.0000   1.0000   1.0000   1.0000   1.0000   1.0000
     1.0000   1.0000   1.0000   1.0000   1.0000   1.0000   1.0000   1.0000
     1.0000   1.0000   1.0000   1.0000   1.0000   1.0000   1.0000   1.0000
     1.0000   1.0000   1.0000   1.0000   1.0000   1.0000   1.0000   1.0000
     1.0000   1.0000   1.0000   1.0000   1.0000   1.0000   1.0000   1.0000
     1.0000   1.0000   1.0000   1.0000   1.0000   1.0000   1.0000   1.0000
     1.0000   1.0000   1.0000   1.0000   1.0000   1.0000   1.0000   1.0000
     1.0000   1.0000   1.0000   1.0000   1.0000   1.0000   1.0000   1.0000
     1.0000   1.0000   1.0000   1.0000   1.0000   1.0000   1.0000   1.0000
     1.0000   1.0000   1.0000   1.0000   1.0000   1.0000   1.0000   1.0000
     1.0000   1.0000   1.0000   1.0000   1.0000   1.0000   1.0000   1.0000
     1.0000   1.0000   1.0000   1.0000   1.0000   1.0000   1.0000   1.0000
     1.0000   1.0000   1.0000   1.0000   1.0000   1.0000   1.0000   1.0000
     1.0000   1.0000   1.0000   1.0000   1.0000   1.0000   1.0000   1.0000
     1.0000   1.0000   1.0000   1.0000   1.0000   1.0000   1.0000   1.0000
     1.0000   1.0000   1.0000   1.0000   1.0000   1.0000   1.0000   1.0000
     1.0000   1.0000   1.0000   1.0000   1.0000   1.0000   1.0000   1.0000
     1.0000   1.0000   1.0000   1.0000   1.0000   1.0000   1.0000   1.0000
     1.0000   1.0000   1.0000   1.0000   1.0000   1.0000   1.0000   1.0000
     1.0000   1.0000   1.0000   1.0000   1.0000   1.0000   1.0000   1.0000
     1.0000   1.0000   1.0000   1.0000   1.0000   1.0000   1.0000   1.0000
     1.0000   1.0000   1.0000   1.0000   1.0000   1.0000   1.0000   1.0000
     1.0000   1.0000   1.0000   1.0000   1.0000   1.0000   1.0000   1.0000
     1.0000   1.0000   1.0000   1.0000   1.0000   1.0000   1.0000   1.0000
     1.0000   1.0000   1.0000   1.0000   1.0000   1.0000   1.0000   1.0000
     1.0000   1.0000   1.0000   1.0000   1.0000   1.0000   1.0000   1.0000
     1.0000   1.0000   1.0000   1.0000   1.0000   1.0000   1.0000   1.0000
     1.0000   1.0000   1.0000   1.0000   1.0000   1.0000   1.0000   1.0000
     1.0000   1.0000   1.0000   1.0000   1.0000   1.0000   1.0000   1.0000
     1.0000   1.0000   1.0000   1.0000   1.0000   1.0000   1.0000   1.0000
     1.0000   1.0000   1.0000   1.0000   1.0000   1.0000   1.0000   1.0000
     0.0000   0.0000   0.0000   0.0000   0.0000   0.0000   0.0000   0.0000
     0.0000   0.0000   0.0000   0.0000   0.0000   0.0000   0.0000   0.0000
     0.0000   0.0000   0.0000   0.0000   0.0000   0.0000   0.0000   0.0000
     0.0000   0.0000   0.0000   0.0000   0.0000   0.0000   0.0000   0.0000
     0.0000   0.0000   0.0000   0.0000   0.0000   0.0000   0.0000   0.0000
     0.0000   0.0000   0.0000   0.0000   0.0000   0.0000   0.0000   0.0000
     0.0000   0.0000   0.0000   0.0000   0.0000   0.0000   0.0000   0.0000
     0.0000   0.0000   0.0000   0.0000   0.0000   0.0000   0.0000   0.0000
     0.0000   0.0000   0.0000   0.0000   0.0000   0.0000   0.0000   0.0000
     0.0000   0.0000   0.0000   0.0000   0.0000   0.0000   0.0000   0.0000
     0.0000   0.0000   0.0000   0.0000   0.0000   0.0000   0.0000   0.0000
     0.0000   0.0000   0.0000   0.0000   0.0000   0.0000   0.0000   0.0000
     0.0000   0.0000   0.0000   0.0000   0.0000   0.0000   0.0000   0.0000
     0.0000   0.0000   0.0000   0.0000   0.0000   0.0000   0.0000   0.0000
     0.0000   0.0000   0.0000   0.0000   0.0000   0.0000   0.0000   0.0000
     0.0000   0.0000   0.0000   0.0000   0.0000   0.0000   0.0000   0.0000
     0.0000   0.0000   0.0000   0.0000   0.0000   0.0000   0.0000   0.0000
     0.0000   0.0000   0.0000   0.0000   0.0000   0.0000   0.0000   0.0000
     0.0000   0.0000   0.0000   0.0000

          k = 0.7500 0.7500 0.5000 ( 73882 PWs)   bands (ev):

   -18.1281 -18.1281 -18.0397 -18.0397 -17.9993 -17.9993 -17.9954 -17.9954
   -17.9651 -17.9651 -17.9608 -17.9608 -17.8047 -17.8047 -17.7796 -17.7796
   -15.3216 -15.3216 -15.3009 -15.3008 -15.2515 -15.2515 -15.2502 -15.2502
   -15.2402 -15.2402 -15.2356 -15.2355 -15.2228 -15.2228 -15.2148 -15.2148
   -15.1849 -15.1848 -15.1675 -15.1675 -15.0949 -15.0948 -15.0876 -15.0876
   -15.0733 -15.0732 -15.0688 -15.0687 -15.0092 -15.0092 -15.0005 -15.0005
   -12.7908 -12.7890 -12.7690 -12.7686 -12.7587 -12.7583 -12.7442 -12.7438
   -12.7269 -12.7264 -12.7256 -12.7244 -12.7156 -12.7129 -12.6954 -12.6944
   -12.6828 -12.6822 -12.6576 -12.6573 -12.6570 -12.6566 -12.6487 -12.6475
   -12.6454 -12.6445 -12.6337 -12.6336 -12.5944 -12.5930 -12.5900 -12.5899
   -12.5700 -12.5691 -12.5607 -12.5599 -12.5407 -12.5393 -12.5080 -12.5072
   -12.4984 -12.4983 -12.4924 -12.4920 -12.4907 -12.4902 -12.4173 -12.4172
   -11.3910 -11.3905 -11.3664 -11.3659 -11.2721 -11.2714 -11.2313 -11.2302
   -11.1988 -11.1964 -11.1799 -11.1781 -11.1032 -11.1029 -11.0670 -11.0640
   -11.0528 -11.0485 -11.0222 -11.0189 -11.0035 -11.0006 -10.9659 -10.9648
   -10.9547 -10.9517 -10.9247 -10.9230 -10.8920 -10.8913 -10.8570 -10.8541
   -10.8153 -10.8146 -10.7864 -10.7851 -10.7624 -10.7610 -10.6826 -10.6820
   -10.6495 -10.6488 -10.6189 -10.6182 -10.5971 -10.5962 -10.5459 -10.5453
    -6.0981  -6.0979  -6.0135  -6.0131  -5.9764  -5.9763  -5.9724  -5.9722
    -5.9428  -5.9397  -5.9373  -5.9343  -5.7960  -5.7958  -5.7735  -5.7734
    -5.0549  -5.0540  -5.0386  -5.0375  -4.8044  -4.8027  -4.7441  -4.7418
    -4.6988  -4.6976  -4.6207  -4.6170  -4.5023  -4.5018  -4.4824  -4.4803
    -4.4350  -4.4200  -4.4154  -4.4095  -4.4026  -4.3967  -4.3901  -4.3833
    -4.3801  -4.3753  -4.3726  -4.3657  -4.3586  -4.3540  -4.3532  -4.3497
    -4.3472  -4.3415  -4.3330  -4.3285  -4.3182  -4.3157  -4.3136  -4.3112
    -4.2143  -4.2134  -4.1881  -4.1873  -4.1854  -4.1842  -4.1755  -4.1731
    -0.7119  -0.6631  -0.6475  -0.6115  -0.5850  -0.5591  -0.5319  -0.5130
    -0.4776  -0.4568  -0.4242  -0.4030  -0.3740  -0.3515  -0.3046  -0.2787
    -0.2133  -0.1756  -0.1050  -0.0737  -0.0512  -0.0382  -0.0268  -0.0230
     0.0255   0.0317   0.1437   0.1543   0.2246   0.2380   0.2591   0.2816
     0.3008   0.3105   0.3332   0.3433   0.3589   0.3735   0.3878   0.3974
     0.4085   0.4458   0.4698   0.4934   0.5041   0.5160   0.5505   0.5762
     0.6519   0.6648   0.6954   0.7017   0.7189   0.7341   0.7538   0.7621
     0.7791   0.7930   0.7987   0.8120   0.8233   0.8358   0.8468   0.8572
     0.8660   0.8899   0.9032   0.9148   0.9237   0.9328   0.9499   0.9532
     0.9600   0.9799   0.9890   0.9979   1.0172   1.0286   1.0445   1.0537
     1.0607   1.0757   1.0830   1.0987   1.1017   1.1238   1.1318   1.1471
     1.1556   1.1617   1.1761   1.1827   1.1924   1.2140   1.2356   1.2471
     1.2569   1.2689   1.2784   1.2886   1.2981   1.3139   1.3267   1.3489
     1.3550   1.3707   1.3806   1.3912   1.3950   1.4027   1.4274   1.4357
     1.4528   1.4559   1.4746   1.4883   1.4922   1.5056   1.5254   1.5313
     1.5384   1.5560   1.5654   1.5843   1.6039   1.6189   1.6249   1.6425
     1.6660   1.6876   1.6922   1.7157   1.7322   1.7390   1.7619   1.7887
     1.8256   1.8580   1.9468   1.9773   2.0420   2.0658   2.0831   2.0951
     4.5870   4.6079   4.6528   4.7608   4.9940   5.0213   5.1178   5.1542
     5.2256   5.2733   5.3673   5.4495   5.7749   5.7888   5.8085   5.8886
     6.0368   6.0503   6.1016   6.1880   6.3947   6.4384   6.4758   6.5188
     6.5433   6.5691   6.6132   6.6557   6.6872   6.7179   6.7344   6.8460
     7.0282   7.0753   7.1015   7.1248   7.2348   7.2649   7.3123   7.3397
     7.3701   7.4234   7.4740   7.5085   7.5504   7.6162   7.6609   7.7000
     7.8151   7.8297   7.8752   7.8855   7.9196   7.9491   7.9735   7.9973
     8.0178   8.0525   8.0626   8.0718   8.0873   8.1033   8.1378   8.1483
     8.1947   8.2106   8.2391   8.2558   8.2874   8.2977   8.3158   8.3319
     8.3843   8.4167   8.4346   8.4476   8.4771   8.4900   8.5360   8.5447
     8.5797   8.5933   8.6013   8.6161   8.6306   8.6414   8.6609   8.6779
     8.7068   8.7184   8.7453   8.7613   8.7937   8.8203   8.8481   8.8584
     8.8761   8.9002   8.9190   8.9361   8.9631   8.9764   9.0005   9.0126
     9.0452   9.0621   9.0826   9.0942   9.1018   9.1160   9.1736   9.1876
     9.2024   9.2136   9.2286   9.2399   9.2573   9.2819   9.2848   9.3030
     9.3141   9.3194   9.3419   9.3539   9.3655   9.3779   9.3922   9.4040
     9.4288   9.4373   9.4602   9.4730   9.5287   9.5537   9.5691   9.5782
     9.5954   9.6088   9.6582   9.6738   9.6788   9.6926   9.7121   9.7195
     9.8454   9.8638  10.0200  10.0336

     occupation numbers 
     1.0000   1.0000   1.0000   1.0000   1.0000   1.0000   1.0000   1.0000
     1.0000   1.0000   1.0000   1.0000   1.0000   1.0000   1.0000   1.0000
     1.0000   1.0000   1.0000   1.0000   1.0000   1.0000   1.0000   1.0000
     1.0000   1.0000   1.0000   1.0000   1.0000   1.0000   1.0000   1.0000
     1.0000   1.0000   1.0000   1.0000   1.0000   1.0000   1.0000   1.0000
     1.0000   1.0000   1.0000   1.0000   1.0000   1.0000   1.0000   1.0000
     1.0000   1.0000   1.0000   1.0000   1.0000   1.0000   1.0000   1.0000
     1.0000   1.0000   1.0000   1.0000   1.0000   1.0000   1.0000   1.0000
     1.0000   1.0000   1.0000   1.0000   1.0000   1.0000   1.0000   1.0000
     1.0000   1.0000   1.0000   1.0000   1.0000   1.0000   1.0000   1.0000
     1.0000   1.0000   1.0000   1.0000   1.0000   1.0000   1.0000   1.0000
     1.0000   1.0000   1.0000   1.0000   1.0000   1.0000   1.0000   1.0000
     1.0000   1.0000   1.0000   1.0000   1.0000   1.0000   1.0000   1.0000
     1.0000   1.0000   1.0000   1.0000   1.0000   1.0000   1.0000   1.0000
     1.0000   1.0000   1.0000   1.0000   1.0000   1.0000   1.0000   1.0000
     1.0000   1.0000   1.0000   1.0000   1.0000   1.0000   1.0000   1.0000
     1.0000   1.0000   1.0000   1.0000   1.0000   1.0000   1.0000   1.0000
     1.0000   1.0000   1.0000   1.0000   1.0000   1.0000   1.0000   1.0000
     1.0000   1.0000   1.0000   1.0000   1.0000   1.0000   1.0000   1.0000
     1.0000   1.0000   1.0000   1.0000   1.0000   1.0000   1.0000   1.0000
     1.0000   1.0000   1.0000   1.0000   1.0000   1.0000   1.0000   1.0000
     1.0000   1.0000   1.0000   1.0000   1.0000   1.0000   1.0000   1.0000
     1.0000   1.0000   1.0000   1.0000   1.0000   1.0000   1.0000   1.0000
     1.0000   1.0000   1.0000   1.0000   1.0000   1.0000   1.0000   1.0000
     1.0000   1.0000   1.0000   1.0000   1.0000   1.0000   1.0000   1.0000
     1.0000   1.0000   1.0000   1.0000   1.0000   1.0000   1.0000   1.0000
     1.0000   1.0000   1.0000   1.0000   1.0000   1.0000   1.0000   1.0000
     1.0000   1.0000   1.0000   1.0000   1.0000   1.0000   1.0000   1.0000
     1.0000   1.0000   1.0000   1.0000   1.0000   1.0000   1.0000   1.0000
     1.0000   1.0000   1.0000   1.0000   1.0000   1.0000   1.0000   1.0000
     1.0000   1.0000   1.0000   1.0000   1.0000   1.0000   1.0000   1.0000
     1.0000   1.0000   1.0000   1.0000   1.0000   1.0000   1.0000   1.0000
     1.0000   1.0000   1.0000   1.0000   1.0000   1.0000   1.0000   1.0000
     1.0000   1.0000   1.0000   1.0000   1.0000   1.0000   1.0000   1.0000
     1.0000   1.0000   1.0000   1.0000   1.0000   1.0000   1.0000   1.0000
     1.0000   1.0000   1.0000   1.0000   1.0000   1.0000   1.0000   1.0000
     1.0000   1.0000   1.0000   1.0000   1.0000   1.0000   1.0000   1.0000
     1.0000   1.0000   1.0000   1.0000   1.0000   1.0000   1.0000   1.0000
     1.0000   1.0000   1.0000   1.0000   1.0000   1.0000   1.0000   1.0000
     1.0000   1.0000   1.0000   1.0000   1.0000   1.0000   1.0000   1.0000
     1.0000   1.0000   1.0000   1.0000   1.0000   1.0000   1.0000   1.0000
     1.0000   1.0000   1.0000   1.0000   1.0000   1.0000   1.0000   1.0000
     1.0000   1.0000   1.0000   1.0000   1.0000   1.0000   1.0000   1.0000
     1.0000   1.0000   1.0000   1.0000   1.0000   1.0000   1.0000   1.0000
     0.0000   0.0000   0.0000   0.0000   0.0000   0.0000   0.0000   0.0000
     0.0000   0.0000   0.0000   0.0000   0.0000   0.0000   0.0000   0.0000
     0.0000   0.0000   0.0000   0.0000   0.0000   0.0000   0.0000   0.0000
     0.0000   0.0000   0.0000   0.0000   0.0000   0.0000   0.0000   0.0000
     0.0000   0.0000   0.0000   0.0000   0.0000   0.0000   0.0000   0.0000
     0.0000   0.0000   0.0000   0.0000   0.0000   0.0000   0.0000   0.0000
     0.0000   0.0000   0.0000   0.0000   0.0000   0.0000   0.0000   0.0000
     0.0000   0.0000   0.0000   0.0000   0.0000   0.0000   0.0000   0.0000
     0.0000   0.0000   0.0000   0.0000   0.0000   0.0000   0.0000   0.0000
     0.0000   0.0000   0.0000   0.0000   0.0000   0.0000   0.0000   0.0000
     0.0000   0.0000   0.0000   0.0000   0.0000   0.0000   0.0000   0.0000
     0.0000   0.0000   0.0000   0.0000   0.0000   0.0000   0.0000   0.0000
     0.0000   0.0000   0.0000   0.0000   0.0000   0.0000   0.0000   0.0000
     0.0000   0.0000   0.0000   0.0000   0.0000   0.0000   0.0000   0.0000
     0.0000   0.0000   0.0000   0.0000   0.0000   0.0000   0.0000   0.0000
     0.0000   0.0000   0.0000   0.0000   0.0000   0.0000   0.0000   0.0000
     0.0000   0.0000   0.0000   0.0000   0.0000   0.0000   0.0000   0.0000
     0.0000   0.0000   0.0000   0.0000   0.0000   0.0000   0.0000   0.0000
     0.0000   0.0000   0.0000   0.0000

          k = 0.7500 0.7500 0.7500 ( 73932 PWs)   bands (ev):

   -18.1281 -18.1281 -18.0397 -18.0397 -17.9993 -17.9993 -17.9954 -17.9954
   -17.9651 -17.9651 -17.9608 -17.9608 -17.8047 -17.8047 -17.7796 -17.7796
   -15.3216 -15.3216 -15.3009 -15.3009 -15.2532 -15.2525 -15.2495 -15.2489
   -15.2402 -15.2401 -15.2354 -15.2351 -15.2228 -15.2228 -15.2149 -15.2149
   -15.1849 -15.1848 -15.1675 -15.1675 -15.0949 -15.0948 -15.0876 -15.0876
   -15.0734 -15.0733 -15.0688 -15.0687 -15.0092 -15.0092 -15.0005 -15.0005
   -12.7915 -12.7898 -12.7729 -12.7700 -12.7693 -12.7680 -12.7354 -12.7314
   -12.7269 -12.7264 -12.7236 -12.7222 -12.7154 -12.7128 -12.6962 -12.6949
   -12.6832 -12.6825 -12.6577 -12.6571 -12.6568 -12.6567 -12.6484 -12.6472
   -12.6440 -12.6436 -12.6337 -12.6336 -12.5941 -12.5927 -12.5901 -12.5899
   -12.5701 -12.5693 -12.5620 -12.5611 -12.5403 -12.5391 -12.5069 -12.5061
   -12.4985 -12.4983 -12.4915 -12.4912 -12.4900 -12.4895 -12.4173 -12.4172
   -11.4009 -11.3998 -11.3520 -11.3507 -11.2629 -11.2627 -11.2457 -11.2449
   -11.2019 -11.1999 -11.1698 -11.1681 -11.0985 -11.0973 -11.0705 -11.0686
   -11.0523 -11.0487 -11.0272 -11.0242 -11.0121 -11.0085 -10.9703 -10.9686
   -10.9529 -10.9497 -10.9177 -10.9157 -10.8900 -10.8889 -10.8562 -10.8532
   -10.8276 -10.8264 -10.7855 -10.7839 -10.7649 -10.7634 -10.6838 -10.6831
   -10.6441 -10.6434 -10.6256 -10.6250 -10.5876 -10.5869 -10.5431 -10.5427
    -6.0981  -6.0979  -6.0136  -6.0132  -5.9767  -5.9763  -5.9725  -5.9722
    -5.9426  -5.9395  -5.9372  -5.9342  -5.7960  -5.7957  -5.7737  -5.7733
    -5.1946  -5.1933  -4.9058  -4.9056  -4.8837  -4.8824  -4.8308  -4.8295
    -4.5876  -4.5839  -4.5395  -4.5364  -4.5059  -4.4999  -4.4959  -4.4888
    -4.4772  -4.4763  -4.4200  -4.4143  -4.3997  -4.3940  -4.3878  -4.3839
    -4.3779  -4.3761  -4.3662  -4.3640  -4.3597  -4.3575  -4.3523  -4.3489
    -4.3437  -4.3399  -4.3222  -4.3180  -4.3157  -4.3142  -4.2308  -4.2244
    -4.2067  -4.2016  -4.1883  -4.1862  -4.1832  -4.1774  -4.1682  -4.1584
    -0.8762  -0.7989  -0.6847  -0.6504  -0.6147  -0.5873  -0.5627  -0.5407
    -0.5198  -0.4994  -0.4831  -0.4600  -0.4349  -0.3997  -0.3906  -0.3710
    -0.3493  -0.3272  -0.2985  -0.2834  -0.2271  -0.1991  -0.1917  -0.1750
     0.1955   0.2261   0.2697   0.2772   0.3018   0.3178   0.3316   0.3483
     0.3528   0.3765   0.4011   0.4091   0.4248   0.4327   0.4503   0.4680
     0.4749   0.4952   0.5082   0.5223   0.5362   0.5591   0.6016   0.6171
     0.6570   0.6867   0.7056   0.7161   0.7367   0.7511   0.7611   0.7772
     0.7891   0.8020   0.8130   0.8338   0.8452   0.8552   0.8662   0.8733
     0.8776   0.9077   0.9114   0.9265   0.9357   0.9454   0.9631   0.9659
     0.9819   0.9909   0.9980   1.0110   1.0188   1.0296   1.0464   1.0618
     1.0745   1.0938   1.0991   1.1147   1.1173   1.1277   1.1357   1.1458
     1.1592   1.1723   1.1848   1.1964   1.2034   1.2217   1.2285   1.2450
     1.2547   1.2620   1.2787   1.2837   1.3039   1.3087   1.3195   1.3405
     1.3516   1.3599   1.3723   1.3814   1.3967   1.4156   1.4174   1.4278
     1.4573   1.4639   1.4665   1.4965   1.5047   1.5159   1.5302   1.5433
     1.5517   1.5575   1.5779   1.5865   1.6136   1.6271   1.6466   1.6548
     1.6755   1.6873   1.7016   1.7150   1.7445   1.7638   1.8086   1.8460
     1.9231   1.9444   1.9966   2.0279   2.0605   2.0783   2.2032   2.2086
     4.3171   4.4316   4.7149   4.7484   4.7975   4.8433   4.9374   5.0089
     5.2805   5.3511   5.3905   5.4128   5.4942   5.5685   5.7249   5.7496
     5.7990   5.8601   5.9598   6.0162   6.0530   6.0903   6.1139   6.1613
     6.4342   6.4817   6.7741   6.8630   6.9316   6.9800   7.0360   7.0449
     7.0915   7.1531   7.1968   7.2637   7.2955   7.3387   7.3942   7.4595
     7.4970   7.5653   7.5894   7.6352   7.6948   7.7233   7.7567   7.7803
     7.8233   7.8622   7.8881   7.9115   7.9302   7.9443   7.9877   8.0162
     8.0478   8.0630   8.0809   8.1175   8.1248   8.1515   8.1721   8.1977
     8.2253   8.2444   8.2813   8.2900   8.3309   8.3491   8.3640   8.3765
     8.4003   8.4157   8.4348   8.4681   8.4953   8.5111   8.5629   8.5884
     8.5939   8.5994   8.6205   8.6304   8.6522   8.6684   8.6957   8.7054
     8.7407   8.7437   8.7593   8.7878   8.8100   8.8302   8.8426   8.8538
     8.8717   8.8837   8.9095   8.9301   8.9425   8.9473   8.9627   8.9766
     9.0041   9.0142   9.0262   9.0468   9.0830   9.0953   9.1304   9.1443
     9.1821   9.2051   9.2289   9.2500   9.2708   9.2809   9.2950   9.3106
     9.3369   9.3454   9.3570   9.3738   9.4091   9.4272   9.4340   9.4452
     9.4735   9.4779   9.5131   9.5246   9.5419   9.5652   9.5866   9.5957
     9.6102   9.6244   9.6409   9.6570   9.6789   9.7014   9.7475   9.7589
     9.8819   9.9062   9.9716   9.9917

     occupation numbers 
     1.0000   1.0000   1.0000   1.0000   1.0000   1.0000   1.0000   1.0000
     1.0000   1.0000   1.0000   1.0000   1.0000   1.0000   1.0000   1.0000
     1.0000   1.0000   1.0000   1.0000   1.0000   1.0000   1.0000   1.0000
     1.0000   1.0000   1.0000   1.0000   1.0000   1.0000   1.0000   1.0000
     1.0000   1.0000   1.0000   1.0000   1.0000   1.0000   1.0000   1.0000
     1.0000   1.0000   1.0000   1.0000   1.0000   1.0000   1.0000   1.0000
     1.0000   1.0000   1.0000   1.0000   1.0000   1.0000   1.0000   1.0000
     1.0000   1.0000   1.0000   1.0000   1.0000   1.0000   1.0000   1.0000
     1.0000   1.0000   1.0000   1.0000   1.0000   1.0000   1.0000   1.0000
     1.0000   1.0000   1.0000   1.0000   1.0000   1.0000   1.0000   1.0000
     1.0000   1.0000   1.0000   1.0000   1.0000   1.0000   1.0000   1.0000
     1.0000   1.0000   1.0000   1.0000   1.0000   1.0000   1.0000   1.0000
     1.0000   1.0000   1.0000   1.0000   1.0000   1.0000   1.0000   1.0000
     1.0000   1.0000   1.0000   1.0000   1.0000   1.0000   1.0000   1.0000
     1.0000   1.0000   1.0000   1.0000   1.0000   1.0000   1.0000   1.0000
     1.0000   1.0000   1.0000   1.0000   1.0000   1.0000   1.0000   1.0000
     1.0000   1.0000   1.0000   1.0000   1.0000   1.0000   1.0000   1.0000
     1.0000   1.0000   1.0000   1.0000   1.0000   1.0000   1.0000   1.0000
     1.0000   1.0000   1.0000   1.0000   1.0000   1.0000   1.0000   1.0000
     1.0000   1.0000   1.0000   1.0000   1.0000   1.0000   1.0000   1.0000
     1.0000   1.0000   1.0000   1.0000   1.0000   1.0000   1.0000   1.0000
     1.0000   1.0000   1.0000   1.0000   1.0000   1.0000   1.0000   1.0000
     1.0000   1.0000   1.0000   1.0000   1.0000   1.0000   1.0000   1.0000
     1.0000   1.0000   1.0000   1.0000   1.0000   1.0000   1.0000   1.0000
     1.0000   1.0000   1.0000   1.0000   1.0000   1.0000   1.0000   1.0000
     1.0000   1.0000   1.0000   1.0000   1.0000   1.0000   1.0000   1.0000
     1.0000   1.0000   1.0000   1.0000   1.0000   1.0000   1.0000   1.0000
     1.0000   1.0000   1.0000   1.0000   1.0000   1.0000   1.0000   1.0000
     1.0000   1.0000   1.0000   1.0000   1.0000   1.0000   1.0000   1.0000
     1.0000   1.0000   1.0000   1.0000   1.0000   1.0000   1.0000   1.0000
     1.0000   1.0000   1.0000   1.0000   1.0000   1.0000   1.0000   1.0000
     1.0000   1.0000   1.0000   1.0000   1.0000   1.0000   1.0000   1.0000
     1.0000   1.0000   1.0000   1.0000   1.0000   1.0000   1.0000   1.0000
     1.0000   1.0000   1.0000   1.0000   1.0000   1.0000   1.0000   1.0000
     1.0000   1.0000   1.0000   1.0000   1.0000   1.0000   1.0000   1.0000
     1.0000   1.0000   1.0000   1.0000   1.0000   1.0000   1.0000   1.0000
     1.0000   1.0000   1.0000   1.0000   1.0000   1.0000   1.0000   1.0000
     1.0000   1.0000   1.0000   1.0000   1.0000   1.0000   1.0000   1.0000
     1.0000   1.0000   1.0000   1.0000   1.0000   1.0000   1.0000   1.0000
     1.0000   1.0000   1.0000   1.0000   1.0000   1.0000   1.0000   1.0000
     1.0000   1.0000   1.0000   1.0000   1.0000   1.0000   1.0000   1.0000
     1.0000   1.0000   1.0000   1.0000   1.0000   1.0000   1.0000   1.0000
     1.0000   1.0000   1.0000   1.0000   1.0000   1.0000   1.0000   1.0000
     1.0000   1.0000   1.0000   1.0000   1.0000   1.0000   1.0000   1.0000
     0.0000   0.0000   0.0000   0.0000   0.0000   0.0000   0.0000   0.0000
     0.0000   0.0000   0.0000   0.0000   0.0000   0.0000   0.0000   0.0000
     0.0000   0.0000   0.0000   0.0000   0.0000   0.0000   0.0000   0.0000
     0.0000   0.0000   0.0000   0.0000   0.0000   0.0000   0.0000   0.0000
     0.0000   0.0000   0.0000   0.0000   0.0000   0.0000   0.0000   0.0000
     0.0000   0.0000   0.0000   0.0000   0.0000   0.0000   0.0000   0.0000
     0.0000   0.0000   0.0000   0.0000   0.0000   0.0000   0.0000   0.0000
     0.0000   0.0000   0.0000   0.0000   0.0000   0.0000   0.0000   0.0000
     0.0000   0.0000   0.0000   0.0000   0.0000   0.0000   0.0000   0.0000
     0.0000   0.0000   0.0000   0.0000   0.0000   0.0000   0.0000   0.0000
     0.0000   0.0000   0.0000   0.0000   0.0000   0.0000   0.0000   0.0000
     0.0000   0.0000   0.0000   0.0000   0.0000   0.0000   0.0000   0.0000
     0.0000   0.0000   0.0000   0.0000   0.0000   0.0000   0.0000   0.0000
     0.0000   0.0000   0.0000   0.0000   0.0000   0.0000   0.0000   0.0000
     0.0000   0.0000   0.0000   0.0000   0.0000   0.0000   0.0000   0.0000
     0.0000   0.0000   0.0000   0.0000   0.0000   0.0000   0.0000   0.0000
     0.0000   0.0000   0.0000   0.0000   0.0000   0.0000   0.0000   0.0000
     0.0000   0.0000   0.0000   0.0000   0.0000   0.0000   0.0000   0.0000
     0.0000   0.0000   0.0000   0.0000

     highest occupied, lowest unoccupied level (ev):     2.6665    3.7850

     Writing output data file ./temp/cspbbr3.save/
 
     init_run     :      0.42s CPU      0.47s WALL (       1 calls)
     electrons    :    790.84s CPU    799.25s WALL (       1 calls)

     Called by init_run:
     wfcinit      :      0.00s CPU      0.01s WALL (       1 calls)
     wfcinit:atom :      0.31s CPU      0.39s WALL (      16 calls)
     wfcinit:wfcr :     24.13s CPU     24.61s WALL (      16 calls)
     potinit      :      0.04s CPU      0.06s WALL (       1 calls)
     hinit0       :      0.04s CPU      0.05s WALL (       1 calls)

     Called by electrons:
     c_bands      :    790.82s CPU    799.24s WALL (       1 calls)
     v_of_rho     :      0.02s CPU      0.03s WALL (       1 calls)
     v_h          :      0.00s CPU      0.00s WALL (       1 calls)
     v_xc         :      0.02s CPU      0.02s WALL (       1 calls)

     Called by c_bands:
     init_us_2    :      0.09s CPU      0.10s WALL (      16 calls)
     cegterg      :    639.34s CPU    645.69s WALL (      42 calls)

     Called by sum_band:

     Called by *egterg:
     cdiaghg      :     63.88s CPU     64.24s WALL (     736 calls)
     cegterg:over :    105.38s CPU    105.73s WALL (     720 calls)
     cegterg:upda :     84.31s CPU     84.99s WALL (     720 calls)
     cegterg:last :    135.46s CPU    136.26s WALL (     226 calls)
     cdiaghg:chol :      3.88s CPU      3.90s WALL (     736 calls)
     cdiaghg:inve :      0.39s CPU      0.40s WALL (     736 calls)
     cdiaghg:para :     10.97s CPU     11.07s WALL (    1472 calls)
     h_psi        :    253.12s CPU    257.01s WALL (     778 calls)
     g_psi        :      2.03s CPU      2.04s WALL (     720 calls)

     Called by h_psi:
     h_psi:calbec :     31.63s CPU     31.79s WALL (     778 calls)
     vloc_psi     :    184.74s CPU    187.50s WALL (     778 calls)
     add_vuspsi   :     33.14s CPU     33.34s WALL (     778 calls)

     General routines
     calbec       :     31.63s CPU     31.78s WALL (     778 calls)
     fft          :      0.01s CPU      0.02s WALL (      13 calls)
     fftw         :    159.71s CPU    162.08s WALL (  471764 calls)
     davcio       :      0.00s CPU      1.05s WALL (      32 calls)
 
     Parallel routines
     fft_scatt_xy :     20.04s CPU     20.24s WALL (  471777 calls)
     fft_scatt_yz :     74.08s CPU     75.23s WALL (  471777 calls)
 
     PWSCF        :  13m33.82s CPU  13m58.55s WALL

 
   This run was terminated on:  18: 8:44  27Sep2021            

=------------------------------------------------------------------------------=
   JOB DONE.
=------------------------------------------------------------------------------=
