
     Program PWSCF v.6.6 starts on 27Sep2021 at 17:42:19 

     This program is part of the open-source Quantum ESPRESSO suite
     for quantum simulation of materials; please cite
         "P. Giannozzi et al., J. Phys.:Condens. Matter 21 395502 (2009);
         "P. Giannozzi et al., J. Phys.:Condens. Matter 29 465901 (2017);
          URL http://www.quantum-espresso.org", 
     in publications or presentations arising from this work. More details at
     http://www.quantum-espresso.org/quote

     Parallel version (MPI), running on   160 processors

     MPI processes distributed on     4 nodes
     K-points division:     npool     =       4
     R & G space division:  proc/nbgrp/npool/nimage =      40
     Fft bands division:     nmany     =       1
     Reading input from scf.in

     Current dimensions of program PWSCF are:
     Max number of different atomic species (ntypx) = 10
     Max number of k-points (npk) =  40000
     Max angular momentum in pseudopotentials (lmaxx) =  3
     Message from routine scan_end:
     No INFO block end statement, possibly corrupted file
     Message from routine scan_end:
     No INFO block end statement, possibly corrupted file
     Message from routine scan_end:
     No INFO block end statement, possibly corrupted file

     Subspace diagonalization in iterative solution of the eigenvalue problem:
     one sub-group per band group will be used
     scalapack distributed-memory algorithm (size of sub-group:  6*  6 procs)

 
     Parallelization info
     --------------------
     sticks:   dense  smooth     PW     G-vecs:    dense   smooth      PW
     Min         213     213     55                14783    14783    1987
     Max         214     214     57                14786    14786    1992
     Sum        8521    8521   2241               591361   591361   79597
 


     bravais-lattice index     =            0
     lattice parameter (alat)  =      22.6851  a.u.
     unit-cell volume          =   11674.1042 (a.u.)^3
     number of atoms/cell      =           40
     number of atomic types    =            3
     number of electrons       =       352.00
     number of Kohn-Sham states=          352
     kinetic-energy cutoff     =      52.0000  Ry
     charge density cutoff     =     208.0000  Ry
     convergence threshold     =      1.0E-08
     mixing beta               =       0.5000
     number of iterations used =            8  TF        mixing
     Exchange-correlation= SLA  PW   PBE  PBE
                           (   1   4   3   4   0   0   0)
     Non magnetic calculation with spin-orbit


     celldm(1)=  22.685126  celldm(2)=   0.000000  celldm(3)=   0.000000
     celldm(4)=   0.000000  celldm(5)=   0.000000  celldm(6)=   0.000000

     crystal axes: (cart. coord. in units of alat)
               a(1) = (   1.000000   0.000000   0.000000 )  
               a(2) = (   0.000000   1.000000   0.000000 )  
               a(3) = (   0.000000   0.000000   1.000000 )  

     reciprocal axes: (cart. coord. in units 2 pi/alat)
               b(1) = (  1.000000  0.000000  0.000000 )  
               b(2) = (  0.000000  1.000000  0.000000 )  
               b(3) = (  0.000000  0.000000  1.000000 )  


     PseudoPot. # 1 for Cs read from file:
     ../cs_frl_gga.upf
     MD5 check sum: a448e0e7e3712c417dccd39c3bf63eee
     Pseudo is Norm-conserving, Zval =  9.0
     Generated by new atomic code, or converted to UPF format
     Using radial grid of 1179 points,  5 beta functions with: 
                l(1) =   0
                l(2) =   1
                l(3) =   1
                l(4) =   2
                l(5) =   2

     PseudoPot. # 2 for Pb read from file:
     ../pb_frl_gga.upf
     MD5 check sum: 00b12db5c119af3e4e38a6ffd441034c
     Pseudo is Norm-conserving, Zval = 14.0
     Generated by new atomic code, or converted to UPF format
     Using radial grid of 1189 points,  4 beta functions with: 
                l(1) =   1
                l(2) =   1
                l(3) =   2
                l(4) =   2

     PseudoPot. # 3 for Br read from file:
     ../br_frl_gga.upf
     MD5 check sum: f268a9c02328c3f23b9552d0430e2dda
     Pseudo is Norm-conserving, Zval =  7.0
     Generated by new atomic code, or converted to UPF format
     Using radial grid of 1167 points,  3 beta functions with: 
                l(1) =   0
                l(2) =   1
                l(3) =   1

     atomic species   valence    mass     pseudopotential
        Cs             9.00   132.90543     Cs( 1.00)
        Pb            14.00   207.20000     Pb( 1.00)
        Br             7.00    79.90400     Br( 1.00)

     No symmetry found



   Cartesian axes

     site n.     atom                  positions (alat units)
         1           Cs  tau(   1) = (  -0.0255019   0.0129532  -0.0575515  )
         2           Cs  tau(   2) = (   0.4682932  -0.0280124   0.0013057  )
         3           Cs  tau(   3) = (   0.0086076   0.5359597   0.0213044  )
         4           Cs  tau(   4) = (   0.4751891   0.4829223   0.0147193  )
         5           Cs  tau(   5) = (   0.0040965   0.0258684   0.5102410  )
         6           Cs  tau(   6) = (   0.5136276   0.0223618   0.4779807  )
         7           Cs  tau(   7) = (   0.0264235   0.4980255   0.5360775  )
         8           Cs  tau(   8) = (   0.4934026   0.4725697   0.4716722  )
         9           Pb  tau(   9) = (   0.2624849   0.2592746   0.2268015  )
        10           Pb  tau(  10) = (   0.7658932   0.2386641   0.2401206  )
        11           Pb  tau(  11) = (   0.2536680   0.7584242   0.2838265  )
        12           Pb  tau(  12) = (   0.7461377   0.7441417   0.2369775  )
        13           Pb  tau(  13) = (   0.2599326   0.2459401   0.7326391  )
        14           Pb  tau(  14) = (   0.7565955   0.2596147   0.7354963  )
        15           Pb  tau(  15) = (   0.2282025   0.7496233   0.7649346  )
        16           Pb  tau(  16) = (   0.7224040   0.7297152   0.7521453  )
        17           Br  tau(  17) = (   0.2868046   0.2426520  -0.0067901  )
        18           Br  tau(  18) = (   0.7195286   0.2291042  -0.0038923  )
        19           Br  tau(  19) = (   0.2073945   0.8062282   0.0142374  )
        20           Br  tau(  20) = (   0.7739158   0.7769607  -0.0018249  )
        21           Br  tau(  21) = (   0.2618889   0.2517064   0.4982934  )
        22           Br  tau(  22) = (   0.7731697   0.2950279   0.4880423  )
        23           Br  tau(  23) = (   0.2691160   0.7020953   0.5153195  )
        24           Br  tau(  24) = (   0.7023406   0.7264009   0.5084958  )
        25           Br  tau(  25) = (   0.2591840  -0.0046063   0.3158409  )
        26           Br  tau(  26) = (   0.7519944  -0.0032558   0.2739056  )
        27           Br  tau(  27) = (   0.2468129   0.5051899   0.2553011  )
        28           Br  tau(  28) = (   0.7538971   0.4872057   0.1912342  )
        29           Br  tau(  29) = (   0.2862655  -0.0082670   0.7320405  )
        30           Br  tau(  30) = (   0.7156357   0.0066251   0.7667314  )
        31           Br  tau(  31) = (   0.2341555   0.4974444   0.7681019  )
        32           Br  tau(  32) = (   0.8150235   0.5178107   0.7730110  )
        33           Br  tau(  33) = (   0.0296413   0.2113840   0.2286431  )
        34           Br  tau(  34) = (   0.5129058   0.2576917   0.2864968  )
        35           Br  tau(  35) = (  -0.0008473   0.7156222   0.2843603  )
        36           Br  tau(  36) = (   0.4879062   0.7428467   0.2140072  )
        37           Br  tau(  37) = (   0.0085350   0.2309381   0.7426121  )
        38           Br  tau(  38) = (   0.5100428   0.3114961   0.7323320  )
        39           Br  tau(  39) = (  -0.0110398   0.7980742   0.7309277  )
        40           Br  tau(  40) = (   0.4770795   0.7080835   0.7937877  )

     number of k points=    32
                       cart. coord. in units 2pi/alat
        k(    1) = (   0.1250000   0.1250000   0.1250000), wk =   0.0312500
        k(    2) = (   0.1250000   0.1250000   0.3750000), wk =   0.0312500
        k(    3) = (   0.1250000   0.1250000  -0.3750000), wk =   0.0312500
        k(    4) = (   0.1250000   0.1250000  -0.1250000), wk =   0.0312500
        k(    5) = (   0.1250000   0.3750000   0.1250000), wk =   0.0312500
        k(    6) = (   0.1250000   0.3750000   0.3750000), wk =   0.0312500
        k(    7) = (   0.1250000   0.3750000  -0.3750000), wk =   0.0312500
        k(    8) = (   0.1250000   0.3750000  -0.1250000), wk =   0.0312500
        k(    9) = (   0.1250000  -0.3750000   0.1250000), wk =   0.0312500
        k(   10) = (   0.1250000  -0.3750000   0.3750000), wk =   0.0312500
        k(   11) = (   0.1250000  -0.3750000  -0.3750000), wk =   0.0312500
        k(   12) = (   0.1250000  -0.3750000  -0.1250000), wk =   0.0312500
        k(   13) = (   0.1250000  -0.1250000   0.1250000), wk =   0.0312500
        k(   14) = (   0.1250000  -0.1250000   0.3750000), wk =   0.0312500
        k(   15) = (   0.1250000  -0.1250000  -0.3750000), wk =   0.0312500
        k(   16) = (   0.1250000  -0.1250000  -0.1250000), wk =   0.0312500
        k(   17) = (   0.3750000   0.1250000   0.1250000), wk =   0.0312500
        k(   18) = (   0.3750000   0.1250000   0.3750000), wk =   0.0312500
        k(   19) = (   0.3750000   0.1250000  -0.3750000), wk =   0.0312500
        k(   20) = (   0.3750000   0.1250000  -0.1250000), wk =   0.0312500
        k(   21) = (   0.3750000   0.3750000   0.1250000), wk =   0.0312500
        k(   22) = (   0.3750000   0.3750000   0.3750000), wk =   0.0312500
        k(   23) = (   0.3750000   0.3750000  -0.3750000), wk =   0.0312500
        k(   24) = (   0.3750000   0.3750000  -0.1250000), wk =   0.0312500
        k(   25) = (   0.3750000  -0.3750000   0.1250000), wk =   0.0312500
        k(   26) = (   0.3750000  -0.3750000   0.3750000), wk =   0.0312500
        k(   27) = (   0.3750000  -0.3750000  -0.3750000), wk =   0.0312500
        k(   28) = (   0.3750000  -0.3750000  -0.1250000), wk =   0.0312500
        k(   29) = (   0.3750000  -0.1250000   0.1250000), wk =   0.0312500
        k(   30) = (   0.3750000  -0.1250000   0.3750000), wk =   0.0312500
        k(   31) = (   0.3750000  -0.1250000  -0.3750000), wk =   0.0312500
        k(   32) = (   0.3750000  -0.1250000  -0.1250000), wk =   0.0312500

     Dense  grid:   591361 G-vectors     FFT dimensions: ( 108, 108, 108)

     Estimated max dynamical RAM per process >     552.66 MB

     Estimated total dynamical RAM >      86.35 GB

     Initial potential from superposition of free atoms

     starting charge  342.74074, renormalised to  352.00000
     Starting wfcs are  480 randomized atomic wfcs

     total cpu time spent up to now is       17.0 secs

     Self-consistent Calculation

     iteration #  1     ecut=    52.00 Ry     beta= 0.50
     Davidson diagonalization with overlap
     ethr =  1.00E-02,  avg # of iterations =  2.0

     Threshold (ethr) on eigenvalues was too large:
     Diagonalizing with lowered threshold

     Davidson diagonalization with overlap
     ethr =  9.51E-04,  avg # of iterations =  2.0

     negative rho (up, down):  4.634E-03 0.000E+00

     total cpu time spent up to now is       71.3 secs

     total energy              =   -1927.94366851 Ry
     estimated scf accuracy    <       3.59627492 Ry

     iteration #  2     ecut=    52.00 Ry     beta= 0.50
     Davidson diagonalization with overlap
     ethr =  1.02E-03,  avg # of iterations =  1.0

     negative rho (up, down):  1.239E-02 0.000E+00

     total cpu time spent up to now is       96.4 secs

     total energy              =   -1926.94873260 Ry
     estimated scf accuracy    <       1.95810996 Ry

     iteration #  3     ecut=    52.00 Ry     beta= 0.50
     Davidson diagonalization with overlap
     ethr =  5.56E-04,  avg # of iterations =  2.9

     negative rho (up, down):  8.780E-04 0.000E+00

     total cpu time spent up to now is      137.3 secs

     total energy              =   -1927.26379043 Ry
     estimated scf accuracy    <       0.40684333 Ry

     iteration #  4     ecut=    52.00 Ry     beta= 0.50
     Davidson diagonalization with overlap
     ethr =  1.16E-04,  avg # of iterations =  2.0

     negative rho (up, down):  2.027E-04 0.000E+00

     total cpu time spent up to now is      172.0 secs

     total energy              =   -1927.19436969 Ry
     estimated scf accuracy    <       0.22875227 Ry

     iteration #  5     ecut=    52.00 Ry     beta= 0.50
     Davidson diagonalization with overlap
     ethr =  6.50E-05,  avg # of iterations =  2.0

     total cpu time spent up to now is      204.7 secs

     total energy              =   -1927.21447135 Ry
     estimated scf accuracy    <       0.04731475 Ry

     iteration #  6     ecut=    52.00 Ry     beta= 0.50
     Davidson diagonalization with overlap
     ethr =  1.34E-05,  avg # of iterations =  2.0

     total cpu time spent up to now is      235.2 secs

     total energy              =   -1927.21542091 Ry
     estimated scf accuracy    <       0.01703306 Ry

     iteration #  7     ecut=    52.00 Ry     beta= 0.50
     Davidson diagonalization with overlap
     ethr =  4.84E-06,  avg # of iterations =  3.0

     negative rho (up, down):  1.707E-05 0.000E+00

     total cpu time spent up to now is      269.0 secs

     total energy              =   -1927.21742528 Ry
     estimated scf accuracy    <       0.00533970 Ry

     iteration #  8     ecut=    52.00 Ry     beta= 0.50
     Davidson diagonalization with overlap
     ethr =  1.52E-06,  avg # of iterations =  2.0

     negative rho (up, down):  4.451E-05 0.000E+00

     total cpu time spent up to now is      302.0 secs

     total energy              =   -1927.21774769 Ry
     estimated scf accuracy    <       0.00204889 Ry

     iteration #  9     ecut=    52.00 Ry     beta= 0.50
     Davidson diagonalization with overlap
     ethr =  5.82E-07,  avg # of iterations =  2.0

     total cpu time spent up to now is      328.4 secs

     total energy              =   -1927.21760801 Ry
     estimated scf accuracy    <       0.00137374 Ry

     iteration # 10     ecut=    52.00 Ry     beta= 0.50
     Davidson diagonalization with overlap
     ethr =  3.90E-07,  avg # of iterations =  3.5

     total cpu time spent up to now is      366.8 secs

     total energy              =   -1927.21784391 Ry
     estimated scf accuracy    <       0.00044542 Ry

     iteration # 11     ecut=    52.00 Ry     beta= 0.50
     Davidson diagonalization with overlap
     ethr =  1.27E-07,  avg # of iterations =  2.0

     total cpu time spent up to now is      397.4 secs

     total energy              =   -1927.21780720 Ry
     estimated scf accuracy    <       0.00023325 Ry

     iteration # 12     ecut=    52.00 Ry     beta= 0.50
     Davidson diagonalization with overlap
     ethr =  6.63E-08,  avg # of iterations =  3.0

     total cpu time spent up to now is      431.6 secs

     total energy              =   -1927.21783393 Ry
     estimated scf accuracy    <       0.00008417 Ry

     iteration # 13     ecut=    52.00 Ry     beta= 0.50
     Davidson diagonalization with overlap
     ethr =  2.39E-08,  avg # of iterations =  2.0

     total cpu time spent up to now is      458.3 secs

     total energy              =   -1927.21783949 Ry
     estimated scf accuracy    <       0.00004204 Ry

     iteration # 14     ecut=    52.00 Ry     beta= 0.50
     Davidson diagonalization with overlap
     ethr =  1.19E-08,  avg # of iterations =  3.3

     total cpu time spent up to now is      496.5 secs

     total energy              =   -1927.21784997 Ry
     estimated scf accuracy    <       0.00001333 Ry

     iteration # 15     ecut=    52.00 Ry     beta= 0.50
     Davidson diagonalization with overlap
     ethr =  3.79E-09,  avg # of iterations =  2.0

     total cpu time spent up to now is      529.4 secs

     total energy              =   -1927.21784953 Ry
     estimated scf accuracy    <       0.00000517 Ry

     iteration # 16     ecut=    52.00 Ry     beta= 0.50
     Davidson diagonalization with overlap
     ethr =  1.47E-09,  avg # of iterations =  2.4

     total cpu time spent up to now is      563.0 secs

     total energy              =   -1927.21785101 Ry
     estimated scf accuracy    <       0.00000193 Ry

     iteration # 17     ecut=    52.00 Ry     beta= 0.50
     Davidson diagonalization with overlap
     ethr =  5.47E-10,  avg # of iterations =  3.4

     total cpu time spent up to now is      599.7 secs

     total energy              =   -1927.21785150 Ry
     estimated scf accuracy    <       0.00000048 Ry

     iteration # 18     ecut=    52.00 Ry     beta= 0.50
     Davidson diagonalization with overlap
     ethr =  1.36E-10,  avg # of iterations =  2.7

     total cpu time spent up to now is      632.6 secs

     total energy              =   -1927.21785167 Ry
     estimated scf accuracy    <       0.00000017 Ry

     iteration # 19     ecut=    52.00 Ry     beta= 0.50
     Davidson diagonalization with overlap
     ethr =  4.89E-11,  avg # of iterations =  2.0

     total cpu time spent up to now is      665.7 secs

     total energy              =   -1927.21785171 Ry
     estimated scf accuracy    <       0.00000004 Ry

     iteration # 20     ecut=    52.00 Ry     beta= 0.50
     Davidson diagonalization with overlap
     ethr =  1.20E-11,  avg # of iterations =  3.2

     total cpu time spent up to now is      699.3 secs

     total energy              =   -1927.21785172 Ry
     estimated scf accuracy    <       0.00000002 Ry

     iteration # 21     ecut=    52.00 Ry     beta= 0.50
     Davidson diagonalization with overlap
     ethr =  5.69E-12,  avg # of iterations =  2.0

     total cpu time spent up to now is      732.1 secs

     End of self-consistent calculation

          k = 0.1250 0.1250 0.1250 ( 73866 PWs)   bands (ev):

   -18.1275 -18.1275 -18.0396 -18.0396 -17.9992 -17.9992 -17.9952 -17.9952
   -17.9651 -17.9651 -17.9612 -17.9612 -17.8048 -17.8048 -17.7801 -17.7801
   -15.3215 -15.3215 -15.3008 -15.3008 -15.2539 -15.2534 -15.2491 -15.2488
   -15.2403 -15.2402 -15.2354 -15.2352 -15.2227 -15.2227 -15.2147 -15.2147
   -15.1848 -15.1847 -15.1674 -15.1674 -15.0949 -15.0949 -15.0874 -15.0874
   -15.0734 -15.0733 -15.0684 -15.0683 -15.0093 -15.0093 -15.0006 -15.0006
   -12.7942 -12.7931 -12.7765 -12.7744 -12.7703 -12.7699 -12.7323 -12.7305
   -12.7273 -12.7270 -12.7213 -12.7197 -12.7140 -12.7123 -12.6983 -12.6975
   -12.6844 -12.6839 -12.6576 -12.6573 -12.6565 -12.6564 -12.6459 -12.6446
   -12.6416 -12.6414 -12.6335 -12.6334 -12.5940 -12.5931 -12.5900 -12.5898
   -12.5696 -12.5691 -12.5636 -12.5630 -12.5372 -12.5365 -12.5057 -12.5051
   -12.4983 -12.4982 -12.4909 -12.4908 -12.4886 -12.4881 -12.4174 -12.4173
   -11.4115 -11.4109 -11.3383 -11.3374 -11.2587 -11.2581 -11.2443 -11.2433
   -11.1951 -11.1931 -11.1605 -11.1590 -11.0923 -11.0911 -11.0773 -11.0734
   -11.0514 -11.0499 -11.0302 -11.0291 -11.0179 -11.0158 -10.9842 -10.9834
   -10.9681 -10.9655 -10.9140 -10.9130 -10.8919 -10.8907 -10.8669 -10.8643
   -10.8274 -10.8263 -10.7856 -10.7843 -10.7588 -10.7579 -10.6845 -10.6840
   -10.6411 -10.6406 -10.6275 -10.6273 -10.5768 -10.5761 -10.5376 -10.5374
    -6.0976  -6.0975  -6.0136  -6.0132  -5.9775  -5.9772  -5.9717  -5.9714
    -5.9424  -5.9405  -5.9363  -5.9344  -5.7959  -5.7957  -5.7741  -5.7738
    -5.3091  -5.3084  -4.9359  -4.9353  -4.8950  -4.8942  -4.8560  -4.8549
    -4.5174  -4.5139  -4.5054  -4.4987  -4.4898  -4.4840  -4.4758  -4.4716
    -4.4500  -4.4448  -4.4172  -4.4111  -4.3979  -4.3942  -4.3862  -4.3815
    -4.3770  -4.3746  -4.3659  -4.3643  -4.3563  -4.3552  -4.3490  -4.3473
    -4.3424  -4.3398  -4.3202  -4.3183  -4.3141  -4.3134  -4.2159  -4.2152
    -4.1906  -4.1897  -4.1879  -4.1860  -4.1764  -4.1759  -4.0187  -4.0176
    -0.9961  -0.9342  -0.8083  -0.7831  -0.7446  -0.7229  -0.6844  -0.6726
    -0.6572  -0.6361  -0.6178  -0.5923  -0.5608  -0.5379  -0.4998  -0.4854
    -0.4664  -0.4550  -0.4308  -0.4116  -0.3492  -0.3191  -0.2952  -0.2879
     0.2257   0.2438   0.2899   0.3016   0.3102   0.3240   0.4043   0.4143
     0.4195   0.4527   0.4648   0.4778   0.4932   0.5011   0.5137   0.5308
     0.5640   0.5898   0.6026   0.6146   0.6415   0.6556   0.6693   0.7062
     0.7207   0.7413   0.7547   0.7589   0.7839   0.8005   0.8129   0.8187
     0.8397   0.8471   0.8526   0.8657   0.8848   0.8959   0.9058   0.9147
     0.9219   0.9319   0.9448   0.9490   0.9688   0.9750   0.9865   0.9983
     1.0045   1.0146   1.0263   1.0347   1.0496   1.0551   1.0652   1.0797
     1.0888   1.1039   1.1083   1.1212   1.1247   1.1413   1.1488   1.1522
     1.1710   1.1776   1.1878   1.1957   1.2122   1.2184   1.2225   1.2290
     1.2507   1.2622   1.2727   1.2816   1.3035   1.3139   1.3216   1.3407
     1.3461   1.3580   1.3716   1.3871   1.3955   1.4074   1.4217   1.4345
     1.4556   1.4737   1.4833   1.4955   1.5065   1.5144   1.5371   1.5503
     1.5690   1.5755   1.5907   1.6171   1.6326   1.6414   1.6600   1.6820
     1.6966   1.7077   1.7582   1.7663   1.7963   1.8081   1.8893   1.9307
     2.0912   2.1155   2.1547   2.1667   2.2090   2.2217   2.5084   2.5176

          k = 0.1250 0.1250 0.3750 ( 73938 PWs)   bands (ev):

   -18.1275 -18.1275 -18.0396 -18.0396 -17.9992 -17.9992 -17.9952 -17.9952
   -17.9651 -17.9651 -17.9612 -17.9612 -17.8048 -17.8048 -17.7801 -17.7801
   -15.3215 -15.3215 -15.3008 -15.3008 -15.2526 -15.2517 -15.2503 -15.2496
   -15.2403 -15.2402 -15.2359 -15.2357 -15.2227 -15.2227 -15.2147 -15.2147
   -15.1848 -15.1847 -15.1674 -15.1674 -15.0949 -15.0948 -15.0874 -15.0874
   -15.0734 -15.0733 -15.0684 -15.0683 -15.0094 -15.0093 -15.0006 -15.0006
   -12.7930 -12.7918 -12.7695 -12.7691 -12.7654 -12.7608 -12.7419 -12.7369
   -12.7272 -12.7269 -12.7263 -12.7256 -12.7141 -12.7123 -12.6975 -12.6967
   -12.6838 -12.6833 -12.6575 -12.6573 -12.6566 -12.6565 -12.6469 -12.6454
   -12.6427 -12.6421 -12.6335 -12.6333 -12.5944 -12.5935 -12.5900 -12.5898
   -12.5696 -12.5690 -12.5618 -12.5613 -12.5375 -12.5368 -12.5071 -12.5066
   -12.4983 -12.4982 -12.4917 -12.4914 -12.4900 -12.4897 -12.4174 -12.4173
   -11.3965 -11.3952 -11.3655 -11.3638 -11.2607 -11.2603 -11.2336 -11.2324
   -11.1977 -11.1951 -11.1675 -11.1659 -11.0901 -11.0889 -11.0666 -11.0624
   -11.0512 -11.0501 -11.0346 -11.0325 -11.0144 -11.0131 -10.9808 -10.9795
   -10.9659 -10.9639 -10.9215 -10.9205 -10.8891 -10.8881 -10.8677 -10.8655
   -10.8126 -10.8119 -10.7837 -10.7823 -10.7613 -10.7604 -10.6849 -10.6843
   -10.6429 -10.6425 -10.6190 -10.6181 -10.5906 -10.5897 -10.5423 -10.5420
    -6.0975  -6.0974  -6.0135  -6.0131  -5.9771  -5.9768  -5.9717  -5.9715
    -5.9428  -5.9409  -5.9364  -5.9346  -5.7960  -5.7958  -5.7740  -5.7737
    -5.2007  -5.1998  -5.0331  -5.0325  -4.8268  -4.8262  -4.7759  -4.7738
    -4.6320  -4.6299  -4.5750  -4.5723  -4.5009  -4.5004  -4.4815  -4.4792
    -4.4221  -4.4172  -4.4058  -4.4001  -4.3938  -4.3901  -4.3836  -4.3779
    -4.3745  -4.3672  -4.3648  -4.3590  -4.3559  -4.3523  -4.3485  -4.3454
    -4.3340  -4.3319  -4.3206  -4.3174  -4.3127  -4.3121  -4.2202  -4.2171
    -4.1983  -4.1968  -4.1884  -4.1862  -4.1820  -4.1766  -4.1542  -4.1475
    -0.8414  -0.7956  -0.7695  -0.7449  -0.7075  -0.6745  -0.6586  -0.6381
    -0.5931  -0.5842  -0.5102  -0.5015  -0.4768  -0.4647  -0.4262  -0.3929
    -0.3842  -0.3611  -0.2103  -0.1798  -0.1495  -0.1375  -0.0989  -0.0887
     0.1012   0.1501   0.2372   0.2733   0.3001   0.3077   0.3242   0.3334
     0.3531   0.3665   0.3837   0.3996   0.4082   0.4191   0.4267   0.4404
     0.4574   0.4885   0.5118   0.5411   0.5725   0.5901   0.6038   0.6446
     0.6812   0.6923   0.7129   0.7308   0.7585   0.7659   0.7837   0.8032
     0.8140   0.8196   0.8237   0.8422   0.8576   0.8721   0.8827   0.8920
     0.9090   0.9152   0.9252   0.9426   0.9474   0.9594   0.9721   0.9827
     0.9884   0.9983   1.0165   1.0271   1.0385   1.0454   1.0607   1.0777
     1.0837   1.0917   1.1038   1.1148   1.1217   1.1328   1.1379   1.1544
     1.1593   1.1775   1.1880   1.1950   1.2065   1.2162   1.2283   1.2357
     1.2514   1.2592   1.2763   1.2816   1.3002   1.3075   1.3169   1.3440
     1.3474   1.3665   1.3767   1.3860   1.3963   1.4117   1.4238   1.4373
     1.4492   1.4695   1.4773   1.4894   1.5039   1.5155   1.5291   1.5328
     1.5454   1.5590   1.5796   1.5936   1.6224   1.6493   1.6607   1.6748
     1.6859   1.6954   1.7278   1.7576   1.7819   1.7977   1.8279   1.8720
     1.9358   1.9661   2.0132   2.0436   2.2036   2.2237   2.3204   2.3240

          k = 0.1250 0.1250-0.3750 ( 73938 PWs)   bands (ev):

   -18.1275 -18.1275 -18.0396 -18.0396 -17.9992 -17.9992 -17.9952 -17.9952
   -17.9651 -17.9651 -17.9612 -17.9612 -17.8048 -17.8048 -17.7801 -17.7801
   -15.3215 -15.3215 -15.3008 -15.3008 -15.2526 -15.2517 -15.2503 -15.2496
   -15.2403 -15.2402 -15.2358 -15.2357 -15.2227 -15.2227 -15.2147 -15.2147
   -15.1848 -15.1847 -15.1674 -15.1674 -15.0949 -15.0948 -15.0874 -15.0874
   -15.0734 -15.0733 -15.0684 -15.0683 -15.0094 -15.0093 -15.0006 -15.0006
   -12.7930 -12.7918 -12.7696 -12.7691 -12.7655 -12.7606 -12.7419 -12.7371
   -12.7272 -12.7269 -12.7264 -12.7255 -12.7141 -12.7123 -12.6974 -12.6969
   -12.6837 -12.6833 -12.6575 -12.6572 -12.6569 -12.6563 -12.6465 -12.6459
   -12.6428 -12.6420 -12.6335 -12.6334 -12.5944 -12.5935 -12.5900 -12.5898
   -12.5696 -12.5690 -12.5617 -12.5614 -12.5377 -12.5367 -12.5071 -12.5065
   -12.4983 -12.4982 -12.4917 -12.4914 -12.4901 -12.4896 -12.4174 -12.4173
   -11.3994 -11.3979 -11.3613 -11.3597 -11.2670 -11.2659 -11.2257 -11.2244
   -11.1955 -11.1937 -11.1716 -11.1706 -11.0929 -11.0924 -11.0728 -11.0688
   -11.0519 -11.0503 -11.0327 -11.0301 -11.0006 -10.9993 -10.9832 -10.9824
   -10.9644 -10.9625 -10.9274 -10.9261 -10.8907 -10.8894 -10.8678 -10.8655
   -10.8105 -10.8099 -10.7857 -10.7845 -10.7585 -10.7578 -10.6846 -10.6841
   -10.6456 -10.6452 -10.6169 -10.6164 -10.5907 -10.5905 -10.5422 -10.5415
    -6.0975  -6.0974  -6.0135  -6.0131  -5.9772  -5.9768  -5.9717  -5.9715
    -5.9428  -5.9409  -5.9364  -5.9346  -5.7959  -5.7958  -5.7740  -5.7738
    -5.2024  -5.2020  -5.0302  -5.0296  -4.8331  -4.8315  -4.7665  -4.7656
    -4.6307  -4.6288  -4.5814  -4.5771  -4.5013  -4.5001  -4.4807  -4.4797
    -4.4232  -4.4173  -4.4039  -4.4031  -4.3941  -4.3923  -4.3800  -4.3780
    -4.3726  -4.3691  -4.3645  -4.3628  -4.3561  -4.3529  -4.3492  -4.3455
    -4.3350  -4.3320  -4.3205  -4.3169  -4.3134  -4.3104  -4.2168  -4.2157
    -4.1948  -4.1915  -4.1875  -4.1863  -4.1799  -4.1773  -4.1572  -4.1538
    -0.8479  -0.7965  -0.7655  -0.7358  -0.7065  -0.6715  -0.6524  -0.6288
    -0.5913  -0.5793  -0.5177  -0.4959  -0.4846  -0.4742  -0.4338  -0.4026
    -0.3848  -0.3722  -0.2312  -0.1979  -0.1474  -0.1357  -0.0704  -0.0542
     0.0995   0.1504   0.2440   0.2704   0.2916   0.3016   0.3179   0.3324
     0.3527   0.3686   0.3812   0.3875   0.4058   0.4161   0.4327   0.4428
     0.4680   0.4958   0.5063   0.5377   0.5676   0.5801   0.6269   0.6576
     0.6781   0.6932   0.7105   0.7388   0.7517   0.7729   0.7832   0.7922
     0.8081   0.8152   0.8316   0.8485   0.8644   0.8713   0.8842   0.8926
     0.9065   0.9205   0.9229   0.9392   0.9397   0.9518   0.9713   0.9815
     0.9885   1.0107   1.0215   1.0305   1.0353   1.0435   1.0616   1.0704
     1.0760   1.0870   1.1003   1.1105   1.1209   1.1333   1.1435   1.1532
     1.1608   1.1764   1.1829   1.1961   1.2068   1.2204   1.2259   1.2423
     1.2584   1.2632   1.2750   1.2860   1.2937   1.3126   1.3288   1.3397
     1.3600   1.3695   1.3768   1.3923   1.3948   1.4074   1.4171   1.4373
     1.4525   1.4596   1.4719   1.4825   1.4955   1.5125   1.5262   1.5332
     1.5420   1.5615   1.5746   1.6089   1.6210   1.6287   1.6389   1.6664
     1.6864   1.7092   1.7363   1.7618   1.7953   1.8213   1.8423   1.8766
     1.9092   1.9477   2.0170   2.0510   2.2084   2.2187   2.3144   2.3323

          k = 0.1250 0.1250-0.1250 ( 73866 PWs)   bands (ev):

   -18.1275 -18.1275 -18.0396 -18.0396 -17.9992 -17.9992 -17.9952 -17.9952
   -17.9651 -17.9651 -17.9612 -17.9612 -17.8048 -17.8048 -17.7801 -17.7801
   -15.3215 -15.3215 -15.3008 -15.3008 -15.2539 -15.2534 -15.2491 -15.2488
   -15.2403 -15.2402 -15.2354 -15.2353 -15.2227 -15.2227 -15.2147 -15.2147
   -15.1848 -15.1847 -15.1674 -15.1674 -15.0949 -15.0949 -15.0874 -15.0874
   -15.0734 -15.0733 -15.0684 -15.0683 -15.0093 -15.0093 -15.0006 -15.0006
   -12.7943 -12.7931 -12.7764 -12.7744 -12.7704 -12.7698 -12.7318 -12.7310
   -12.7274 -12.7270 -12.7213 -12.7197 -12.7140 -12.7123 -12.6981 -12.6976
   -12.6844 -12.6840 -12.6575 -12.6574 -12.6567 -12.6562 -12.6455 -12.6448
   -12.6419 -12.6412 -12.6335 -12.6334 -12.5940 -12.5931 -12.5900 -12.5899
   -12.5696 -12.5690 -12.5635 -12.5631 -12.5373 -12.5363 -12.5057 -12.5051
   -12.4983 -12.4982 -12.4909 -12.4908 -12.4886 -12.4882 -12.4174 -12.4173
   -11.4128 -11.4120 -11.3350 -11.3342 -11.2677 -11.2661 -11.2369 -11.2351
   -11.1903 -11.1887 -11.1650 -11.1642 -11.0957 -11.0955 -11.0828 -11.0795
   -11.0520 -11.0501 -11.0279 -11.0259 -11.0043 -11.0027 -10.9874 -10.9862
   -10.9676 -10.9651 -10.9195 -10.9180 -10.8936 -10.8920 -10.8670 -10.8644
   -10.8252 -10.8241 -10.7869 -10.7858 -10.7564 -10.7559 -10.6842 -10.6837
   -10.6449 -10.6443 -10.6254 -10.6244 -10.5768 -10.5765 -10.5376 -10.5369
    -6.0976  -6.0974  -6.0136  -6.0132  -5.9776  -5.9771  -5.9716  -5.9714
    -5.9424  -5.9406  -5.9363  -5.9345  -5.7959  -5.7958  -5.7740  -5.7738
    -5.3096  -5.3092  -4.9380  -4.9373  -4.8933  -4.8926  -4.8525  -4.8516
    -4.5169  -4.5120  -4.5018  -4.5000  -4.4965  -4.4908  -4.4772  -4.4739
    -4.4486  -4.4427  -4.4192  -4.4101  -4.3964  -4.3940  -4.3846  -4.3823
    -4.3775  -4.3749  -4.3659  -4.3642  -4.3557  -4.3549  -4.3495  -4.3473
    -4.3416  -4.3405  -4.3194  -4.3189  -4.3138  -4.3131  -4.2159  -4.2147
    -4.1906  -4.1890  -4.1869  -4.1863  -4.1760  -4.1757  -4.0193  -4.0172
    -0.9991  -0.9301  -0.8160  -0.7621  -0.7347  -0.7146  -0.6923  -0.6780
    -0.6541  -0.6399  -0.6089  -0.5893  -0.5723  -0.5506  -0.5042  -0.4999
    -0.4852  -0.4671  -0.4271  -0.4105  -0.3376  -0.3113  -0.2900  -0.2698
     0.2240   0.2462   0.2870   0.2943   0.3138   0.3224   0.3953   0.4149
     0.4229   0.4572   0.4626   0.4844   0.4949   0.4977   0.5125   0.5247
     0.5589   0.5821   0.6049   0.6180   0.6374   0.6723   0.6783   0.7014
     0.7282   0.7383   0.7472   0.7731   0.7761   0.7901   0.8026   0.8203
     0.8373   0.8510   0.8621   0.8768   0.8826   0.8928   0.9010   0.9145
     0.9259   0.9333   0.9496   0.9590   0.9672   0.9726   0.9839   0.9938
     1.0063   1.0141   1.0277   1.0410   1.0479   1.0574   1.0698   1.0816
     1.0903   1.0932   1.1044   1.1101   1.1243   1.1327   1.1442   1.1611
     1.1701   1.1719   1.1884   1.2037   1.2098   1.2141   1.2234   1.2464
     1.2515   1.2636   1.2829   1.2892   1.3045   1.3090   1.3183   1.3281
     1.3530   1.3644   1.3751   1.3876   1.3952   1.4109   1.4223   1.4324
     1.4539   1.4582   1.4769   1.4893   1.5021   1.5281   1.5368   1.5476
     1.5601   1.5778   1.5844   1.6150   1.6251   1.6397   1.6605   1.6687
     1.6901   1.7164   1.7600   1.7838   1.8070   1.8196   1.8968   1.9136
     2.0833   2.1276   2.1464   2.1745   2.1923   2.2370   2.5038   2.5198

          k = 0.1250 0.3750 0.1250 ( 73938 PWs)   bands (ev):

   -18.1275 -18.1275 -18.0396 -18.0396 -17.9992 -17.9992 -17.9952 -17.9952
   -17.9651 -17.9651 -17.9612 -17.9612 -17.8048 -17.8048 -17.7801 -17.7801
   -15.3215 -15.3215 -15.3008 -15.3008 -15.2539 -15.2534 -15.2491 -15.2488
   -15.2403 -15.2402 -15.2354 -15.2352 -15.2226 -15.2226 -15.2147 -15.2147
   -15.1848 -15.1848 -15.1675 -15.1675 -15.0949 -15.0949 -15.0874 -15.0874
   -15.0734 -15.0734 -15.0684 -15.0683 -15.0093 -15.0093 -15.0006 -15.0006
   -12.7942 -12.7931 -12.7763 -12.7743 -12.7699 -12.7695 -12.7320 -12.7302
   -12.7271 -12.7268 -12.7208 -12.7191 -12.7126 -12.7108 -12.6943 -12.6934
   -12.6821 -12.6816 -12.6576 -12.6573 -12.6567 -12.6565 -12.6503 -12.6497
   -12.6436 -12.6426 -12.6336 -12.6335 -12.5947 -12.5938 -12.5900 -12.5899
   -12.5715 -12.5710 -12.5637 -12.5632 -12.5373 -12.5366 -12.5065 -12.5059
   -12.4984 -12.4983 -12.4910 -12.4908 -12.4887 -12.4882 -12.4174 -12.4174
   -11.4076 -11.4069 -11.3378 -11.3369 -11.2675 -11.2668 -11.2361 -11.2346
   -11.2071 -11.2051 -11.1757 -11.1736 -11.0988 -11.0978 -11.0772 -11.0751
   -11.0574 -11.0551 -11.0281 -11.0270 -11.0170 -11.0150 -10.9629 -10.9616
   -10.9373 -10.9350 -10.9117 -10.9104 -10.8860 -10.8847 -10.8622 -10.8596
   -10.8404 -10.8386 -10.7865 -10.7855 -10.7676 -10.7665 -10.6807 -10.6803
   -10.6474 -10.6470 -10.6262 -10.6258 -10.5782 -10.5778 -10.5432 -10.5429
    -6.0975  -6.0974  -6.0135  -6.0132  -5.9766  -5.9763  -5.9722  -5.9720
    -5.9423  -5.9403  -5.9367  -5.9347  -5.7961  -5.7959  -5.7741  -5.7738
    -5.2312  -5.2304  -4.9883  -4.9878  -4.8323  -4.8308  -4.7996  -4.7988
    -4.6105  -4.6087  -4.5712  -4.5686  -4.5015  -4.5004  -4.4791  -4.4784
    -4.4266  -4.4246  -4.4058  -4.3985  -4.3927  -4.3899  -4.3839  -4.3801
    -4.3734  -4.3719  -4.3637  -4.3585  -4.3575  -4.3557  -4.3487  -4.3431
    -4.3366  -4.3310  -4.3187  -4.3170  -4.3155  -4.3138  -4.2219  -4.2183
    -4.1972  -4.1941  -4.1880  -4.1859  -4.1812  -4.1754  -4.1447  -4.1409
    -0.9809  -0.9480  -0.7751  -0.7563  -0.6750  -0.6625  -0.6457  -0.6350
    -0.5901  -0.5622  -0.5303  -0.5194  -0.4539  -0.4427  -0.4016  -0.3871
    -0.2766  -0.2581  -0.2174  -0.2086  -0.1910  -0.1667  -0.1192  -0.1089
     0.1779   0.1962   0.2201   0.2430   0.2668   0.2857   0.3079   0.3197
     0.3392   0.3610   0.3709   0.4132   0.4250   0.4425   0.4560   0.4791
     0.4981   0.5160   0.5245   0.5469   0.5595   0.5957   0.6079   0.6495
     0.6721   0.6981   0.7082   0.7287   0.7559   0.7629   0.7689   0.7932
     0.8127   0.8169   0.8338   0.8429   0.8483   0.8711   0.8799   0.8868
     0.9051   0.9159   0.9270   0.9404   0.9490   0.9647   0.9720   0.9836
     0.9919   1.0066   1.0105   1.0233   1.0330   1.0423   1.0473   1.0749
     1.0860   1.0916   1.1045   1.1116   1.1374   1.1456   1.1515   1.1562
     1.1628   1.1702   1.1863   1.2010   1.2048   1.2200   1.2275   1.2510
     1.2576   1.2652   1.2749   1.2791   1.3049   1.3081   1.3202   1.3353
     1.3408   1.3533   1.3720   1.3826   1.3902   1.4099   1.4197   1.4236
     1.4479   1.4535   1.4706   1.4867   1.4989   1.5063   1.5208   1.5379
     1.5583   1.5623   1.5867   1.6013   1.6101   1.6264   1.6548   1.6659
     1.7010   1.7167   1.7461   1.7484   1.7795   1.8100   1.8841   1.8943
     1.9250   1.9456   2.0349   2.0630   2.1844   2.2045   2.3288   2.3389

          k = 0.1250 0.3750 0.3750 ( 73952 PWs)   bands (ev):

   -18.1275 -18.1275 -18.0396 -18.0396 -17.9992 -17.9992 -17.9952 -17.9952
   -17.9651 -17.9651 -17.9612 -17.9612 -17.8048 -17.8048 -17.7801 -17.7801
   -15.3215 -15.3215 -15.3008 -15.3008 -15.2526 -15.2517 -15.2503 -15.2496
   -15.2403 -15.2402 -15.2359 -15.2357 -15.2226 -15.2226 -15.2147 -15.2147
   -15.1848 -15.1848 -15.1675 -15.1675 -15.0949 -15.0949 -15.0874 -15.0874
   -15.0734 -15.0733 -15.0684 -15.0683 -15.0094 -15.0094 -15.0006 -15.0006
   -12.7929 -12.7917 -12.7691 -12.7687 -12.7653 -12.7607 -12.7417 -12.7368
   -12.7270 -12.7267 -12.7257 -12.7249 -12.7128 -12.7109 -12.6931 -12.6921
   -12.6819 -12.6813 -12.6576 -12.6573 -12.6568 -12.6566 -12.6508 -12.6500
   -12.6454 -12.6443 -12.6336 -12.6335 -12.5950 -12.5941 -12.5900 -12.5899
   -12.5714 -12.5708 -12.5622 -12.5616 -12.5376 -12.5369 -12.5078 -12.5073
   -12.4983 -12.4982 -12.4919 -12.4915 -12.4900 -12.4897 -12.4174 -12.4174
   -11.3947 -11.3934 -11.3634 -11.3619 -11.2660 -11.2657 -11.2313 -11.2297
   -11.1982 -11.1963 -11.1836 -11.1817 -11.1105 -11.1098 -11.0674 -11.0649
   -11.0589 -11.0562 -11.0252 -11.0221 -11.0076 -11.0052 -10.9616 -10.9606
   -10.9378 -10.9348 -10.9197 -10.9173 -10.8810 -10.8805 -10.8633 -10.8611
   -10.8299 -10.8290 -10.7886 -10.7875 -10.7624 -10.7613 -10.6798 -10.6791
   -10.6532 -10.6524 -10.6196 -10.6187 -10.5901 -10.5896 -10.5466 -10.5463
    -6.0974  -6.0974  -6.0134  -6.0131  -5.9764  -5.9761  -5.9722  -5.9720
    -5.9426  -5.9406  -5.9369  -5.9349  -5.7961  -5.7959  -5.7740  -5.7737
    -5.1200  -5.1189  -4.9540  -4.9530  -4.8961  -4.8950  -4.7314  -4.7305
    -4.7004  -4.6991  -4.5211  -4.5176  -4.4997  -4.4982  -4.4921  -4.4905
    -4.4658  -4.4626  -4.4193  -4.4147  -4.3999  -4.3971  -4.3884  -4.3851
    -4.3782  -4.3756  -4.3671  -4.3651  -4.3596  -4.3577  -4.3542  -4.3487
    -4.3442  -4.3404  -4.3248  -4.3210  -4.3181  -4.3153  -4.2931  -4.2886
    -4.2141  -4.2118  -4.1887  -4.1868  -4.1862  -4.1833  -4.1759  -4.1716
    -0.7889  -0.7646  -0.7126  -0.6923  -0.6236  -0.5925  -0.5576  -0.5521
    -0.5031  -0.4885  -0.3776  -0.3495  -0.3038  -0.2784  -0.2527  -0.2322
    -0.2152  -0.1847  -0.1441  -0.1201  -0.1070  -0.0990  -0.0821  -0.0635
     0.0397   0.0849   0.1876   0.1986   0.2315   0.2606   0.2740   0.2925
     0.3061   0.3306   0.3344   0.3579   0.3699   0.3820   0.4003   0.4089
     0.4313   0.4458   0.4556   0.4751   0.4943   0.5132   0.5371   0.5636
     0.6729   0.6813   0.6897   0.7028   0.7168   0.7318   0.7458   0.7704
     0.7780   0.7931   0.8000   0.8164   0.8288   0.8379   0.8475   0.8647
     0.8888   0.8929   0.9032   0.9119   0.9294   0.9347   0.9521   0.9609
     0.9653   0.9777   0.9931   0.9961   1.0146   1.0175   1.0475   1.0530
     1.0607   1.0809   1.0943   1.1002   1.1106   1.1187   1.1317   1.1449
     1.1630   1.1723   1.1760   1.1859   1.1947   1.2176   1.2386   1.2469
     1.2663   1.2772   1.2804   1.2858   1.2980   1.3074   1.3241   1.3359
     1.3479   1.3572   1.3719   1.3848   1.3956   1.4116   1.4220   1.4351
     1.4550   1.4641   1.4738   1.4887   1.4944   1.5059   1.5138   1.5317
     1.5455   1.5560   1.5696   1.5854   1.6033   1.6251   1.6375   1.6456
     1.6562   1.6812   1.7092   1.7271   1.7564   1.7657   1.7873   1.8017
     1.8692   1.8851   1.9985   2.0172   2.0476   2.0698   2.1446   2.1547

          k = 0.1250 0.3750-0.3750 ( 73952 PWs)   bands (ev):

   -18.1275 -18.1275 -18.0396 -18.0396 -17.9992 -17.9992 -17.9952 -17.9952
   -17.9651 -17.9651 -17.9612 -17.9612 -17.8048 -17.8048 -17.7801 -17.7801
   -15.3215 -15.3215 -15.3008 -15.3008 -15.2526 -15.2517 -15.2503 -15.2496
   -15.2403 -15.2402 -15.2358 -15.2357 -15.2226 -15.2226 -15.2147 -15.2147
   -15.1848 -15.1848 -15.1675 -15.1675 -15.0949 -15.0949 -15.0874 -15.0874
   -15.0734 -15.0733 -15.0684 -15.0683 -15.0094 -15.0094 -15.0006 -15.0006
   -12.7929 -12.7917 -12.7692 -12.7687 -12.7653 -12.7605 -12.7417 -12.7369
   -12.7270 -12.7267 -12.7258 -12.7249 -12.7127 -12.7110 -12.6928 -12.6924
   -12.6818 -12.6814 -12.6576 -12.6572 -12.6570 -12.6564 -12.6506 -12.6501
   -12.6453 -12.6444 -12.6336 -12.6335 -12.5950 -12.5941 -12.5900 -12.5899
   -12.5714 -12.5707 -12.5621 -12.5617 -12.5378 -12.5368 -12.5079 -12.5072
   -12.4984 -12.4982 -12.4918 -12.4915 -12.4902 -12.4896 -12.4174 -12.4174
   -11.3977 -11.3962 -11.3595 -11.3578 -11.2653 -11.2646 -11.2332 -11.2320
   -11.2000 -11.1986 -11.1791 -11.1774 -11.1154 -11.1149 -11.0718 -11.0679
   -11.0570 -11.0552 -11.0201 -11.0181 -11.0015 -11.0001 -10.9647 -10.9643
   -10.9354 -10.9322 -10.9223 -10.9195 -10.8859 -10.8850 -10.8640 -10.8616
   -10.8253 -10.8246 -10.7914 -10.7903 -10.7595 -10.7586 -10.6773 -10.6769
   -10.6586 -10.6582 -10.6163 -10.6158 -10.5911 -10.5906 -10.5465 -10.5458
    -6.0975  -6.0973  -6.0134  -6.0130  -5.9764  -5.9761  -5.9721  -5.9721
    -5.9426  -5.9405  -5.9369  -5.9349  -5.7960  -5.7959  -5.7740  -5.7737
    -5.1245  -5.1235  -4.9476  -4.9466  -4.8810  -4.8803  -4.7839  -4.7822
    -4.6476  -4.6457  -4.5444  -4.5397  -4.5020  -4.5003  -4.4894  -4.4861
    -4.4710  -4.4682  -4.4176  -4.4143  -4.4009  -4.3946  -4.3870  -4.3827
    -4.3793  -4.3763  -4.3665  -4.3648  -4.3603  -4.3567  -4.3537  -4.3501
    -4.3401  -4.3386  -4.3226  -4.3192  -4.3170  -4.3156  -4.2893  -4.2857
    -4.2140  -4.2135  -4.1888  -4.1874  -4.1858  -4.1844  -4.1752  -4.1747
    -0.8137  -0.7648  -0.7077  -0.6932  -0.5997  -0.5669  -0.5479  -0.5209
    -0.4977  -0.4631  -0.3957  -0.3474  -0.3410  -0.3251  -0.2837  -0.2527
    -0.2202  -0.2019  -0.1898  -0.1664  -0.0970  -0.0855  -0.0440  -0.0167
     0.0875   0.1305   0.2090   0.2169   0.2379   0.2541   0.2667   0.2793
     0.2952   0.3203   0.3345   0.3478   0.3582   0.3771   0.3864   0.4080
     0.4214   0.4297   0.4584   0.4945   0.4998   0.5192   0.5429   0.5649
     0.6544   0.6804   0.6918   0.7132   0.7305   0.7364   0.7538   0.7642
     0.7759   0.7903   0.8015   0.8071   0.8216   0.8449   0.8601   0.8665
     0.8789   0.8970   0.9047   0.9149   0.9266   0.9330   0.9398   0.9547
     0.9675   0.9785   0.9866   1.0000   1.0173   1.0265   1.0351   1.0548
     1.0612   1.0802   1.0857   1.1042   1.1080   1.1170   1.1323   1.1448
     1.1642   1.1758   1.1819   1.1889   1.2022   1.2146   1.2359   1.2433
     1.2544   1.2703   1.2756   1.2879   1.3049   1.3104   1.3192   1.3499
     1.3528   1.3638   1.3769   1.3858   1.3924   1.4151   1.4271   1.4405
     1.4517   1.4601   1.4724   1.4796   1.4937   1.5081   1.5201   1.5299
     1.5318   1.5568   1.5763   1.5837   1.5956   1.6031   1.6171   1.6508
     1.6671   1.6829   1.7043   1.7209   1.7573   1.7614   1.7976   1.8288
     1.8699   1.9046   1.9779   2.0201   2.0412   2.0674   2.1432   2.1646

          k = 0.1250 0.3750-0.1250 ( 73938 PWs)   bands (ev):

   -18.1275 -18.1275 -18.0396 -18.0396 -17.9992 -17.9992 -17.9952 -17.9952
   -17.9651 -17.9651 -17.9612 -17.9612 -17.8048 -17.8048 -17.7801 -17.7801
   -15.3215 -15.3215 -15.3008 -15.3008 -15.2539 -15.2534 -15.2491 -15.2488
   -15.2403 -15.2402 -15.2354 -15.2353 -15.2226 -15.2226 -15.2147 -15.2147
   -15.1848 -15.1848 -15.1675 -15.1675 -15.0949 -15.0949 -15.0874 -15.0874
   -15.0734 -15.0734 -15.0684 -15.0683 -15.0093 -15.0093 -15.0006 -15.0006
   -12.7942 -12.7931 -12.7763 -12.7743 -12.7699 -12.7694 -12.7315 -12.7307
   -12.7272 -12.7268 -12.7208 -12.7192 -12.7125 -12.7109 -12.6941 -12.6937
   -12.6821 -12.6816 -12.6576 -12.6574 -12.6569 -12.6563 -12.6502 -12.6498
   -12.6435 -12.6428 -12.6336 -12.6335 -12.5947 -12.5937 -12.5900 -12.5899
   -12.5715 -12.5709 -12.5637 -12.5632 -12.5375 -12.5365 -12.5065 -12.5058
   -12.4985 -12.4983 -12.4910 -12.4908 -12.4887 -12.4882 -12.4174 -12.4174
   -11.4090 -11.4082 -11.3351 -11.3342 -11.2653 -11.2650 -11.2401 -11.2397
   -11.2069 -11.2054 -11.1714 -11.1695 -11.1075 -11.1058 -11.0806 -11.0773
   -11.0536 -11.0520 -11.0236 -11.0209 -11.0134 -11.0109 -10.9653 -10.9646
   -10.9338 -10.9329 -10.9149 -10.9134 -10.8909 -10.8895 -10.8631 -10.8604
   -10.8353 -10.8340 -10.7892 -10.7882 -10.7646 -10.7638 -10.6789 -10.6786
   -10.6529 -10.6523 -10.6234 -10.6225 -10.5786 -10.5782 -10.5431 -10.5425
    -6.0975  -6.0974  -6.0135  -6.0132  -5.9767  -5.9763  -5.9721  -5.9721
    -5.9423  -5.9403  -5.9367  -5.9347  -5.7960  -5.7959  -5.7740  -5.7738
    -5.2325  -5.2319  -4.9861  -4.9854  -4.8345  -4.8334  -4.7945  -4.7936
    -4.6161  -4.6137  -4.5700  -4.5670  -4.5012  -4.5008  -4.4792  -4.4782
    -4.4314  -4.4214  -4.4119  -4.3982  -4.3910  -4.3891  -4.3830  -4.3802
    -4.3740  -4.3721  -4.3627  -4.3599  -4.3590  -4.3546  -4.3500  -4.3437
    -4.3357  -4.3298  -4.3182  -4.3164  -4.3153  -4.3116  -4.2197  -4.2170
    -4.1950  -4.1928  -4.1882  -4.1864  -4.1788  -4.1746  -4.1482  -4.1441
    -0.9939  -0.9416  -0.7712  -0.7286  -0.6755  -0.6596  -0.6425  -0.6290
    -0.5882  -0.5753  -0.5379  -0.5128  -0.4744  -0.4496  -0.4041  -0.3803
    -0.3014  -0.2922  -0.2154  -0.2025  -0.1742  -0.1538  -0.1123  -0.0985
     0.1734   0.1900   0.2352   0.2448   0.2662   0.2843   0.3051   0.3272
     0.3354   0.3622   0.3707   0.4118   0.4236   0.4486   0.4660   0.4748
     0.4889   0.5121   0.5211   0.5354   0.5689   0.6005   0.6227   0.6490
     0.6715   0.6940   0.7034   0.7307   0.7391   0.7666   0.7803   0.7992
     0.8067   0.8167   0.8251   0.8392   0.8568   0.8663   0.8800   0.8977
     0.9118   0.9148   0.9290   0.9428   0.9525   0.9673   0.9755   0.9817
     0.9878   0.9968   1.0125   1.0189   1.0301   1.0549   1.0599   1.0687
     1.0773   1.0869   1.0919   1.1086   1.1207   1.1427   1.1529   1.1641
     1.1687   1.1837   1.1942   1.2005   1.2125   1.2185   1.2232   1.2402
     1.2488   1.2641   1.2795   1.2895   1.3000   1.3094   1.3231   1.3269
     1.3455   1.3634   1.3758   1.3816   1.3910   1.4058   1.4183   1.4314
     1.4405   1.4555   1.4737   1.4818   1.4992   1.5133   1.5241   1.5349
     1.5508   1.5573   1.5770   1.5903   1.6035   1.6280   1.6511   1.6717
     1.6900   1.7228   1.7323   1.7498   1.8001   1.8095   1.8826   1.9046
     1.9346   1.9618   2.0264   2.0489   2.1832   2.2078   2.3255   2.3444

          k = 0.1250-0.3750 0.1250 ( 73938 PWs)   bands (ev):

   -18.1275 -18.1275 -18.0396 -18.0396 -17.9992 -17.9992 -17.9952 -17.9952
   -17.9651 -17.9651 -17.9612 -17.9612 -17.8048 -17.8048 -17.7801 -17.7801
   -15.3215 -15.3215 -15.3008 -15.3008 -15.2538 -15.2534 -15.2491 -15.2488
   -15.2403 -15.2402 -15.2354 -15.2352 -15.2226 -15.2226 -15.2147 -15.2147
   -15.1848 -15.1847 -15.1675 -15.1675 -15.0949 -15.0949 -15.0874 -15.0874
   -15.0734 -15.0734 -15.0684 -15.0683 -15.0093 -15.0093 -15.0006 -15.0006
   -12.7942 -12.7931 -12.7763 -12.7743 -12.7700 -12.7694 -12.7320 -12.7302
   -12.7271 -12.7268 -12.7209 -12.7190 -12.7122 -12.7112 -12.6941 -12.6937
   -12.6821 -12.6816 -12.6577 -12.6573 -12.6567 -12.6565 -12.6506 -12.6495
   -12.6438 -12.6425 -12.6336 -12.6335 -12.5944 -12.5940 -12.5900 -12.5899
   -12.5716 -12.5709 -12.5637 -12.5632 -12.5374 -12.5366 -12.5064 -12.5059
   -12.4985 -12.4983 -12.4910 -12.4908 -12.4887 -12.4882 -12.4174 -12.4174
   -11.4079 -11.4072 -11.3379 -11.3369 -11.2697 -11.2686 -11.2307 -11.2295
   -11.2100 -11.2089 -11.1708 -11.1699 -11.1049 -11.1042 -11.0753 -11.0737
   -11.0601 -11.0569 -11.0286 -11.0274 -11.0128 -11.0097 -10.9646 -10.9641
   -10.9367 -10.9354 -10.9113 -10.9096 -10.8869 -10.8846 -10.8655 -10.8630
   -10.8347 -10.8334 -10.7900 -10.7893 -10.7654 -10.7637 -10.6795 -10.6791
   -10.6477 -10.6469 -10.6294 -10.6287 -10.5770 -10.5767 -10.5432 -10.5426
    -6.0975  -6.0974  -6.0135  -6.0132  -5.9768  -5.9762  -5.9723  -5.9719
    -5.9422  -5.9403  -5.9367  -5.9347  -5.7961  -5.7959  -5.7740  -5.7738
    -5.2327  -5.2321  -4.9854  -4.9844  -4.8347  -4.8342  -4.7957  -4.7944
    -4.6144  -4.6139  -4.5677  -4.5650  -4.5019  -4.5010  -4.4790  -4.4780
    -4.4314  -4.4234  -4.4055  -4.4000  -4.3946  -4.3905  -4.3848  -4.3814
    -4.3729  -4.3706  -4.3627  -4.3618  -4.3584  -4.3549  -4.3484  -4.3454
    -4.3353  -4.3305  -4.3191  -4.3171  -4.3157  -4.3118  -4.2194  -4.2159
    -4.1977  -4.1943  -4.1879  -4.1856  -4.1788  -4.1729  -4.1459  -4.1434
    -0.9648  -0.9482  -0.7809  -0.7587  -0.6904  -0.6681  -0.6424  -0.6317
    -0.5894  -0.5589  -0.5278  -0.5171  -0.4585  -0.4483  -0.4124  -0.3857
    -0.2945  -0.2674  -0.2264  -0.2085  -0.1634  -0.1452  -0.1138  -0.0887
     0.1761   0.1923   0.2218   0.2503   0.2555   0.2829   0.2998   0.3254
     0.3336   0.3556   0.3733   0.4085   0.4218   0.4540   0.4683   0.4797
     0.4886   0.4981   0.5208   0.5443   0.5710   0.5865   0.6210   0.6392
     0.6759   0.6839   0.7158   0.7334   0.7511   0.7650   0.7719   0.7959
     0.8194   0.8272   0.8311   0.8410   0.8539   0.8654   0.8778   0.8931
     0.9051   0.9133   0.9258   0.9385   0.9475   0.9597   0.9700   0.9783
     0.9916   1.0064   1.0117   1.0208   1.0316   1.0403   1.0521   1.0713
     1.0886   1.0972   1.1022   1.1053   1.1139   1.1372   1.1531   1.1603
     1.1714   1.1810   1.1869   1.2010   1.2139   1.2171   1.2384   1.2451
     1.2637   1.2728   1.2823   1.2918   1.3048   1.3107   1.3187   1.3301
     1.3330   1.3655   1.3754   1.3855   1.3956   1.4073   1.4168   1.4330
     1.4402   1.4530   1.4670   1.4814   1.4986   1.5087   1.5174   1.5339
     1.5511   1.5649   1.5752   1.5945   1.6073   1.6185   1.6436   1.6623
     1.7048   1.7298   1.7417   1.7523   1.7855   1.8009   1.8928   1.9077
     1.9153   1.9714   2.0297   2.0620   2.1793   2.1855   2.3372   2.3458

          k = 0.1250-0.3750 0.3750 ( 73952 PWs)   bands (ev):

   -18.1275 -18.1275 -18.0396 -18.0396 -17.9992 -17.9992 -17.9952 -17.9952
   -17.9651 -17.9651 -17.9612 -17.9612 -17.8048 -17.8048 -17.7801 -17.7801
   -15.3215 -15.3215 -15.3008 -15.3008 -15.2526 -15.2517 -15.2503 -15.2496
   -15.2403 -15.2402 -15.2359 -15.2357 -15.2226 -15.2226 -15.2147 -15.2147
   -15.1848 -15.1848 -15.1675 -15.1675 -15.0949 -15.0949 -15.0874 -15.0874
   -15.0734 -15.0733 -15.0684 -15.0683 -15.0094 -15.0094 -15.0006 -15.0006
   -12.7930 -12.7917 -12.7692 -12.7686 -12.7652 -12.7607 -12.7418 -12.7367
   -12.7270 -12.7267 -12.7259 -12.7247 -12.7124 -12.7113 -12.6928 -12.6924
   -12.6818 -12.6813 -12.6576 -12.6573 -12.6568 -12.6566 -12.6509 -12.6499
   -12.6455 -12.6443 -12.6336 -12.6335 -12.5948 -12.5943 -12.5900 -12.5899
   -12.5714 -12.5707 -12.5621 -12.5617 -12.5377 -12.5369 -12.5078 -12.5073
   -12.4983 -12.4982 -12.4919 -12.4915 -12.4900 -12.4897 -12.4174 -12.4174
   -11.3954 -11.3940 -11.3631 -11.3615 -11.2640 -11.2633 -11.2343 -11.2328
   -11.2041 -11.2029 -11.1693 -11.1681 -11.1182 -11.1170 -11.0669 -11.0655
   -11.0605 -11.0564 -11.0254 -11.0246 -11.0030 -11.0007 -10.9634 -10.9631
   -10.9380 -10.9350 -10.9202 -10.9174 -10.8789 -10.8776 -10.8659 -10.8632
   -10.8273 -10.8261 -10.7919 -10.7915 -10.7599 -10.7584 -10.6775 -10.6772
   -10.6553 -10.6546 -10.6221 -10.6213 -10.5885 -10.5878 -10.5465 -10.5458
    -6.0975  -6.0973  -6.0134  -6.0131  -5.9766  -5.9760  -5.9722  -5.9720
    -5.9425  -5.9406  -5.9369  -5.9348  -5.7961  -5.7959  -5.7740  -5.7737
    -5.1251  -5.1240  -4.9474  -4.9464  -4.8778  -4.8772  -4.7878  -4.7863
    -4.6436  -4.6420  -4.5473  -4.5438  -4.5022  -4.4997  -4.4939  -4.4887
    -4.4672  -4.4659  -4.4166  -4.4145  -4.3979  -4.3957  -4.3856  -4.3838
    -4.3779  -4.3759  -4.3676  -4.3631  -4.3609  -4.3559  -4.3530  -4.3510
    -4.3403  -4.3381  -4.3219  -4.3196  -4.3179  -4.3158  -4.2928  -4.2877
    -4.2142  -4.2130  -4.1882  -4.1871  -4.1850  -4.1833  -4.1752  -4.1746
    -0.7913  -0.7705  -0.7050  -0.6935  -0.5982  -0.5878  -0.5506  -0.5278
    -0.4981  -0.4897  -0.3909  -0.3561  -0.3317  -0.3198  -0.2781  -0.2538
    -0.2187  -0.1877  -0.1722  -0.1580  -0.1024  -0.0885  -0.0519  -0.0245
     0.1062   0.1410   0.2140   0.2269   0.2381   0.2566   0.2693   0.2763
     0.2860   0.3130   0.3237   0.3483   0.3611   0.3656   0.3916   0.4038
     0.4192   0.4307   0.4534   0.4818   0.4986   0.5128   0.5349   0.5720
     0.6630   0.6834   0.6921   0.7210   0.7278   0.7428   0.7500   0.7682
     0.7793   0.7853   0.8003   0.8155   0.8262   0.8403   0.8490   0.8599
     0.8752   0.8984   0.9112   0.9173   0.9239   0.9315   0.9445   0.9481
     0.9618   0.9757   0.9868   1.0009   1.0168   1.0264   1.0386   1.0493
     1.0587   1.0705   1.0836   1.1051   1.1068   1.1185   1.1405   1.1562
     1.1659   1.1695   1.1784   1.1869   1.2063   1.2221   1.2351   1.2455
     1.2541   1.2740   1.2886   1.3007   1.3058   1.3070   1.3215   1.3409
     1.3540   1.3632   1.3684   1.3836   1.3956   1.4157   1.4244   1.4362
     1.4483   1.4649   1.4731   1.4847   1.4906   1.5052   1.5170   1.5249
     1.5395   1.5575   1.5739   1.5838   1.6030   1.6068   1.6276   1.6409
     1.6674   1.6760   1.7125   1.7186   1.7512   1.7701   1.7992   1.8271
     1.8640   1.9022   1.9793   2.0023   2.0489   2.0532   2.1595   2.1722

          k = 0.1250-0.3750-0.3750 ( 73952 PWs)   bands (ev):

   -18.1275 -18.1275 -18.0396 -18.0396 -17.9992 -17.9992 -17.9952 -17.9952
   -17.9651 -17.9651 -17.9612 -17.9612 -17.8048 -17.8048 -17.7801 -17.7801
   -15.3215 -15.3215 -15.3008 -15.3008 -15.2526 -15.2517 -15.2503 -15.2496
   -15.2403 -15.2402 -15.2358 -15.2357 -15.2226 -15.2226 -15.2147 -15.2147
   -15.1848 -15.1848 -15.1675 -15.1675 -15.0949 -15.0949 -15.0874 -15.0874
   -15.0734 -15.0733 -15.0684 -15.0683 -15.0094 -15.0094 -15.0006 -15.0006
   -12.7930 -12.7917 -12.7692 -12.7686 -12.7654 -12.7604 -12.7416 -12.7370
   -12.7270 -12.7267 -12.7257 -12.7249 -12.7124 -12.7113 -12.6931 -12.6921
   -12.6818 -12.6813 -12.6575 -12.6573 -12.6571 -12.6564 -12.6510 -12.6497
   -12.6454 -12.6444 -12.6336 -12.6335 -12.5947 -12.5945 -12.5900 -12.5899
   -12.5714 -12.5708 -12.5621 -12.5617 -12.5378 -12.5368 -12.5077 -12.5074
   -12.4984 -12.4982 -12.4918 -12.4915 -12.4901 -12.4896 -12.4174 -12.4174
   -11.3967 -11.3951 -11.3604 -11.3588 -11.2667 -11.2657 -11.2272 -11.2253
   -11.2112 -11.2107 -11.1739 -11.1726 -11.1127 -11.1113 -11.0671 -11.0647
   -11.0584 -11.0559 -11.0257 -11.0243 -11.0034 -11.0017 -10.9638 -10.9630
   -10.9375 -10.9345 -10.9200 -10.9172 -10.8788 -10.8780 -10.8660 -10.8634
   -10.8285 -10.8268 -10.7905 -10.7904 -10.7612 -10.7600 -10.6824 -10.6818
   -10.6525 -10.6519 -10.6147 -10.6141 -10.5932 -10.5927 -10.5465 -10.5462
    -6.0975  -6.0974  -6.0134  -6.0131  -5.9764  -5.9762  -5.9722  -5.9719
    -5.9425  -5.9406  -5.9369  -5.9348  -5.7960  -5.7959  -5.7740  -5.7737
    -5.1188  -5.1182  -4.9558  -4.9548  -4.8946  -4.8930  -4.7335  -4.7325
    -4.7004  -4.6987  -4.5200  -4.5167  -4.5025  -4.4988  -4.4942  -4.4924
    -4.4625  -4.4611  -4.4175  -4.4169  -4.4031  -4.3967  -4.3879  -4.3844
    -4.3772  -4.3744  -4.3689  -4.3655  -4.3594  -4.3578  -4.3540  -4.3492
    -4.3438  -4.3405  -4.3246  -4.3221  -4.3176  -4.3147  -4.2891  -4.2850
    -4.2141  -4.2127  -4.1886  -4.1876  -4.1855  -4.1839  -4.1756  -4.1734
    -0.8196  -0.7672  -0.7074  -0.6914  -0.6356  -0.5826  -0.5539  -0.5448
    -0.4974  -0.4705  -0.3823  -0.3558  -0.2978  -0.2782  -0.2602  -0.2379
    -0.2129  -0.1820  -0.1441  -0.1198  -0.1011  -0.0890  -0.0618  -0.0500
     0.0379   0.0780   0.1871   0.2010   0.2419   0.2546   0.2696   0.2899
     0.3072   0.3211   0.3272   0.3457   0.3622   0.3834   0.3971   0.4195
     0.4308   0.4390   0.4542   0.4858   0.5017   0.5143   0.5405   0.5555
     0.6598   0.6763   0.6963   0.7088   0.7167   0.7397   0.7516   0.7650
     0.7790   0.7877   0.8014   0.8113   0.8204   0.8333   0.8499   0.8634
     0.8748   0.8962   0.9062   0.9092   0.9170   0.9382   0.9439   0.9543
     0.9716   0.9729   0.9845   1.0048   1.0140   1.0312   1.0477   1.0544
     1.0670   1.0758   1.0930   1.1030   1.1157   1.1179   1.1355   1.1519
     1.1576   1.1651   1.1866   1.1957   1.2043   1.2168   1.2334   1.2512
     1.2536   1.2662   1.2746   1.2939   1.2995   1.3146   1.3202   1.3459
     1.3469   1.3648   1.3685   1.3801   1.3971   1.3985   1.4213   1.4349
     1.4555   1.4720   1.4789   1.4840   1.4931   1.5015   1.5186   1.5273
     1.5389   1.5588   1.5716   1.5817   1.6030   1.6172   1.6255   1.6522
     1.6574   1.6822   1.7139   1.7205   1.7514   1.7761   1.7914   1.8065
     1.8551   1.8812   1.9965   2.0300   2.0397   2.0665   2.1582   2.1815

          k = 0.1250-0.3750-0.1250 ( 73938 PWs)   bands (ev):

   -18.1275 -18.1275 -18.0396 -18.0396 -17.9992 -17.9992 -17.9952 -17.9952
   -17.9651 -17.9651 -17.9612 -17.9612 -17.8048 -17.8048 -17.7801 -17.7801
   -15.3215 -15.3215 -15.3008 -15.3008 -15.2539 -15.2534 -15.2491 -15.2488
   -15.2403 -15.2402 -15.2354 -15.2353 -15.2226 -15.2226 -15.2147 -15.2147
   -15.1848 -15.1847 -15.1675 -15.1675 -15.0949 -15.0949 -15.0874 -15.0874
   -15.0734 -15.0734 -15.0684 -15.0683 -15.0093 -15.0093 -15.0006 -15.0006
   -12.7943 -12.7930 -12.7764 -12.7743 -12.7699 -12.7694 -12.7315 -12.7307
   -12.7272 -12.7268 -12.7206 -12.7193 -12.7121 -12.7113 -12.6943 -12.6934
   -12.6821 -12.6816 -12.6575 -12.6575 -12.6569 -12.6563 -12.6507 -12.6493
   -12.6436 -12.6427 -12.6336 -12.6335 -12.5943 -12.5941 -12.5900 -12.5899
   -12.5715 -12.5710 -12.5637 -12.5633 -12.5375 -12.5365 -12.5064 -12.5060
   -12.4985 -12.4983 -12.4910 -12.4908 -12.4887 -12.4882 -12.4174 -12.4174
   -11.4083 -11.4076 -11.3352 -11.3344 -11.2721 -11.2711 -11.2238 -11.2230
   -11.2168 -11.2155 -11.1763 -11.1752 -11.0991 -11.0977 -11.0753 -11.0736
   -11.0563 -11.0547 -11.0321 -11.0303 -11.0127 -11.0095 -10.9645 -10.9640
   -10.9372 -10.9350 -10.9102 -10.9089 -10.8867 -10.8852 -10.8659 -10.8634
   -10.8359 -10.8339 -10.7888 -10.7883 -10.7667 -10.7652 -10.6833 -10.6828
   -10.6461 -10.6455 -10.6247 -10.6236 -10.5791 -10.5789 -10.5432 -10.5430
    -6.0975  -6.0974  -6.0135  -6.0132  -5.9766  -5.9764  -5.9723  -5.9719
    -5.9422  -5.9404  -5.9367  -5.9347  -5.7960  -5.7959  -5.7740  -5.7738
    -5.2307  -5.2303  -4.9882  -4.9869  -4.8318  -4.8312  -4.8022  -4.8009
    -4.6077  -4.6058  -4.5725  -4.5711  -4.5010  -4.5005  -4.4789  -4.4773
    -4.4291  -4.4238  -4.4057  -4.3987  -4.3933  -4.3896  -4.3855  -4.3805
    -4.3741  -4.3696  -4.3632  -4.3608  -4.3579  -4.3564  -4.3476  -4.3430
    -4.3355  -4.3302  -4.3195  -4.3191  -4.3156  -4.3133  -4.2194  -4.2165
    -4.1974  -4.1930  -4.1873  -4.1860  -4.1805  -4.1747  -4.1461  -4.1420
    -0.9974  -0.9477  -0.7814  -0.7399  -0.6806  -0.6640  -0.6399  -0.6237
    -0.5946  -0.5746  -0.5373  -0.5079  -0.4649  -0.4470  -0.4133  -0.3768
    -0.2671  -0.2422  -0.2246  -0.2123  -0.1676  -0.1559  -0.1157  -0.0957
     0.1768   0.1962   0.2093   0.2424   0.2552   0.2824   0.3064   0.3223
     0.3338   0.3558   0.3766   0.4087   0.4223   0.4433   0.4542   0.4875
     0.4907   0.5014   0.5237   0.5421   0.5651   0.5958   0.6230   0.6552
     0.6723   0.6908   0.7172   0.7335   0.7452   0.7573   0.7830   0.7949
     0.8054   0.8204   0.8293   0.8444   0.8526   0.8608   0.8768   0.8917
     0.9035   0.9074   0.9206   0.9324   0.9491   0.9580   0.9720   0.9811
     0.9977   1.0063   1.0096   1.0276   1.0360   1.0455   1.0633   1.0711
     1.0820   1.0916   1.1040   1.1119   1.1283   1.1348   1.1495   1.1688
     1.1727   1.1792   1.1886   1.1934   1.2039   1.2231   1.2312   1.2368
     1.2619   1.2659   1.2759   1.2883   1.2974   1.3095   1.3211   1.3287
     1.3375   1.3505   1.3711   1.3895   1.3964   1.4064   1.4223   1.4334
     1.4388   1.4510   1.4721   1.4869   1.4961   1.5049   1.5151   1.5409
     1.5552   1.5670   1.5879   1.6037   1.6141   1.6181   1.6539   1.6620
     1.6951   1.7237   1.7381   1.7576   1.7715   1.8069   1.8839   1.8939
     1.9082   1.9603   2.0338   2.0756   2.1778   2.2052   2.3448   2.3548

          k = 0.1250-0.1250 0.1250 ( 73866 PWs)   bands (ev):

   -18.1275 -18.1275 -18.0396 -18.0396 -17.9992 -17.9992 -17.9952 -17.9952
   -17.9651 -17.9651 -17.9612 -17.9612 -17.8048 -17.8048 -17.7801 -17.7801
   -15.3215 -15.3215 -15.3008 -15.3008 -15.2538 -15.2534 -15.2491 -15.2488
   -15.2403 -15.2402 -15.2354 -15.2352 -15.2227 -15.2227 -15.2147 -15.2147
   -15.1848 -15.1847 -15.1674 -15.1674 -15.0949 -15.0949 -15.0874 -15.0874
   -15.0734 -15.0733 -15.0684 -15.0683 -15.0093 -15.0093 -15.0006 -15.0006
   -12.7943 -12.7931 -12.7764 -12.7744 -12.7704 -12.7698 -12.7323 -12.7305
   -12.7274 -12.7270 -12.7215 -12.7195 -12.7137 -12.7127 -12.6980 -12.6977
   -12.6844 -12.6840 -12.6576 -12.6573 -12.6566 -12.6563 -12.6459 -12.6446
   -12.6417 -12.6413 -12.6335 -12.6334 -12.5937 -12.5933 -12.5900 -12.5898
   -12.5697 -12.5690 -12.5635 -12.5631 -12.5372 -12.5365 -12.5057 -12.5052
   -12.4983 -12.4982 -12.4909 -12.4908 -12.4886 -12.4881 -12.4174 -12.4174
   -11.4118 -11.4112 -11.3383 -11.3373 -11.2630 -11.2615 -11.2399 -11.2383
   -11.1943 -11.1924 -11.1571 -11.1561 -11.0988 -11.0981 -11.0754 -11.0736
   -11.0592 -11.0557 -11.0254 -11.0242 -11.0100 -11.0076 -10.9867 -10.9864
   -10.9710 -10.9676 -10.9143 -10.9132 -10.8922 -10.8899 -10.8682 -10.8658
   -10.8235 -10.8222 -10.7889 -10.7878 -10.7569 -10.7555 -10.6839 -10.6833
   -10.6408 -10.6403 -10.6305 -10.6300 -10.5758 -10.5753 -10.5376 -10.5369
    -6.0976  -6.0974  -6.0136  -6.0132  -5.9776  -5.9771  -5.9716  -5.9715
    -5.9423  -5.9407  -5.9362  -5.9345  -5.7959  -5.7957  -5.7740  -5.7738
    -5.3099  -5.3093  -4.9353  -4.9345  -4.8945  -4.8942  -4.8540  -4.8530
    -4.5198  -4.5159  -4.5028  -4.5005  -4.4873  -4.4855  -4.4756  -4.4742
    -4.4518  -4.4470  -4.4153  -4.4104  -4.3978  -4.3967  -4.3838  -4.3830
    -4.3762  -4.3745  -4.3671  -4.3638  -4.3568  -4.3541  -4.3494  -4.3476
    -4.3415  -4.3403  -4.3199  -4.3180  -4.3151  -4.3126  -4.2158  -4.2145
    -4.1904  -4.1901  -4.1875  -4.1857  -4.1767  -4.1747  -4.0188  -4.0169
    -0.9668  -0.9455  -0.8066  -0.7973  -0.7439  -0.7294  -0.7020  -0.6670
    -0.6559  -0.6381  -0.6112  -0.5929  -0.5576  -0.5420  -0.5114  -0.4947
    -0.4710  -0.4620  -0.4271  -0.3993  -0.3422  -0.3129  -0.2943  -0.2680
     0.2309   0.2369   0.2871   0.2984   0.3102   0.3201   0.4019   0.4149
     0.4301   0.4451   0.4694   0.4789   0.4966   0.5047   0.5209   0.5298
     0.5573   0.5684   0.5997   0.6134   0.6423   0.6549   0.6812   0.7006
     0.7128   0.7394   0.7467   0.7602   0.7792   0.8033   0.8192   0.8276
     0.8392   0.8494   0.8627   0.8780   0.8870   0.8911   0.9017   0.9152
     0.9187   0.9263   0.9436   0.9533   0.9669   0.9742   0.9856   0.9903
     1.0003   1.0153   1.0274   1.0342   1.0484   1.0553   1.0683   1.0745
     1.0919   1.0998   1.1028   1.1110   1.1191   1.1307   1.1485   1.1602
     1.1728   1.1857   1.1951   1.2018   1.2089   1.2206   1.2306   1.2362
     1.2623   1.2706   1.2843   1.2976   1.3020   1.3117   1.3172   1.3304
     1.3387   1.3674   1.3781   1.3967   1.3982   1.4098   1.4236   1.4297
     1.4448   1.4672   1.4776   1.4845   1.5037   1.5239   1.5271   1.5388
     1.5596   1.5838   1.5916   1.6135   1.6172   1.6407   1.6645   1.6729
     1.6959   1.7158   1.7562   1.7757   1.8032   1.8227   1.8955   1.9116
     2.1078   2.1237   2.1518   2.1649   2.1942   2.2155   2.5175   2.5216

          k = 0.1250-0.1250 0.3750 ( 73938 PWs)   bands (ev):

   -18.1275 -18.1275 -18.0396 -18.0396 -17.9992 -17.9992 -17.9952 -17.9952
   -17.9651 -17.9651 -17.9612 -17.9612 -17.8048 -17.8048 -17.7801 -17.7801
   -15.3215 -15.3215 -15.3008 -15.3008 -15.2526 -15.2518 -15.2504 -15.2496
   -15.2403 -15.2402 -15.2359 -15.2357 -15.2227 -15.2227 -15.2147 -15.2147
   -15.1848 -15.1847 -15.1674 -15.1674 -15.0949 -15.0948 -15.0874 -15.0874
   -15.0734 -15.0733 -15.0684 -15.0683 -15.0094 -15.0094 -15.0006 -15.0006
   -12.7930 -12.7918 -12.7696 -12.7690 -12.7653 -12.7609 -12.7420 -12.7369
   -12.7273 -12.7269 -12.7264 -12.7254 -12.7138 -12.7127 -12.6973 -12.6969
   -12.6837 -12.6833 -12.6575 -12.6573 -12.6567 -12.6564 -12.6468 -12.6456
   -12.6425 -12.6423 -12.6335 -12.6334 -12.5942 -12.5937 -12.5900 -12.5898
   -12.5697 -12.5690 -12.5617 -12.5613 -12.5376 -12.5368 -12.5071 -12.5066
   -12.4983 -12.4982 -12.4917 -12.4913 -12.4900 -12.4897 -12.4174 -12.4174
   -11.3972 -11.3959 -11.3650 -11.3633 -11.2604 -11.2591 -11.2351 -11.2338
   -11.1986 -11.1960 -11.1602 -11.1593 -11.0968 -11.0958 -11.0634 -11.0622
   -11.0570 -11.0540 -11.0353 -11.0337 -11.0042 -11.0028 -10.9848 -10.9840
   -10.9669 -10.9640 -10.9229 -10.9211 -10.8876 -10.8862 -10.8683 -10.8661
   -10.8099 -10.8089 -10.7884 -10.7876 -10.7581 -10.7567 -10.6840 -10.6836
   -10.6436 -10.6430 -10.6219 -10.6210 -10.5889 -10.5880 -10.5422 -10.5415
    -6.0975  -6.0974  -6.0134  -6.0131  -5.9772  -5.9768  -5.9716  -5.9715
    -5.9427  -5.9410  -5.9363  -5.9346  -5.7960  -5.7958  -5.7740  -5.7737
    -5.2032  -5.2023  -5.0292  -5.0286  -4.8302  -4.8289  -4.7698  -4.7686
    -4.6325  -4.6306  -4.5792  -4.5768  -4.5010  -4.5004  -4.4821  -4.4802
    -4.4216  -4.4193  -4.4069  -4.3989  -4.3936  -4.3920  -4.3797  -4.3778
    -4.3747  -4.3679  -4.3641  -4.3609  -4.3559  -4.3528  -4.3487  -4.3455
    -4.3344  -4.3306  -4.3200  -4.3161  -4.3135  -4.3121  -4.2174  -4.2167
    -4.1984  -4.1956  -4.1878  -4.1866  -4.1780  -4.1772  -4.1550  -4.1509
    -0.8299  -0.8187  -0.7610  -0.7425  -0.6839  -0.6732  -0.6499  -0.6351
    -0.5883  -0.5756  -0.5173  -0.5024  -0.4899  -0.4689  -0.4504  -0.4214
    -0.3974  -0.3599  -0.2172  -0.1780  -0.1479  -0.1299  -0.0854  -0.0716
     0.1168   0.1689   0.2344   0.2810   0.2907   0.3045   0.3183   0.3333
     0.3501   0.3694   0.3782   0.3877   0.3996   0.4276   0.4327   0.4449
     0.4641   0.4969   0.5030   0.5311   0.5589   0.5802   0.6063   0.6616
     0.6728   0.6911   0.7170   0.7445   0.7637   0.7669   0.7809   0.7944
     0.8070   0.8259   0.8352   0.8493   0.8569   0.8673   0.8891   0.8952
     0.9036   0.9128   0.9247   0.9338   0.9464   0.9554   0.9618   0.9817
     0.9889   1.0069   1.0188   1.0264   1.0389   1.0417   1.0554   1.0606
     1.0748   1.0913   1.0935   1.1037   1.1195   1.1319   1.1436   1.1645
     1.1698   1.1769   1.1922   1.1958   1.2046   1.2210   1.2379   1.2409
     1.2598   1.2667   1.2789   1.2934   1.2981   1.3051   1.3269   1.3410
     1.3528   1.3646   1.3748   1.3855   1.4020   1.4175   1.4286   1.4381
     1.4441   1.4655   1.4717   1.4829   1.4907   1.5092   1.5210   1.5322
     1.5363   1.5654   1.5775   1.6023   1.6158   1.6335   1.6506   1.6721
     1.6826   1.7102   1.7395   1.7557   1.7905   1.8233   1.8418   1.8664
     1.9162   1.9657   2.0092   2.0270   2.2056   2.2196   2.3292   2.3408

          k = 0.1250-0.1250-0.3750 ( 73938 PWs)   bands (ev):

   -18.1275 -18.1275 -18.0396 -18.0396 -17.9992 -17.9992 -17.9952 -17.9952
   -17.9651 -17.9651 -17.9612 -17.9612 -17.8048 -17.8048 -17.7801 -17.7801
   -15.3215 -15.3215 -15.3008 -15.3008 -15.2526 -15.2517 -15.2503 -15.2496
   -15.2403 -15.2403 -15.2358 -15.2357 -15.2227 -15.2227 -15.2147 -15.2147
   -15.1848 -15.1847 -15.1674 -15.1674 -15.0949 -15.0948 -15.0874 -15.0874
   -15.0734 -15.0733 -15.0684 -15.0683 -15.0094 -15.0094 -15.0006 -15.0006
   -12.7930 -12.7918 -12.7696 -12.7690 -12.7655 -12.7606 -12.7418 -12.7372
   -12.7273 -12.7269 -12.7263 -12.7256 -12.7138 -12.7127 -12.6975 -12.6968
   -12.6837 -12.6833 -12.6575 -12.6572 -12.6569 -12.6563 -12.6465 -12.6459
   -12.6424 -12.6423 -12.6335 -12.6333 -12.5941 -12.5938 -12.5900 -12.5898
   -12.5696 -12.5690 -12.5617 -12.5614 -12.5377 -12.5367 -12.5070 -12.5067
   -12.4983 -12.4982 -12.4916 -12.4914 -12.4901 -12.4896 -12.4174 -12.4173
   -11.3984 -11.3968 -11.3622 -11.3607 -11.2672 -11.2655 -11.2232 -11.2216
   -11.2055 -11.2030 -11.1652 -11.1643 -11.0903 -11.0896 -11.0661 -11.0639
   -11.0547 -11.0520 -11.0380 -11.0342 -11.0067 -11.0060 -10.9822 -10.9810
   -10.9638 -10.9610 -10.9241 -10.9221 -10.8884 -10.8876 -10.8686 -10.8663
   -10.8113 -10.8103 -10.7855 -10.7851 -10.7605 -10.7594 -10.6867 -10.6860
   -10.6423 -10.6420 -10.6154 -10.6147 -10.5927 -10.5924 -10.5423 -10.5419
    -6.0975  -6.0974  -6.0135  -6.0131  -5.9771  -5.9769  -5.9716  -5.9715
    -5.9427  -5.9410  -5.9364  -5.9346  -5.7959  -5.7958  -5.7740  -5.7738
    -5.1998  -5.1994  -5.0341  -5.0333  -4.8260  -4.8250  -4.7786  -4.7765
    -4.6238  -4.6225  -4.5828  -4.5790  -4.5012  -4.4997  -4.4812  -4.4804
    -4.4207  -4.4184  -4.4025  -4.4010  -4.3943  -4.3911  -4.3808  -4.3770
    -4.3722  -4.3689  -4.3657  -4.3601  -4.3564  -4.3533  -4.3488  -4.3452
    -4.3362  -4.3329  -4.3218  -4.3177  -4.3138  -4.3104  -4.2183  -4.2155
    -4.1971  -4.1923  -4.1877  -4.1852  -4.1828  -4.1766  -4.1547  -4.1512
    -0.8625  -0.8026  -0.7629  -0.7481  -0.7040  -0.6834  -0.6393  -0.6321
    -0.6042  -0.5942  -0.5154  -0.5103  -0.4729  -0.4693  -0.4066  -0.3993
    -0.3654  -0.3240  -0.2186  -0.1903  -0.1507  -0.1400  -0.0869  -0.0697
     0.0880   0.1317   0.2533   0.2745   0.2894   0.3081   0.3179   0.3328
     0.3557   0.3683   0.3903   0.3989   0.4054   0.4201   0.4344   0.4493
     0.4569   0.4817   0.5095   0.5283   0.5596   0.5936   0.6157   0.6469
     0.6739   0.6990   0.7104   0.7337   0.7557   0.7710   0.7792   0.7938
     0.8066   0.8227   0.8347   0.8439   0.8508   0.8645   0.8760   0.8902
     0.9021   0.9188   0.9215   0.9375   0.9456   0.9563   0.9722   0.9757
     0.9950   1.0114   1.0167   1.0271   1.0380   1.0509   1.0640   1.0712
     1.0757   1.0884   1.0999   1.1119   1.1261   1.1384   1.1435   1.1569
     1.1624   1.1736   1.1841   1.1952   1.2113   1.2203   1.2281   1.2385
     1.2550   1.2643   1.2750   1.2913   1.3022   1.3104   1.3208   1.3322
     1.3450   1.3655   1.3750   1.3847   1.3950   1.4134   1.4309   1.4421
     1.4527   1.4627   1.4710   1.4757   1.4944   1.5071   1.5195   1.5350
     1.5523   1.5700   1.5869   1.6054   1.6275   1.6368   1.6522   1.6615
     1.6835   1.6934   1.7379   1.7553   1.7843   1.7955   1.8420   1.8888
     1.9219   1.9617   2.0015   2.0376   2.2096   2.2330   2.3264   2.3470

          k = 0.1250-0.1250-0.1250 ( 73866 PWs)   bands (ev):

   -18.1275 -18.1275 -18.0396 -18.0396 -17.9992 -17.9992 -17.9952 -17.9952
   -17.9651 -17.9651 -17.9612 -17.9612 -17.8048 -17.8048 -17.7801 -17.7801
   -15.3215 -15.3215 -15.3008 -15.3008 -15.2539 -15.2534 -15.2491 -15.2488
   -15.2403 -15.2402 -15.2354 -15.2353 -15.2227 -15.2227 -15.2147 -15.2147
   -15.1848 -15.1847 -15.1674 -15.1674 -15.0949 -15.0949 -15.0874 -15.0874
   -15.0734 -15.0734 -15.0684 -15.0683 -15.0093 -15.0093 -15.0006 -15.0006
   -12.7943 -12.7931 -12.7765 -12.7744 -12.7704 -12.7699 -12.7318 -12.7310
   -12.7274 -12.7270 -12.7212 -12.7198 -12.7136 -12.7127 -12.6982 -12.6975
   -12.6843 -12.6840 -12.6575 -12.6574 -12.6567 -12.6562 -12.6457 -12.6447
   -12.6417 -12.6412 -12.6335 -12.6333 -12.5937 -12.5934 -12.5900 -12.5899
   -12.5697 -12.5690 -12.5634 -12.5631 -12.5373 -12.5363 -12.5056 -12.5053
   -12.4983 -12.4982 -12.4909 -12.4908 -12.4886 -12.4882 -12.4174 -12.4173
   -11.4122 -11.4114 -11.3352 -11.3345 -11.2720 -11.2701 -11.2276 -11.2254
   -11.2004 -11.1990 -11.1635 -11.1621 -11.0910 -11.0905 -11.0741 -11.0722
   -11.0589 -11.0565 -11.0302 -11.0266 -11.0124 -11.0111 -10.9840 -10.9835
   -10.9673 -10.9641 -10.9143 -10.9128 -10.8936 -10.8924 -10.8685 -10.8660
   -10.8245 -10.8234 -10.7868 -10.7862 -10.7587 -10.7576 -10.6865 -10.6857
   -10.6389 -10.6385 -10.6276 -10.6267 -10.5772 -10.5770 -10.5377 -10.5374
    -6.0976  -6.0974  -6.0136  -6.0132  -5.9774  -5.9773  -5.9716  -5.9714
    -5.9423  -5.9407  -5.9363  -5.9344  -5.7959  -5.7958  -5.7740  -5.7738
    -5.3086  -5.3084  -4.9361  -4.9353  -4.8941  -4.8936  -4.8576  -4.8568
    -4.5172  -4.5117  -4.5032  -4.4962  -4.4922  -4.4843  -4.4747  -4.4660
    -4.4537  -4.4513  -4.4142  -4.4130  -4.3979  -4.3973  -4.3849  -4.3816
    -4.3767  -4.3746  -4.3669  -4.3640  -4.3571  -4.3548  -4.3496  -4.3466
    -4.3423  -4.3401  -4.3209  -4.3179  -4.3149  -4.3126  -4.2156  -4.2147
    -4.1907  -4.1898  -4.1872  -4.1855  -4.1768  -4.1753  -4.0185  -4.0164
    -1.0070  -0.9371  -0.8232  -0.7848  -0.7359  -0.7233  -0.6852  -0.6689
    -0.6547  -0.6338  -0.6045  -0.5784  -0.5633  -0.5439  -0.5090  -0.4846
    -0.4727  -0.4647  -0.4362  -0.4147  -0.3356  -0.3136  -0.2817  -0.2705
     0.2211   0.2483   0.2906   0.2937   0.3082   0.3220   0.3978   0.4196
     0.4370   0.4507   0.4661   0.4780   0.4942   0.5003   0.5111   0.5219
     0.5619   0.5696   0.5978   0.6164   0.6265   0.6600   0.6862   0.7094
     0.7282   0.7374   0.7426   0.7754   0.7874   0.8002   0.8089   0.8220
     0.8316   0.8403   0.8562   0.8675   0.8836   0.8930   0.9005   0.9155
     0.9296   0.9373   0.9426   0.9513   0.9596   0.9714   0.9795   0.9921
     1.0012   1.0208   1.0267   1.0320   1.0520   1.0573   1.0703   1.0795
     1.0925   1.1025   1.1105   1.1162   1.1244   1.1351   1.1420   1.1613
     1.1730   1.1813   1.1956   1.1981   1.2027   1.2185   1.2263   1.2322
     1.2503   1.2605   1.2759   1.2819   1.3048   1.3092   1.3165   1.3360
     1.3441   1.3619   1.3793   1.3898   1.4070   1.4164   1.4210   1.4328
     1.4474   1.4624   1.4721   1.4887   1.5086   1.5160   1.5334   1.5544
     1.5716   1.5777   1.6015   1.6210   1.6273   1.6435   1.6556   1.6741
     1.6884   1.7054   1.7541   1.7745   1.7932   1.8166   1.8876   1.9268
     2.0773   2.1295   2.1475   2.1779   2.2014   2.2356   2.5212   2.5306

          k = 0.3750 0.1250 0.1250 ( 73938 PWs)   bands (ev):

   -18.1275 -18.1275 -18.0396 -18.0396 -17.9992 -17.9992 -17.9952 -17.9952
   -17.9651 -17.9651 -17.9612 -17.9612 -17.8048 -17.8048 -17.7801 -17.7801
   -15.3215 -15.3215 -15.3008 -15.3008 -15.2539 -15.2535 -15.2492 -15.2489
   -15.2403 -15.2402 -15.2354 -15.2352 -15.2227 -15.2227 -15.2147 -15.2147
   -15.1849 -15.1848 -15.1674 -15.1674 -15.0948 -15.0948 -15.0874 -15.0874
   -15.0732 -15.0732 -15.0687 -15.0686 -15.0093 -15.0093 -15.0006 -15.0006
   -12.7892 -12.7877 -12.7780 -12.7756 -12.7702 -12.7698 -12.7310 -12.7293
   -12.7266 -12.7262 -12.7219 -12.7205 -12.7167 -12.7150 -12.6985 -12.6977
   -12.6837 -12.6832 -12.6582 -12.6577 -12.6571 -12.6570 -12.6474 -12.6461
   -12.6420 -12.6416 -12.6335 -12.6333 -12.5922 -12.5913 -12.5900 -12.5898
   -12.5689 -12.5684 -12.5611 -12.5602 -12.5424 -12.5413 -12.5061 -12.5054
   -12.4986 -12.4984 -12.4911 -12.4909 -12.4897 -12.4893 -12.4173 -12.4173
   -11.4044 -11.4038 -11.3432 -11.3426 -11.2759 -11.2753 -11.2361 -11.2350
   -11.2026 -11.2013 -11.1618 -11.1611 -11.0984 -11.0971 -11.0776 -11.0746
   -11.0425 -11.0418 -11.0208 -11.0184 -11.0053 -11.0018 -10.9882 -10.9867
   -10.9662 -10.9639 -10.9193 -10.9180 -10.8937 -10.8930 -10.8501 -10.8481
   -10.8257 -10.8246 -10.7903 -10.7889 -10.7577 -10.7568 -10.6858 -10.6852
   -10.6430 -10.6425 -10.6241 -10.6237 -10.5889 -10.5882 -10.5380 -10.5377
    -6.0976  -6.0974  -6.0135  -6.0132  -5.9765  -5.9760  -5.9727  -5.9723
    -5.9425  -5.9406  -5.9364  -5.9345  -5.7960  -5.7958  -5.7742  -5.7739
    -5.2151  -5.2138  -5.0367  -5.0358  -4.8001  -4.7987  -4.7777  -4.7765
    -4.6217  -4.6190  -4.5974  -4.5944  -4.5023  -4.5003  -4.4801  -4.4789
    -4.4228  -4.4203  -4.4075  -4.4024  -4.3888  -4.3871  -4.3801  -4.3780
    -4.3745  -4.3702  -4.3635  -4.3612  -4.3558  -4.3510  -4.3441  -4.3435
    -4.3293  -4.3274  -4.3178  -4.3165  -4.3133  -4.3112  -4.2208  -4.2172
    -4.2005  -4.1925  -4.1882  -4.1859  -4.1798  -4.1780  -4.1516  -4.1437
    -0.9868  -0.9320  -0.7409  -0.7134  -0.6901  -0.6560  -0.6401  -0.6339
    -0.5962  -0.5506  -0.5138  -0.4917  -0.4573  -0.4342  -0.4290  -0.3997
    -0.3536  -0.3405  -0.2900  -0.2693  -0.1219  -0.1076  -0.0815  -0.0668
     0.1591   0.2014   0.2095   0.2294   0.2706   0.2882   0.3020   0.3352
     0.3512   0.3661   0.3754   0.4004   0.4224   0.4309   0.4482   0.4698
     0.4716   0.4993   0.5071   0.5182   0.5841   0.6061   0.6369   0.6495
     0.6741   0.6918   0.7109   0.7295   0.7425   0.7668   0.7756   0.7843
     0.8086   0.8157   0.8309   0.8369   0.8594   0.8719   0.8867   0.8928
     0.9108   0.9137   0.9351   0.9509   0.9585   0.9637   0.9724   0.9908
     0.9962   0.9994   1.0108   1.0316   1.0384   1.0466   1.0617   1.0662
     1.0720   1.0829   1.1045   1.1197   1.1337   1.1421   1.1473   1.1602
     1.1637   1.1807   1.1919   1.1994   1.2138   1.2199   1.2393   1.2474
     1.2560   1.2628   1.2822   1.2862   1.3013   1.3113   1.3277   1.3341
     1.3506   1.3627   1.3742   1.3801   1.4022   1.4110   1.4286   1.4377
     1.4462   1.4619   1.4739   1.4865   1.4911   1.5088   1.5338   1.5511
     1.5584   1.5682   1.5809   1.5999   1.6077   1.6197   1.6244   1.6444
     1.6759   1.6943   1.7305   1.7579   1.7768   1.8062   1.8469   1.8782
     1.9855   1.9987   2.0148   2.0263   2.1930   2.2170   2.3042   2.3207

          k = 0.3750 0.1250 0.3750 ( 73952 PWs)   bands (ev):

   -18.1275 -18.1275 -18.0396 -18.0396 -17.9992 -17.9992 -17.9952 -17.9952
   -17.9651 -17.9651 -17.9612 -17.9612 -17.8048 -17.8048 -17.7801 -17.7801
   -15.3215 -15.3215 -15.3007 -15.3007 -15.2526 -15.2518 -15.2504 -15.2497
   -15.2403 -15.2403 -15.2358 -15.2356 -15.2227 -15.2227 -15.2147 -15.2147
   -15.1849 -15.1848 -15.1674 -15.1674 -15.0948 -15.0947 -15.0874 -15.0874
   -15.0732 -15.0731 -15.0688 -15.0687 -15.0094 -15.0094 -15.0006 -15.0006
   -12.7882 -12.7868 -12.7693 -12.7689 -12.7665 -12.7613 -12.7429 -12.7374
   -12.7266 -12.7262 -12.7246 -12.7238 -12.7178 -12.7158 -12.6978 -12.6969
   -12.6830 -12.6825 -12.6583 -12.6577 -12.6572 -12.6571 -12.6482 -12.6468
   -12.6430 -12.6425 -12.6335 -12.6333 -12.5927 -12.5918 -12.5899 -12.5898
   -12.5683 -12.5677 -12.5592 -12.5583 -12.5435 -12.5423 -12.5074 -12.5068
   -12.4985 -12.4984 -12.4925 -12.4919 -12.4905 -12.4903 -12.4173 -12.4173
   -11.3933 -11.3922 -11.3621 -11.3609 -11.2737 -11.2728 -11.2443 -11.2436
   -11.2014 -11.2001 -11.1595 -11.1584 -11.0939 -11.0929 -11.0654 -11.0634
   -11.0471 -11.0452 -11.0245 -11.0220 -11.0054 -11.0007 -10.9798 -10.9793
   -10.9693 -10.9673 -10.9246 -10.9238 -10.8934 -10.8925 -10.8496 -10.8478
   -10.8112 -10.8101 -10.7861 -10.7850 -10.7601 -10.7590 -10.6867 -10.6861
   -10.6414 -10.6408 -10.6250 -10.6244 -10.5967 -10.5961 -10.5432 -10.5429
    -6.0975  -6.0974  -6.0134  -6.0131  -5.9762  -5.9759  -5.9726  -5.9722
    -5.9428  -5.9409  -5.9365  -5.9346  -5.7960  -5.7958  -5.7742  -5.7739
    -5.1060  -5.1044  -4.9400  -4.9393  -4.9261  -4.9241  -4.7882  -4.7860
    -4.6437  -4.6411  -4.5282  -4.5270  -4.5015  -4.4996  -4.4801  -4.4779
    -4.4609  -4.4573  -4.4192  -4.4144  -4.4011  -4.3937  -4.3875  -4.3848
    -4.3789  -4.3774  -4.3658  -4.3642  -4.3609  -4.3596  -4.3524  -4.3507
    -4.3469  -4.3420  -4.3246  -4.3192  -4.3181  -4.3140  -4.3000  -4.2957
    -4.2140  -4.2122  -4.1883  -4.1872  -4.1848  -4.1827  -4.1758  -4.1724
    -0.7942  -0.7284  -0.6767  -0.6659  -0.6435  -0.6253  -0.5340  -0.5228
    -0.4877  -0.4497  -0.4034  -0.3714  -0.3620  -0.3341  -0.3094  -0.2944
    -0.2155  -0.1998  -0.1515  -0.1257  -0.0925  -0.0733  -0.0309  -0.0158
     0.0907   0.0947   0.1785   0.2009   0.2426   0.2485   0.2815   0.2925
     0.3135   0.3182   0.3419   0.3459   0.3690   0.3841   0.3937   0.4132
     0.4274   0.4427   0.4619   0.4815   0.4968   0.5176   0.5271   0.5767
     0.6292   0.6568   0.6709   0.6901   0.7126   0.7192   0.7428   0.7482
     0.7654   0.7860   0.7947   0.8168   0.8255   0.8398   0.8574   0.8743
     0.8830   0.8888   0.9165   0.9208   0.9320   0.9414   0.9528   0.9621
     0.9735   0.9807   0.9945   1.0067   1.0208   1.0294   1.0472   1.0563
     1.0667   1.0779   1.0983   1.1128   1.1182   1.1253   1.1404   1.1528
     1.1628   1.1724   1.1825   1.1882   1.2058   1.2183   1.2301   1.2388
     1.2569   1.2679   1.2916   1.2936   1.2980   1.3100   1.3283   1.3456
     1.3563   1.3685   1.3805   1.3865   1.4012   1.4179   1.4259   1.4305
     1.4386   1.4531   1.4791   1.4877   1.5029   1.5082   1.5207   1.5400
     1.5478   1.5584   1.5672   1.5902   1.5981   1.6149   1.6306   1.6428
     1.6573   1.6752   1.6872   1.6940   1.7116   1.7367   1.7726   1.8049
     1.9186   1.9573   1.9883   2.0189   2.0385   2.0635   2.1279   2.1374

          k = 0.3750 0.1250-0.3750 ( 73952 PWs)   bands (ev):

   -18.1275 -18.1275 -18.0396 -18.0396 -17.9992 -17.9992 -17.9952 -17.9952
   -17.9651 -17.9651 -17.9612 -17.9612 -17.8048 -17.8048 -17.7801 -17.7801
   -15.3215 -15.3215 -15.3008 -15.3007 -15.2526 -15.2518 -15.2504 -15.2497
   -15.2403 -15.2403 -15.2357 -15.2356 -15.2227 -15.2227 -15.2147 -15.2147
   -15.1849 -15.1848 -15.1674 -15.1674 -15.0948 -15.0947 -15.0874 -15.0874
   -15.0732 -15.0731 -15.0688 -15.0687 -15.0094 -15.0094 -15.0006 -15.0006
   -12.7882 -12.7868 -12.7694 -12.7689 -12.7664 -12.7612 -12.7429 -12.7375
   -12.7267 -12.7262 -12.7247 -12.7237 -12.7177 -12.7158 -12.6977 -12.6971
   -12.6830 -12.6826 -12.6582 -12.6579 -12.6572 -12.6569 -12.6479 -12.6471
   -12.6431 -12.6425 -12.6335 -12.6334 -12.5927 -12.5918 -12.5900 -12.5898
   -12.5683 -12.5677 -12.5592 -12.5584 -12.5436 -12.5421 -12.5074 -12.5068
   -12.4985 -12.4983 -12.4923 -12.4921 -12.4906 -12.4902 -12.4174 -12.4173
   -11.3962 -11.3949 -11.3572 -11.3561 -11.2835 -11.2828 -11.2289 -11.2284
   -11.2017 -11.2001 -11.1687 -11.1672 -11.0936 -11.0932 -11.0727 -11.0696
   -11.0446 -11.0423 -11.0195 -11.0172 -10.9992 -10.9969 -10.9818 -10.9802
   -10.9673 -10.9645 -10.9299 -10.9289 -10.8935 -10.8923 -10.8505 -10.8488
   -10.8100 -10.8092 -10.7866 -10.7858 -10.7590 -10.7582 -10.6858 -10.6851
   -10.6447 -10.6442 -10.6217 -10.6212 -10.5980 -10.5973 -10.5430 -10.5423
    -6.0975  -6.0974  -6.0134  -6.0131  -5.9763  -5.9758  -5.9726  -5.9723
    -5.9428  -5.9409  -5.9364  -5.9346  -5.7960  -5.7958  -5.7741  -5.7739
    -5.1069  -5.1063  -4.9450  -4.9433  -4.9253  -4.9252  -4.7673  -4.7647
    -4.6561  -4.6545  -4.5390  -4.5333  -4.4997  -4.4965  -4.4777  -4.4753
    -4.4641  -4.4608  -4.4185  -4.4162  -4.4014  -4.3947  -4.3859  -4.3841
    -4.3801  -4.3768  -4.3720  -4.3649  -4.3590  -4.3566  -4.3528  -4.3503
    -4.3442  -4.3421  -4.3241  -4.3207  -4.3147  -4.3138  -4.2937  -4.2917
    -4.2143  -4.2130  -4.1881  -4.1875  -4.1849  -4.1830  -4.1753  -4.1747
    -0.7634  -0.7198  -0.7000  -0.6736  -0.6394  -0.6171  -0.5643  -0.5311
    -0.5020  -0.4904  -0.3786  -0.3722  -0.3230  -0.3064  -0.2829  -0.2702
    -0.2344  -0.2214  -0.1973  -0.1718  -0.0635  -0.0461   0.0061   0.0266
     0.0529   0.0746   0.1710   0.1960   0.2307   0.2481   0.2858   0.2908
     0.3048   0.3223   0.3296   0.3529   0.3768   0.3830   0.3935   0.4045
     0.4248   0.4403   0.4603   0.4749   0.4890   0.5295   0.5487   0.5771
     0.6541   0.6600   0.6714   0.6892   0.6970   0.7291   0.7361   0.7506
     0.7676   0.7829   0.7981   0.8028   0.8305   0.8425   0.8567   0.8594
     0.8834   0.8960   0.9040   0.9256   0.9322   0.9407   0.9578   0.9702
     0.9789   0.9884   0.9991   1.0131   1.0194   1.0357   1.0422   1.0507
     1.0615   1.0802   1.0870   1.0975   1.1180   1.1266   1.1391   1.1439
     1.1584   1.1757   1.1791   1.1928   1.2045   1.2203   1.2373   1.2516
     1.2640   1.2742   1.2811   1.2936   1.3105   1.3202   1.3348   1.3495
     1.3499   1.3703   1.3748   1.3857   1.3948   1.4006   1.4152   1.4358
     1.4390   1.4551   1.4646   1.4793   1.5026   1.5122   1.5149   1.5344
     1.5476   1.5537   1.5748   1.5827   1.5960   1.6033   1.6240   1.6562
     1.6726   1.6759   1.6876   1.6990   1.7316   1.7429   1.8189   1.8323
     1.8778   1.8993   1.9847   1.9947   2.0594   2.0826   2.1241   2.1461

          k = 0.3750 0.1250-0.1250 ( 73938 PWs)   bands (ev):

   -18.1275 -18.1275 -18.0396 -18.0396 -17.9992 -17.9992 -17.9952 -17.9952
   -17.9651 -17.9651 -17.9612 -17.9612 -17.8048 -17.8048 -17.7801 -17.7801
   -15.3215 -15.3215 -15.3008 -15.3007 -15.2539 -15.2535 -15.2492 -15.2489
   -15.2403 -15.2402 -15.2353 -15.2352 -15.2227 -15.2227 -15.2147 -15.2147
   -15.1849 -15.1848 -15.1674 -15.1674 -15.0948 -15.0948 -15.0874 -15.0873
   -15.0732 -15.0732 -15.0687 -15.0686 -15.0093 -15.0093 -15.0006 -15.0006
   -12.7892 -12.7878 -12.7779 -12.7757 -12.7703 -12.7697 -12.7309 -12.7294
   -12.7267 -12.7262 -12.7216 -12.7210 -12.7163 -12.7152 -12.6984 -12.6978
   -12.6837 -12.6833 -12.6581 -12.6579 -12.6571 -12.6569 -12.6471 -12.6463
   -12.6421 -12.6415 -12.6335 -12.6334 -12.5922 -12.5913 -12.5900 -12.5898
   -12.5689 -12.5684 -12.5611 -12.5603 -12.5425 -12.5412 -12.5061 -12.5054
   -12.4986 -12.4984 -12.4911 -12.4910 -12.4897 -12.4893 -12.4174 -12.4173
   -11.4059 -11.4050 -11.3393 -11.3388 -11.2844 -11.2835 -11.2244 -11.2236
   -11.1985 -11.1971 -11.1727 -11.1720 -11.1007 -11.0992 -11.0820 -11.0793
   -11.0391 -11.0375 -11.0177 -11.0149 -10.9986 -10.9977 -10.9886 -10.9868
   -10.9673 -10.9650 -10.9227 -10.9212 -10.8943 -10.8932 -10.8514 -10.8497
   -10.8241 -10.8231 -10.7905 -10.7894 -10.7569 -10.7562 -10.6847 -10.6841
   -10.6460 -10.6457 -10.6218 -10.6212 -10.5897 -10.5890 -10.5379 -10.5373
    -6.0976  -6.0974  -6.0135  -6.0132  -5.9765  -5.9760  -5.9727  -5.9723
    -5.9425  -5.9406  -5.9363  -5.9346  -5.7959  -5.7958  -5.7741  -5.7739
    -5.2152  -5.2145  -5.0394  -5.0381  -4.8000  -4.7985  -4.7644  -4.7637
    -4.6315  -4.6290  -4.5992  -4.5967  -4.5022  -4.5005  -4.4801  -4.4793
    -4.4221  -4.4196  -4.4086  -4.4020  -4.3890  -4.3863  -4.3799  -4.3778
    -4.3739  -4.3708  -4.3638  -4.3610  -4.3563  -4.3521  -4.3439  -4.3424
    -4.3316  -4.3277  -4.3189  -4.3177  -4.3127  -4.3097  -4.2182  -4.2168
    -4.1965  -4.1903  -4.1881  -4.1870  -4.1791  -4.1777  -4.1513  -4.1475
    -0.9752  -0.9356  -0.7458  -0.7195  -0.6800  -0.6658  -0.6421  -0.6316
    -0.5954  -0.5523  -0.5149  -0.4914  -0.4606  -0.4392  -0.4209  -0.4040
    -0.3610  -0.3486  -0.2872  -0.2617  -0.1147  -0.0955  -0.0708  -0.0581
     0.1590   0.1807   0.1992   0.2287   0.2655   0.2868   0.3155   0.3328
     0.3501   0.3631   0.3742   0.4042   0.4108   0.4321   0.4599   0.4663
     0.4741   0.4901   0.5052   0.5174   0.5809   0.6042   0.6302   0.6661
     0.6819   0.6993   0.7195   0.7270   0.7336   0.7643   0.7717   0.7816
     0.8045   0.8174   0.8309   0.8492   0.8549   0.8684   0.8806   0.8932
     0.9113   0.9174   0.9331   0.9381   0.9534   0.9718   0.9737   0.9859
     1.0038   1.0162   1.0213   1.0278   1.0427   1.0474   1.0622   1.0712
     1.0844   1.0890   1.1016   1.1056   1.1228   1.1309   1.1507   1.1627
     1.1708   1.1792   1.1903   1.1982   1.2104   1.2268   1.2355   1.2485
     1.2595   1.2643   1.2784   1.2939   1.3095   1.3144   1.3232   1.3300
     1.3558   1.3629   1.3694   1.3813   1.3966   1.4038   1.4258   1.4343
     1.4424   1.4507   1.4633   1.4831   1.4984   1.5186   1.5283   1.5534
     1.5558   1.5686   1.5768   1.5920   1.6043   1.6167   1.6334   1.6454
     1.6805   1.6911   1.7391   1.7471   1.8051   1.8234   1.8641   1.8815
     1.9603   1.9931   2.0006   2.0216   2.1937   2.2263   2.2966   2.3247

          k = 0.3750 0.3750 0.1250 ( 73952 PWs)   bands (ev):

   -18.1275 -18.1275 -18.0396 -18.0396 -17.9992 -17.9992 -17.9952 -17.9952
   -17.9651 -17.9651 -17.9612 -17.9612 -17.8048 -17.8048 -17.7801 -17.7801
   -15.3215 -15.3215 -15.3008 -15.3007 -15.2539 -15.2535 -15.2492 -15.2488
   -15.2403 -15.2402 -15.2353 -15.2351 -15.2226 -15.2226 -15.2147 -15.2147
   -15.1849 -15.1848 -15.1675 -15.1675 -15.0948 -15.0948 -15.0874 -15.0874
   -15.0733 -15.0732 -15.0687 -15.0686 -15.0093 -15.0093 -15.0006 -15.0006
   -12.7891 -12.7877 -12.7779 -12.7755 -12.7698 -12.7694 -12.7308 -12.7292
   -12.7264 -12.7261 -12.7214 -12.7200 -12.7151 -12.7134 -12.6944 -12.6934
   -12.6813 -12.6808 -12.6587 -12.6581 -12.6571 -12.6571 -12.6509 -12.6504
   -12.6446 -12.6439 -12.6336 -12.6335 -12.5929 -12.5920 -12.5900 -12.5899
   -12.5709 -12.5703 -12.5611 -12.5603 -12.5424 -12.5414 -12.5068 -12.5062
   -12.4987 -12.4986 -12.4912 -12.4910 -12.4897 -12.4894 -12.4174 -12.4173
   -11.4020 -11.4014 -11.3421 -11.3415 -11.2678 -11.2674 -11.2462 -11.2454
   -11.2141 -11.2130 -11.1744 -11.1734 -11.1026 -11.1020 -11.0809 -11.0798
   -11.0462 -11.0425 -11.0319 -11.0297 -10.9903 -10.9871 -10.9651 -10.9628
   -10.9392 -10.9370 -10.9123 -10.9109 -10.8897 -10.8888 -10.8465 -10.8445
   -10.8398 -10.8383 -10.7896 -10.7886 -10.7716 -10.7704 -10.6832 -10.6827
   -10.6466 -10.6464 -10.6217 -10.6214 -10.5905 -10.5901 -10.5436 -10.5433
    -6.0975  -6.0974  -6.0135  -6.0132  -5.9761  -5.9757  -5.9727  -5.9725
    -5.9424  -5.9404  -5.9367  -5.9348  -5.7961  -5.7959  -5.7742  -5.7739
    -5.1384  -5.1372  -4.9569  -4.9559  -4.8759  -4.8755  -4.7630  -4.7608
    -4.6621  -4.6584  -4.5389  -4.5358  -4.4995  -4.4988  -4.4805  -4.4782
    -4.4637  -4.4604  -4.4206  -4.4133  -4.4024  -4.3917  -4.3862  -4.3844
    -4.3782  -4.3763  -4.3646  -4.3636  -4.3610  -4.3585  -4.3535  -4.3492
    -4.3435  -4.3400  -4.3227  -4.3199  -4.3177  -4.3144  -4.2906  -4.2871
    -4.2138  -4.2119  -4.1891  -4.1876  -4.1854  -4.1840  -4.1759  -4.1723
    -0.9730  -0.9431  -0.6512  -0.6259  -0.5793  -0.5552  -0.5081  -0.4929
    -0.4414  -0.4060  -0.3779  -0.3646  -0.3387  -0.3151  -0.2986  -0.2852
    -0.2383  -0.2306  -0.2011  -0.1754  -0.0969  -0.0786  -0.0504  -0.0333
     0.1127   0.1333   0.1825   0.1910   0.2291   0.2550   0.2826   0.2876
     0.3081   0.3194   0.3384   0.3523   0.3690   0.3801   0.3938   0.4128
     0.4314   0.4556   0.4609   0.4826   0.5054   0.5135   0.5429   0.5706
     0.6669   0.6850   0.7006   0.7113   0.7199   0.7377   0.7444   0.7637
     0.7765   0.7926   0.8013   0.8187   0.8281   0.8431   0.8533   0.8617
     0.8757   0.8955   0.8980   0.9152   0.9276   0.9312   0.9498   0.9613
     0.9728   0.9890   0.9914   1.0096   1.0227   1.0279   1.0306   1.0484
     1.0550   1.0739   1.0961   1.0990   1.1170   1.1342   1.1351   1.1439
     1.1628   1.1680   1.1884   1.2004   1.2062   1.2221   1.2319   1.2461
     1.2505   1.2686   1.2735   1.2898   1.3076   1.3206   1.3299   1.3344
     1.3408   1.3524   1.3680   1.3802   1.3987   1.4106   1.4183   1.4311
     1.4493   1.4588   1.4623   1.4790   1.4955   1.5094   1.5239   1.5333
     1.5500   1.5624   1.5739   1.5849   1.6030   1.6113   1.6316   1.6486
     1.6633   1.6880   1.7088   1.7108   1.7538   1.7813   1.8146   1.8565
     1.8665   1.8923   1.9840   2.0000   2.0572   2.0692   2.1229   2.1337

          k = 0.3750 0.3750 0.3750 ( 73968 PWs)   bands (ev):

   -18.1275 -18.1275 -18.0396 -18.0396 -17.9992 -17.9992 -17.9952 -17.9952
   -17.9651 -17.9651 -17.9612 -17.9612 -17.8048 -17.8048 -17.7801 -17.7801
   -15.3215 -15.3215 -15.3007 -15.3007 -15.2526 -15.2518 -15.2504 -15.2497
   -15.2403 -15.2402 -15.2358 -15.2356 -15.2226 -15.2226 -15.2146 -15.2146
   -15.1849 -15.1849 -15.1675 -15.1675 -15.0948 -15.0948 -15.0874 -15.0874
   -15.0732 -15.0731 -15.0688 -15.0687 -15.0094 -15.0094 -15.0007 -15.0006
   -12.7881 -12.7867 -12.7688 -12.7685 -12.7664 -12.7611 -12.7428 -12.7373
   -12.7265 -12.7261 -12.7239 -12.7231 -12.7163 -12.7143 -12.6932 -12.6922
   -12.6810 -12.6805 -12.6587 -12.6581 -12.6572 -12.6571 -12.6512 -12.6505
   -12.6464 -12.6457 -12.6336 -12.6335 -12.5934 -12.5924 -12.5900 -12.5899
   -12.5703 -12.5697 -12.5593 -12.5584 -12.5435 -12.5423 -12.5081 -12.5075
   -12.4985 -12.4984 -12.4927 -12.4921 -12.4905 -12.4903 -12.4174 -12.4173
   -11.3929 -11.3920 -11.3600 -11.3589 -11.2750 -11.2745 -11.2385 -11.2379
   -11.2091 -11.2078 -11.1750 -11.1738 -11.1129 -11.1122 -11.0742 -11.0731
   -11.0429 -11.0379 -11.0292 -11.0265 -10.9876 -10.9847 -10.9594 -10.9579
   -10.9382 -10.9357 -10.9206 -10.9188 -10.8923 -10.8917 -10.8448 -10.8428
   -10.8271 -10.8261 -10.7883 -10.7876 -10.7700 -10.7686 -10.6805 -10.6798
   -10.6476 -10.6468 -10.6280 -10.6272 -10.5957 -10.5954 -10.5471 -10.5468
    -6.0975  -6.0974  -6.0134  -6.0130  -5.9759  -5.9756  -5.9726  -5.9724
    -5.9426  -5.9406  -5.9369  -5.9349  -5.7961  -5.7959  -5.7741  -5.7738
    -5.0255  -5.0240  -4.8708  -4.8688  -4.8440  -4.8428  -4.7982  -4.7978
    -4.6832  -4.6813  -4.5981  -4.5946  -4.5565  -4.5525  -4.5017  -4.5014
    -4.4808  -4.4791  -4.4526  -4.4459  -4.4154  -4.4118  -4.3942  -4.3928
    -4.3837  -4.3816  -4.3755  -4.3737  -4.3639  -4.3625  -4.3581  -4.3561
    -4.3502  -4.3493  -4.3390  -4.3382  -4.3214  -4.3177  -4.3150  -4.3147
    -4.2149  -4.2138  -4.1887  -4.1876  -4.1858  -4.1852  -4.1763  -4.1742
    -0.6776  -0.6130  -0.5095  -0.4682  -0.4474  -0.4121  -0.3997  -0.3854
    -0.3591  -0.3395  -0.3124  -0.2974  -0.2904  -0.2579  -0.2447  -0.2101
    -0.1962  -0.1826  -0.1243  -0.0945  -0.0831  -0.0711  -0.0225  -0.0030
     0.0369   0.0661   0.1157   0.1375   0.1819   0.2075   0.2406   0.2619
     0.2712   0.2875   0.3087   0.3196   0.3401   0.3505   0.3590   0.3725
     0.3795   0.3904   0.4068   0.4189   0.4401   0.4532   0.5042   0.5245
     0.6599   0.6717   0.6853   0.7021   0.7090   0.7168   0.7352   0.7539
     0.7675   0.7736   0.7894   0.7964   0.8039   0.8179   0.8230   0.8388
     0.8555   0.8731   0.8801   0.8926   0.9048   0.9117   0.9239   0.9430
     0.9480   0.9636   0.9721   0.9813   0.9877   0.9972   1.0152   1.0293
     1.0502   1.0573   1.0747   1.0856   1.0975   1.1106   1.1197   1.1244
     1.1345   1.1451   1.1684   1.1766   1.1855   1.2175   1.2331   1.2432
     1.2550   1.2646   1.2770   1.2850   1.2970   1.3096   1.3248   1.3429
     1.3564   1.3611   1.3751   1.3881   1.4054   1.4127   1.4256   1.4358
     1.4438   1.4537   1.4698   1.4810   1.4865   1.5080   1.5186   1.5210
     1.5378   1.5475   1.5623   1.5768   1.5899   1.5988   1.6128   1.6247
     1.6340   1.6544   1.6732   1.6932   1.6994   1.7163   1.7377   1.7516
     1.8054   1.8133   1.8609   1.8721   1.9320   1.9598   2.0005   2.0132

          k = 0.3750 0.3750-0.3750 ( 73968 PWs)   bands (ev):

   -18.1275 -18.1275 -18.0396 -18.0396 -17.9992 -17.9992 -17.9952 -17.9952
   -17.9651 -17.9651 -17.9612 -17.9612 -17.8048 -17.8048 -17.7801 -17.7801
   -15.3215 -15.3215 -15.3007 -15.3007 -15.2526 -15.2518 -15.2504 -15.2497
   -15.2403 -15.2402 -15.2357 -15.2356 -15.2226 -15.2226 -15.2146 -15.2146
   -15.1849 -15.1849 -15.1675 -15.1675 -15.0948 -15.0948 -15.0874 -15.0874
   -15.0732 -15.0732 -15.0688 -15.0687 -15.0094 -15.0094 -15.0006 -15.0006
   -12.7881 -12.7867 -12.7690 -12.7685 -12.7662 -12.7611 -12.7428 -12.7374
   -12.7266 -12.7261 -12.7240 -12.7230 -12.7162 -12.7143 -12.6929 -12.6924
   -12.6810 -12.6806 -12.6587 -12.6583 -12.6572 -12.6570 -12.6511 -12.6506
   -12.6464 -12.6457 -12.6336 -12.6335 -12.5934 -12.5924 -12.5900 -12.5899
   -12.5703 -12.5697 -12.5593 -12.5584 -12.5437 -12.5422 -12.5081 -12.5075
   -12.4986 -12.4984 -12.4924 -12.4923 -12.4906 -12.4902 -12.4174 -12.4173
   -11.3958 -11.3946 -11.3556 -11.3545 -11.2809 -11.2804 -11.2266 -11.2257
   -11.2102 -11.2094 -11.1826 -11.1819 -11.1148 -11.1138 -11.0743 -11.0727
   -11.0472 -11.0416 -11.0206 -11.0171 -10.9862 -10.9838 -10.9598 -10.9581
   -10.9360 -10.9340 -10.9260 -10.9246 -10.8930 -10.8914 -10.8461 -10.8442
   -10.8244 -10.8236 -10.7903 -10.7897 -10.7681 -10.7669 -10.6776 -10.6772
   -10.6542 -10.6538 -10.6225 -10.6220 -10.5978 -10.5970 -10.5469 -10.5463
    -6.0975  -6.0974  -6.0134  -6.0130  -5.9759  -5.9757  -5.9726  -5.9725
    -5.9426  -5.9405  -5.9369  -5.9349  -5.7961  -5.7960  -5.7741  -5.7738
    -5.0300  -5.0292  -4.8732  -4.8728  -4.8453  -4.8430  -4.7671  -4.7665
    -4.6903  -4.6857  -4.6299  -4.6267  -4.5506  -4.5483  -4.5005  -4.4991
    -4.4804  -4.4788  -4.4475  -4.4403  -4.4154  -4.4111  -4.3940  -4.3895
    -4.3841  -4.3806  -4.3779  -4.3709  -4.3634  -4.3607  -4.3580  -4.3537
    -4.3510  -4.3483  -4.3414  -4.3390  -4.3209  -4.3174  -4.3160  -4.3141
    -4.2150  -4.2144  -4.1887  -4.1879  -4.1861  -4.1847  -4.1760  -4.1757
    -0.6771  -0.6137  -0.4812  -0.4633  -0.4387  -0.4167  -0.4016  -0.3690
    -0.3442  -0.3421  -0.3262  -0.3160  -0.3035  -0.2720  -0.2480  -0.2356
    -0.2122  -0.1800  -0.1615  -0.1408  -0.0539  -0.0390   0.0070   0.0280
     0.0346   0.0551   0.1451   0.1713   0.1890   0.2059   0.2291   0.2504
     0.2712   0.2888   0.2938   0.3154   0.3261   0.3413   0.3520   0.3626
     0.3696   0.3946   0.4115   0.4302   0.4401   0.4663   0.5106   0.5354
     0.6532   0.6627   0.6832   0.6976   0.7097   0.7330   0.7394   0.7525
     0.7591   0.7781   0.7827   0.7965   0.8035   0.8092   0.8342   0.8442
     0.8550   0.8670   0.8863   0.8923   0.9001   0.9087   0.9200   0.9361
     0.9530   0.9685   0.9744   0.9812   0.9975   1.0034   1.0159   1.0248
     1.0425   1.0557   1.0669   1.0807   1.0896   1.1063   1.1168   1.1294
     1.1452   1.1616   1.1684   1.1757   1.1938   1.1999   1.2281   1.2370
     1.2503   1.2576   1.2790   1.2897   1.3052   1.3206   1.3243   1.3431
     1.3537   1.3627   1.3845   1.3974   1.4055   1.4102   1.4215   1.4320
     1.4404   1.4610   1.4667   1.4739   1.4845   1.4989   1.5090   1.5143
     1.5349   1.5472   1.5561   1.5770   1.5890   1.5959   1.6096   1.6354
     1.6494   1.6642   1.6801   1.6968   1.7060   1.7241   1.7451   1.7689
     1.7883   1.8058   1.8517   1.8771   1.9088   1.9334   2.0177   2.0300

          k = 0.3750 0.3750-0.1250 ( 73952 PWs)   bands (ev):

   -18.1275 -18.1275 -18.0396 -18.0396 -17.9992 -17.9992 -17.9952 -17.9952
   -17.9651 -17.9651 -17.9612 -17.9612 -17.8048 -17.8048 -17.7801 -17.7801
   -15.3215 -15.3215 -15.3008 -15.3007 -15.2539 -15.2535 -15.2491 -15.2489
   -15.2403 -15.2402 -15.2353 -15.2352 -15.2226 -15.2226 -15.2147 -15.2147
   -15.1849 -15.1849 -15.1675 -15.1675 -15.0948 -15.0948 -15.0874 -15.0874
   -15.0733 -15.0732 -15.0687 -15.0686 -15.0093 -15.0093 -15.0006 -15.0006
   -12.7892 -12.7877 -12.7778 -12.7756 -12.7698 -12.7693 -12.7307 -12.7292
   -12.7265 -12.7261 -12.7211 -12.7205 -12.7148 -12.7136 -12.6941 -12.6937
   -12.6813 -12.6809 -12.6587 -12.6583 -12.6571 -12.6570 -12.6508 -12.6504
   -12.6446 -12.6440 -12.6336 -12.6335 -12.5929 -12.5919 -12.5900 -12.5899
   -12.5709 -12.5703 -12.5611 -12.5603 -12.5426 -12.5412 -12.5068 -12.5062
   -12.4987 -12.4985 -12.4912 -12.4910 -12.4898 -12.4893 -12.4174 -12.4173
   -11.4036 -11.4028 -11.3388 -11.3381 -11.2753 -11.2746 -11.2344 -11.2336
   -11.2175 -11.2163 -11.1762 -11.1752 -11.1120 -11.1100 -11.0786 -11.0760
   -11.0458 -11.0424 -11.0260 -11.0228 -10.9887 -10.9861 -10.9656 -10.9640
   -10.9380 -10.9369 -10.9164 -10.9150 -10.8907 -10.8888 -10.8486 -10.8469
   -10.8357 -10.8345 -10.7913 -10.7905 -10.7700 -10.7688 -10.6812 -10.6809
   -10.6512 -10.6510 -10.6182 -10.6177 -10.5920 -10.5914 -10.5434 -10.5428
    -6.0975  -6.0974  -6.0135  -6.0132  -5.9760  -5.9758  -5.9726  -5.9725
    -5.9424  -5.9403  -5.9367  -5.9348  -5.7961  -5.7959  -5.7741  -5.7739
    -5.1394  -5.1388  -4.9614  -4.9609  -4.8713  -4.8703  -4.7385  -4.7354
    -4.6871  -4.6846  -4.5419  -4.5367  -4.5002  -4.4993  -4.4811  -4.4793
    -4.4613  -4.4595  -4.4206  -4.4137  -4.4030  -4.3922  -4.3856  -4.3835
    -4.3787  -4.3768  -4.3660  -4.3639  -4.3595  -4.3582  -4.3529  -4.3495
    -4.3416  -4.3390  -4.3224  -4.3206  -4.3167  -4.3141  -4.2874  -4.2829
    -4.2141  -4.2128  -4.1890  -4.1882  -4.1857  -4.1834  -4.1756  -4.1745
    -0.9725  -0.9427  -0.6442  -0.6126  -0.5726  -0.5537  -0.5186  -0.5004
    -0.4489  -0.4081  -0.3772  -0.3742  -0.3464  -0.3174  -0.3037  -0.2956
    -0.2381  -0.2270  -0.1977  -0.1761  -0.0841  -0.0679  -0.0393  -0.0226
     0.0925   0.1234   0.1816   0.1978   0.2405   0.2492   0.2814   0.2986
     0.3123   0.3186   0.3299   0.3522   0.3637   0.3793   0.3919   0.4072
     0.4306   0.4499   0.4722   0.4837   0.4951   0.5207   0.5497   0.5839
     0.6706   0.6836   0.6940   0.7069   0.7139   0.7234   0.7428   0.7624
     0.7767   0.7936   0.8049   0.8193   0.8314   0.8424   0.8609   0.8658
     0.8760   0.8900   0.8978   0.9124   0.9282   0.9433   0.9483   0.9571
     0.9723   0.9838   0.9995   1.0105   1.0160   1.0246   1.0404   1.0470
     1.0575   1.0811   1.0924   1.1038   1.1132   1.1244   1.1444   1.1480
     1.1636   1.1775   1.1881   1.1925   1.2095   1.2217   1.2271   1.2409
     1.2514   1.2673   1.2725   1.2938   1.2966   1.3145   1.3219   1.3283
     1.3555   1.3655   1.3674   1.3846   1.3949   1.4110   1.4236   1.4312
     1.4421   1.4529   1.4583   1.4832   1.4924   1.5092   1.5158   1.5266
     1.5454   1.5595   1.5747   1.5844   1.5957   1.6204   1.6381   1.6506
     1.6722   1.6881   1.6975   1.7108   1.7666   1.7889   1.8315   1.8586
     1.8764   1.8991   1.9554   1.9872   2.0348   2.0752   2.1221   2.1537

          k = 0.3750-0.3750 0.1250 ( 73952 PWs)   bands (ev):

   -18.1275 -18.1275 -18.0396 -18.0396 -17.9992 -17.9992 -17.9952 -17.9952
   -17.9651 -17.9651 -17.9612 -17.9612 -17.8048 -17.8048 -17.7801 -17.7801
   -15.3215 -15.3215 -15.3008 -15.3007 -15.2539 -15.2535 -15.2492 -15.2488
   -15.2403 -15.2402 -15.2353 -15.2351 -15.2226 -15.2226 -15.2147 -15.2147
   -15.1849 -15.1848 -15.1675 -15.1675 -15.0948 -15.0948 -15.0874 -15.0874
   -15.0733 -15.0732 -15.0687 -15.0686 -15.0093 -15.0093 -15.0006 -15.0006
   -12.7892 -12.7877 -12.7779 -12.7756 -12.7699 -12.7692 -12.7309 -12.7292
   -12.7264 -12.7261 -12.7214 -12.7199 -12.7147 -12.7138 -12.6941 -12.6937
   -12.6813 -12.6808 -12.6589 -12.6580 -12.6572 -12.6570 -12.6512 -12.6500
   -12.6448 -12.6437 -12.6336 -12.6335 -12.5927 -12.5922 -12.5900 -12.5899
   -12.5709 -12.5703 -12.5611 -12.5603 -12.5424 -12.5414 -12.5067 -12.5063
   -12.4987 -12.4986 -12.4912 -12.4909 -12.4898 -12.4894 -12.4174 -12.4173
   -11.4022 -11.4015 -11.3422 -11.3416 -11.2764 -11.2754 -11.2293 -11.2283
   -11.2178 -11.2170 -11.1773 -11.1763 -11.1082 -11.1070 -11.0800 -11.0783
   -11.0436 -11.0422 -11.0298 -11.0276 -10.9910 -10.9872 -10.9661 -10.9650
   -10.9411 -10.9397 -10.9115 -10.9096 -10.8875 -10.8854 -10.8506 -10.8475
   -10.8355 -10.8342 -10.7920 -10.7915 -10.7712 -10.7686 -10.6817 -10.6814
   -10.6451 -10.6449 -10.6268 -10.6263 -10.5887 -10.5882 -10.5434 -10.5429
    -6.0975  -6.0974  -6.0135  -6.0132  -5.9762  -5.9755  -5.9728  -5.9724
    -5.9423  -5.9404  -5.9368  -5.9347  -5.7961  -5.7959  -5.7742  -5.7739
    -5.1403  -5.1394  -4.9562  -4.9555  -4.8791  -4.8780  -4.7343  -4.7329
    -4.6867  -4.6834  -4.5361  -4.5322  -4.5001  -4.4964  -4.4821  -4.4784
    -4.4714  -4.4702  -4.4166  -4.4139  -4.4054  -4.3946  -4.3849  -4.3814
    -4.3761  -4.3752  -4.3673  -4.3644  -4.3603  -4.3580  -4.3525  -4.3504
    -4.3415  -4.3389  -4.3233  -4.3210  -4.3167  -4.3149  -4.2861  -4.2820
    -4.2143  -4.2132  -4.1888  -4.1872  -4.1851  -4.1824  -4.1758  -4.1744
    -0.9562  -0.9428  -0.6564  -0.6274  -0.5869  -0.5611  -0.5135  -0.5014
    -0.4578  -0.4438  -0.3903  -0.3706  -0.3197  -0.3015  -0.2806  -0.2573
    -0.2492  -0.2357  -0.1962  -0.1783  -0.0708  -0.0504  -0.0373   0.0199
     0.1046   0.1225   0.1584   0.1939   0.2183   0.2381   0.2538   0.2794
     0.2948   0.3077   0.3261   0.3498   0.3668   0.3791   0.3975   0.4175
     0.4272   0.4507   0.4756   0.4827   0.5089   0.5270   0.5448   0.5917
     0.6637   0.6802   0.7018   0.7058   0.7230   0.7336   0.7513   0.7621
     0.7712   0.7909   0.8047   0.8124   0.8308   0.8459   0.8536   0.8673
     0.8763   0.8882   0.9096   0.9116   0.9168   0.9353   0.9474   0.9616
     0.9706   0.9846   0.9892   0.9962   1.0228   1.0318   1.0454   1.0536
     1.0618   1.0706   1.0923   1.0954   1.1173   1.1283   1.1366   1.1575
     1.1622   1.1807   1.1880   1.1934   1.2127   1.2228   1.2282   1.2392
     1.2639   1.2679   1.2763   1.2971   1.3035   1.3202   1.3261   1.3333
     1.3452   1.3580   1.3781   1.3831   1.3972   1.4053   1.4181   1.4350
     1.4417   1.4516   1.4686   1.4729   1.4864   1.5026   1.5198   1.5266
     1.5489   1.5618   1.5786   1.5879   1.5937   1.6084   1.6269   1.6502
     1.6769   1.6841   1.7036   1.7148   1.7668   1.7890   1.8298   1.8436
     1.8893   1.9000   1.9643   1.9856   2.0283   2.0644   2.1339   2.1520

          k = 0.3750-0.3750 0.3750 ( 73968 PWs)   bands (ev):

   -18.1275 -18.1275 -18.0396 -18.0396 -17.9992 -17.9992 -17.9952 -17.9952
   -17.9651 -17.9651 -17.9612 -17.9612 -17.8048 -17.8048 -17.7801 -17.7801
   -15.3215 -15.3215 -15.3007 -15.3007 -15.2526 -15.2518 -15.2504 -15.2496
   -15.2403 -15.2402 -15.2358 -15.2356 -15.2226 -15.2226 -15.2146 -15.2146
   -15.1849 -15.1849 -15.1675 -15.1675 -15.0948 -15.0948 -15.0874 -15.0874
   -15.0732 -15.0731 -15.0688 -15.0687 -15.0094 -15.0094 -15.0007 -15.0006
   -12.7882 -12.7867 -12.7690 -12.7683 -12.7663 -12.7612 -12.7429 -12.7373
   -12.7265 -12.7261 -12.7241 -12.7229 -12.7159 -12.7147 -12.6929 -12.6924
   -12.6810 -12.6805 -12.6589 -12.6580 -12.6572 -12.6571 -12.6513 -12.6503
   -12.6465 -12.6455 -12.6336 -12.6335 -12.5931 -12.5927 -12.5900 -12.5899
   -12.5703 -12.5697 -12.5593 -12.5584 -12.5435 -12.5423 -12.5080 -12.5076
   -12.4985 -12.4984 -12.4927 -12.4921 -12.4905 -12.4903 -12.4174 -12.4173
   -11.3933 -11.3922 -11.3599 -11.3589 -11.2788 -11.2781 -11.2289 -11.2274
   -11.2134 -11.2122 -11.1740 -11.1736 -11.1162 -11.1154 -11.0756 -11.0748
   -11.0400 -11.0387 -11.0263 -11.0240 -10.9880 -10.9846 -10.9631 -10.9624
   -10.9363 -10.9338 -10.9249 -10.9222 -10.8852 -10.8832 -10.8485 -10.8455
   -10.8260 -10.8246 -10.7907 -10.7904 -10.7690 -10.7665 -10.6780 -10.6776
   -10.6471 -10.6465 -10.6324 -10.6319 -10.5943 -10.5936 -10.5469 -10.5463
    -6.0975  -6.0974  -6.0133  -6.0130  -5.9761  -5.9755  -5.9727  -5.9723
    -5.9426  -5.9406  -5.9370  -5.9349  -5.7961  -5.7959  -5.7741  -5.7738
    -5.0320  -5.0307  -4.8706  -4.8698  -4.8363  -4.8350  -4.7834  -4.7825
    -4.6634  -4.6611  -4.6511  -4.6497  -4.5494  -4.5460  -4.5012  -4.5004
    -4.4811  -4.4794  -4.4409  -4.4360  -4.4153  -4.4108  -4.3932  -4.3894
    -4.3849  -4.3832  -4.3764  -4.3748  -4.3627  -4.3613  -4.3576  -4.3561
    -4.3510  -4.3491  -4.3417  -4.3386  -4.3208  -4.3182  -4.3164  -4.3130
    -4.2151  -4.2141  -4.1885  -4.1874  -4.1856  -4.1845  -4.1762  -4.1754
    -0.6336  -0.5956  -0.5339  -0.4897  -0.4513  -0.4296  -0.4076  -0.3897
    -0.3646  -0.3463  -0.3324  -0.2970  -0.2852  -0.2656  -0.2443  -0.2362
    -0.2033  -0.1733  -0.1308  -0.1104  -0.0595  -0.0420   0.0023   0.0237
     0.0747   0.0980   0.1227   0.1480   0.1965   0.2127   0.2221   0.2525
     0.2634   0.2697   0.2963   0.3040   0.3201   0.3302   0.3477   0.3607
     0.3751   0.3844   0.4080   0.4290   0.4363   0.4485   0.5106   0.5492
     0.6596   0.6798   0.6873   0.7029   0.7199   0.7271   0.7306   0.7468
     0.7564   0.7729   0.7830   0.7975   0.8062   0.8197   0.8333   0.8413
     0.8548   0.8724   0.8780   0.8906   0.9031   0.9124   0.9267   0.9345
     0.9447   0.9508   0.9669   0.9746   0.9945   1.0039   1.0185   1.0291
     1.0439   1.0572   1.0664   1.0803   1.0950   1.1064   1.1157   1.1284
     1.1480   1.1573   1.1727   1.1846   1.1955   1.2051   1.2273   1.2376
     1.2563   1.2663   1.2811   1.2929   1.3081   1.3219   1.3317   1.3365
     1.3474   1.3556   1.3725   1.3934   1.4036   1.4103   1.4241   1.4355
     1.4474   1.4545   1.4628   1.4753   1.4835   1.5038   1.5164   1.5255
     1.5348   1.5486   1.5650   1.5760   1.5849   1.5966   1.6096   1.6314
     1.6484   1.6548   1.6747   1.6931   1.7070   1.7216   1.7429   1.7735
     1.7853   1.8096   1.8519   1.8669   1.9048   1.9385   2.0179   2.0396

          k = 0.3750-0.3750-0.3750 ( 73968 PWs)   bands (ev):

   -18.1275 -18.1275 -18.0396 -18.0396 -17.9992 -17.9992 -17.9952 -17.9952
   -17.9651 -17.9651 -17.9612 -17.9612 -17.8048 -17.8048 -17.7801 -17.7801
   -15.3215 -15.3215 -15.3007 -15.3007 -15.2526 -15.2518 -15.2504 -15.2497
   -15.2403 -15.2402 -15.2357 -15.2356 -15.2226 -15.2226 -15.2146 -15.2146
   -15.1849 -15.1849 -15.1675 -15.1675 -15.0948 -15.0948 -15.0874 -15.0874
   -15.0732 -15.0731 -15.0688 -15.0687 -15.0094 -15.0094 -15.0007 -15.0006
   -12.7882 -12.7867 -12.7691 -12.7684 -12.7663 -12.7610 -12.7427 -12.7374
   -12.7266 -12.7261 -12.7241 -12.7229 -12.7158 -12.7147 -12.6931 -12.6922
   -12.6810 -12.6805 -12.6588 -12.6582 -12.6572 -12.6570 -12.6514 -12.6501
   -12.6465 -12.6456 -12.6336 -12.6335 -12.5930 -12.5928 -12.5900 -12.5899
   -12.5703 -12.5697 -12.5593 -12.5585 -12.5437 -12.5422 -12.5080 -12.5077
   -12.4986 -12.4984 -12.4924 -12.4923 -12.4906 -12.4902 -12.4174 -12.4173
   -11.3951 -11.3938 -11.3565 -11.3553 -11.2765 -11.2761 -11.2338 -11.2328
   -11.2182 -11.2170 -11.1702 -11.1697 -11.1137 -11.1121 -11.0763 -11.0745
   -11.0427 -11.0380 -11.0269 -11.0241 -10.9877 -10.9846 -10.9586 -10.9575
   -10.9371 -10.9350 -10.9246 -10.9233 -10.8891 -10.8871 -10.8480 -10.8450
   -10.8249 -10.8232 -10.7909 -10.7906 -10.7687 -10.7663 -10.6834 -10.6829
   -10.6478 -10.6474 -10.6212 -10.6207 -10.5998 -10.5988 -10.5471 -10.5468
    -6.0975  -6.0974  -6.0134  -6.0130  -5.9760  -5.9756  -5.9727  -5.9723
    -5.9426  -5.9406  -5.9370  -5.9349  -5.7961  -5.7960  -5.7741  -5.7738
    -5.0232  -5.0225  -4.8679  -4.8670  -4.8495  -4.8479  -4.8013  -4.8000
    -4.6740  -4.6737  -4.6020  -4.5987  -4.5628  -4.5608  -4.5007  -4.4997
    -4.4802  -4.4784  -4.4521  -4.4425  -4.4145  -4.4092  -4.3957  -4.3884
    -4.3835  -4.3825  -4.3766  -4.3733  -4.3634  -4.3610  -4.3572  -4.3565
    -4.3508  -4.3490  -4.3401  -4.3377  -4.3207  -4.3180  -4.3159  -4.3136
    -4.2147  -4.2145  -4.1891  -4.1873  -4.1861  -4.1851  -4.1761  -4.1754
    -0.7022  -0.6289  -0.5122  -0.4808  -0.4304  -0.4151  -0.3880  -0.3760
    -0.3498  -0.3353  -0.3233  -0.3103  -0.2718  -0.2555  -0.2316  -0.2082
    -0.1893  -0.1686  -0.1442  -0.1285  -0.0568  -0.0388  -0.0105   0.0190
     0.0508   0.0778   0.1227   0.1309   0.1820   0.1980   0.2180   0.2552
     0.2679   0.2774   0.2949   0.3077   0.3208   0.3359   0.3489   0.3620
     0.3811   0.3928   0.4026   0.4386   0.4468   0.4697   0.5048   0.5383
     0.6479   0.6733   0.6839   0.6954   0.7133   0.7188   0.7357   0.7507
     0.7645   0.7755   0.7827   0.7969   0.8040   0.8090   0.8245   0.8433
     0.8563   0.8706   0.8778   0.8831   0.8971   0.9132   0.9221   0.9286
     0.9421   0.9641   0.9725   0.9764   1.0032   1.0103   1.0283   1.0341
     1.0461   1.0589   1.0684   1.0840   1.0990   1.1056   1.1184   1.1280
     1.1408   1.1518   1.1727   1.1804   1.2028   1.2059   1.2221   1.2324
     1.2529   1.2623   1.2828   1.2969   1.3002   1.3184   1.3279   1.3359
     1.3554   1.3609   1.3737   1.3830   1.4007   1.4118   1.4169   1.4407
     1.4469   1.4555   1.4683   1.4796   1.4921   1.5054   1.5109   1.5228
     1.5356   1.5417   1.5598   1.5719   1.5792   1.5903   1.6111   1.6322
     1.6399   1.6558   1.6817   1.6913   1.7080   1.7149   1.7354   1.7598
     1.7963   1.8138   1.8605   1.8710   1.9332   1.9669   2.0104   2.0264

          k = 0.3750-0.3750-0.1250 ( 73952 PWs)   bands (ev):

   -18.1275 -18.1275 -18.0396 -18.0396 -17.9992 -17.9992 -17.9952 -17.9952
   -17.9651 -17.9651 -17.9612 -17.9612 -17.8048 -17.8048 -17.7801 -17.7801
   -15.3215 -15.3215 -15.3008 -15.3007 -15.2539 -15.2535 -15.2491 -15.2489
   -15.2403 -15.2402 -15.2353 -15.2352 -15.2226 -15.2226 -15.2147 -15.2147
   -15.1849 -15.1848 -15.1675 -15.1675 -15.0948 -15.0948 -15.0874 -15.0874
   -15.0733 -15.0732 -15.0687 -15.0686 -15.0093 -15.0093 -15.0006 -15.0006
   -12.7892 -12.7877 -12.7778 -12.7756 -12.7698 -12.7693 -12.7307 -12.7292
   -12.7265 -12.7261 -12.7211 -12.7203 -12.7144 -12.7140 -12.6944 -12.6935
   -12.6813 -12.6808 -12.6588 -12.6582 -12.6572 -12.6569 -12.6512 -12.6499
   -12.6447 -12.6438 -12.6336 -12.6335 -12.5926 -12.5923 -12.5900 -12.5899
   -12.5709 -12.5703 -12.5611 -12.5603 -12.5426 -12.5412 -12.5067 -12.5063
   -12.4987 -12.4985 -12.4912 -12.4910 -12.4898 -12.4893 -12.4174 -12.4173
   -11.4030 -11.4023 -11.3391 -11.3383 -11.2747 -11.2740 -11.2347 -11.2342
   -11.2204 -11.2193 -11.1768 -11.1759 -11.1009 -11.0998 -11.0824 -11.0809
   -11.0430 -11.0415 -11.0314 -11.0308 -10.9906 -10.9870 -10.9634 -10.9628
   -10.9393 -10.9367 -10.9127 -10.9116 -10.8914 -10.8896 -10.8496 -10.8464
   -10.8349 -10.8332 -10.7923 -10.7917 -10.7708 -10.7682 -10.6858 -10.6855
   -10.6454 -10.6452 -10.6189 -10.6179 -10.5925 -10.5921 -10.5436 -10.5433
    -6.0975  -6.0974  -6.0135  -6.0132  -5.9761  -5.9757  -5.9728  -5.9723
    -5.9423  -5.9404  -5.9368  -5.9347  -5.7961  -5.7959  -5.7741  -5.7739
    -5.1376  -5.1370  -4.9530  -4.9520  -4.8844  -4.8831  -4.7583  -4.7568
    -4.6655  -4.6614  -4.5283  -4.5244  -4.5018  -4.4957  -4.4837  -4.4798
    -4.4727  -4.4715  -4.4188  -4.4153  -4.4054  -4.3951  -4.3852  -4.3811
    -4.3771  -4.3750  -4.3677  -4.3648  -4.3611  -4.3577  -4.3532  -4.3496
    -4.3414  -4.3401  -4.3236  -4.3217  -4.3159  -4.3145  -4.2838  -4.2794
    -4.2142  -4.2134  -4.1891  -4.1880  -4.1853  -4.1842  -4.1753  -4.1749
    -0.9808  -0.9460  -0.6414  -0.6285  -0.5723  -0.5505  -0.5125  -0.5009
    -0.4655  -0.4480  -0.3954  -0.3752  -0.3190  -0.3026  -0.2739  -0.2572
    -0.2380  -0.2288  -0.1884  -0.1792  -0.0727  -0.0443  -0.0353   0.0202
     0.0937   0.1172   0.1623   0.1975   0.2110   0.2404   0.2478   0.2651
     0.2919   0.3213   0.3304   0.3452   0.3620   0.3816   0.3989   0.4308
     0.4345   0.4501   0.4714   0.4804   0.4925   0.5300   0.5632   0.5877
     0.6647   0.6794   0.6926   0.7053   0.7159   0.7338   0.7488   0.7680
     0.7732   0.7925   0.8039   0.8103   0.8247   0.8469   0.8545   0.8687
     0.8712   0.8856   0.8957   0.9131   0.9210   0.9370   0.9484   0.9510
     0.9750   0.9818   0.9973   1.0068   1.0177   1.0262   1.0400   1.0511
     1.0687   1.0824   1.0973   1.1126   1.1204   1.1309   1.1387   1.1449
     1.1589   1.1623   1.1856   1.1983   1.2051   1.2174   1.2356   1.2447
     1.2550   1.2600   1.2774   1.2882   1.3040   1.3162   1.3283   1.3417
     1.3500   1.3613   1.3682   1.3798   1.3940   1.4038   1.4156   1.4325
     1.4401   1.4577   1.4763   1.4791   1.4899   1.5093   1.5157   1.5293
     1.5439   1.5539   1.5698   1.5958   1.6035   1.6165   1.6299   1.6565
     1.6739   1.6834   1.7043   1.7129   1.7491   1.7715   1.8173   1.8416
     1.8723   1.9123   1.9771   1.9971   2.0409   2.0789   2.1363   2.1564

          k = 0.3750-0.1250 0.1250 ( 73938 PWs)   bands (ev):

   -18.1275 -18.1275 -18.0396 -18.0396 -17.9992 -17.9992 -17.9952 -17.9952
   -17.9651 -17.9651 -17.9612 -17.9612 -17.8048 -17.8048 -17.7801 -17.7801
   -15.3215 -15.3215 -15.3008 -15.3008 -15.2539 -15.2535 -15.2492 -15.2489
   -15.2403 -15.2402 -15.2354 -15.2352 -15.2227 -15.2227 -15.2147 -15.2147
   -15.1849 -15.1848 -15.1674 -15.1674 -15.0948 -15.0948 -15.0874 -15.0874
   -15.0732 -15.0732 -15.0687 -15.0686 -15.0093 -15.0093 -15.0006 -15.0006
   -12.7892 -12.7877 -12.7780 -12.7756 -12.7703 -12.7697 -12.7311 -12.7294
   -12.7266 -12.7262 -12.7220 -12.7204 -12.7163 -12.7154 -12.6983 -12.6979
   -12.6837 -12.6832 -12.6583 -12.6576 -12.6571 -12.6570 -12.6475 -12.6460
   -12.6420 -12.6416 -12.6335 -12.6334 -12.5919 -12.5915 -12.5900 -12.5898
   -12.5689 -12.5683 -12.5611 -12.5602 -12.5424 -12.5413 -12.5060 -12.5055
   -12.4986 -12.4985 -12.4911 -12.4909 -12.4897 -12.4893 -12.4173 -12.4173
   -11.4045 -11.4039 -11.3434 -11.3428 -11.2804 -11.2796 -11.2272 -11.2258
   -11.2014 -11.2002 -11.1661 -11.1651 -11.1007 -11.0988 -11.0812 -11.0787
   -11.0415 -11.0394 -11.0144 -11.0109 -11.0052 -11.0027 -10.9895 -10.9879
   -10.9721 -10.9687 -10.9177 -10.9155 -10.8929 -10.8915 -10.8522 -10.8495
   -10.8222 -10.8212 -10.7929 -10.7919 -10.7575 -10.7557 -10.6843 -10.6838
   -10.6415 -10.6410 -10.6287 -10.6281 -10.5875 -10.5869 -10.5379 -10.5373
    -6.0976  -6.0974  -6.0135  -6.0132  -5.9765  -5.9760  -5.9726  -5.9724
    -5.9424  -5.9407  -5.9363  -5.9345  -5.7960  -5.7958  -5.7742  -5.7739
    -5.2159  -5.2148  -5.0378  -5.0369  -4.7971  -4.7958  -4.7703  -4.7692
    -4.6251  -4.6212  -4.6045  -4.6019  -4.5016  -4.5007  -4.4796  -4.4782
    -4.4228  -4.4206  -4.4058  -4.4041  -4.3893  -4.3876  -4.3811  -4.3774
    -4.3747  -4.3694  -4.3625  -4.3607  -4.3550  -4.3538  -4.3437  -4.3420
    -4.3311  -4.3286  -4.3185  -4.3160  -4.3128  -4.3112  -4.2187  -4.2154
    -4.2022  -4.1939  -4.1880  -4.1849  -4.1789  -4.1763  -4.1517  -4.1433
    -0.9570  -0.9382  -0.7470  -0.7308  -0.6939  -0.6629  -0.6479  -0.6393
    -0.5964  -0.5615  -0.5139  -0.4853  -0.4683  -0.4472  -0.4261  -0.3874
    -0.3427  -0.3170  -0.2939  -0.2714  -0.1138  -0.0903  -0.0753  -0.0482
     0.1624   0.1959   0.2145   0.2289   0.2582   0.2721   0.2890   0.3292
     0.3438   0.3593   0.3678   0.3919   0.4267   0.4378   0.4514   0.4702
     0.4793   0.4908   0.5035   0.5184   0.5778   0.6169   0.6292   0.6686
     0.6710   0.6956   0.7085   0.7332   0.7412   0.7558   0.7709   0.7938
     0.8008   0.8217   0.8317   0.8422   0.8599   0.8723   0.8831   0.8983
     0.9101   0.9151   0.9248   0.9395   0.9594   0.9646   0.9734   0.9827
     0.9848   1.0112   1.0179   1.0305   1.0417   1.0502   1.0666   1.0754
     1.0831   1.0915   1.1003   1.1084   1.1190   1.1352   1.1504   1.1673
     1.1769   1.1858   1.1939   1.2045   1.2120   1.2198   1.2290   1.2537
     1.2564   1.2718   1.2834   1.2931   1.2996   1.3081   1.3273   1.3400
     1.3489   1.3696   1.3751   1.3894   1.3974   1.4116   1.4238   1.4306
     1.4465   1.4579   1.4644   1.4760   1.4926   1.5022   1.5239   1.5450
     1.5610   1.5736   1.5817   1.5924   1.6009   1.6175   1.6327   1.6411
     1.6812   1.6959   1.7333   1.7436   1.8113   1.8380   1.8469   1.8670
     1.9793   1.9912   2.0026   2.0273   2.1824   2.2062   2.3187   2.3281

          k = 0.3750-0.1250 0.3750 ( 73952 PWs)   bands (ev):

   -18.1275 -18.1275 -18.0396 -18.0396 -17.9992 -17.9992 -17.9952 -17.9952
   -17.9651 -17.9651 -17.9612 -17.9612 -17.8048 -17.8048 -17.7801 -17.7801
   -15.3215 -15.3215 -15.3008 -15.3007 -15.2526 -15.2518 -15.2504 -15.2497
   -15.2404 -15.2403 -15.2358 -15.2356 -15.2227 -15.2227 -15.2147 -15.2147
   -15.1849 -15.1848 -15.1674 -15.1674 -15.0948 -15.0947 -15.0874 -15.0874
   -15.0732 -15.0731 -15.0688 -15.0687 -15.0094 -15.0094 -15.0006 -15.0006
   -12.7882 -12.7867 -12.7694 -12.7688 -12.7664 -12.7613 -12.7430 -12.7374
   -12.7267 -12.7262 -12.7248 -12.7236 -12.7174 -12.7162 -12.6976 -12.6972
   -12.6830 -12.6825 -12.6584 -12.6576 -12.6572 -12.6571 -12.6482 -12.6468
   -12.6430 -12.6426 -12.6335 -12.6333 -12.5925 -12.5920 -12.5900 -12.5898
   -12.5683 -12.5677 -12.5592 -12.5584 -12.5435 -12.5423 -12.5074 -12.5069
   -12.4984 -12.4984 -12.4925 -12.4919 -12.4905 -12.4903 -12.4173 -12.4173
   -11.3936 -11.3925 -11.3619 -11.3608 -11.2784 -11.2774 -11.2353 -11.2341
   -11.2045 -11.2028 -11.1586 -11.1581 -11.0959 -11.0953 -11.0703 -11.0690
   -11.0441 -11.0422 -11.0196 -11.0157 -11.0038 -11.0003 -10.9872 -10.9858
   -10.9694 -10.9664 -10.9253 -10.9233 -10.8894 -10.8883 -10.8513 -10.8488
   -10.8097 -10.8085 -10.7892 -10.7885 -10.7589 -10.7572 -10.6851 -10.6846
   -10.6395 -10.6392 -10.6302 -10.6299 -10.5951 -10.5943 -10.5430 -10.5423
    -6.0975  -6.0974  -6.0134  -6.0131  -5.9763  -5.9759  -5.9725  -5.9723
    -5.9427  -5.9410  -5.9364  -5.9346  -5.7960  -5.7958  -5.7741  -5.7739
    -5.1088  -5.1075  -4.9391  -4.9388  -4.9260  -4.9250  -4.7709  -4.7685
    -4.6585  -4.6568  -4.5346  -4.5313  -4.5013  -4.4998  -4.4803  -4.4780
    -4.4606  -4.4564  -4.4170  -4.4149  -4.3997  -4.3952  -4.3862  -4.3834
    -4.3780  -4.3760  -4.3677  -4.3642  -4.3611  -4.3563  -4.3536  -4.3507
    -4.3438  -4.3430  -4.3236  -4.3202  -4.3174  -4.3151  -4.2986  -4.2944
    -4.2143  -4.2129  -4.1881  -4.1872  -4.1842  -4.1813  -4.1754  -4.1745
    -0.7548  -0.7346  -0.6956  -0.6652  -0.6380  -0.6162  -0.5480  -0.5380
    -0.4860  -0.4800  -0.3992  -0.3811  -0.3582  -0.3444  -0.3104  -0.2941
    -0.2246  -0.1977  -0.1374  -0.1159  -0.0867  -0.0570  -0.0185  -0.0011
     0.0959   0.1074   0.1881   0.2054   0.2349   0.2491   0.2615   0.2880
     0.3038   0.3169   0.3336   0.3453   0.3625   0.3783   0.3902   0.4153
     0.4208   0.4349   0.4551   0.4631   0.5034   0.5217   0.5379   0.5863
     0.6365   0.6615   0.6782   0.6969   0.7155   0.7215   0.7337   0.7490
     0.7650   0.7872   0.7967   0.8075   0.8219   0.8441   0.8581   0.8685
     0.8839   0.8936   0.9059   0.9256   0.9343   0.9421   0.9491   0.9647
     0.9794   0.9841   0.9914   1.0095   1.0191   1.0354   1.0387   1.0421
     1.0605   1.0786   1.0921   1.1019   1.1207   1.1278   1.1406   1.1468
     1.1638   1.1738   1.1872   1.2028   1.2133   1.2200   1.2348   1.2452
     1.2588   1.2769   1.2855   1.2935   1.3026   1.3201   1.3256   1.3439
     1.3567   1.3714   1.3762   1.3892   1.3973   1.4145   1.4227   1.4367
     1.4409   1.4456   1.4698   1.4862   1.4943   1.5016   1.5153   1.5390
     1.5477   1.5566   1.5727   1.5789   1.5912   1.6126   1.6405   1.6506
     1.6600   1.6714   1.6831   1.7114   1.7166   1.7383   1.8128   1.8456
     1.8661   1.9049   1.9936   2.0099   2.0434   2.0485   2.1492   2.1579

          k = 0.3750-0.1250-0.3750 ( 73952 PWs)   bands (ev):

   -18.1275 -18.1275 -18.0396 -18.0396 -17.9992 -17.9992 -17.9952 -17.9952
   -17.9651 -17.9651 -17.9612 -17.9612 -17.8048 -17.8048 -17.7801 -17.7801
   -15.3215 -15.3215 -15.3008 -15.3007 -15.2526 -15.2518 -15.2504 -15.2497
   -15.2403 -15.2403 -15.2357 -15.2356 -15.2227 -15.2227 -15.2147 -15.2147
   -15.1849 -15.1848 -15.1674 -15.1674 -15.0948 -15.0947 -15.0874 -15.0874
   -15.0732 -15.0731 -15.0688 -15.0687 -15.0094 -15.0094 -15.0006 -15.0006
   -12.7882 -12.7868 -12.7695 -12.7688 -12.7665 -12.7611 -12.7428 -12.7376
   -12.7267 -12.7262 -12.7248 -12.7236 -12.7174 -12.7162 -12.6977 -12.6970
   -12.6829 -12.6826 -12.6582 -12.6579 -12.6572 -12.6569 -12.6479 -12.6471
   -12.6429 -12.6426 -12.6335 -12.6333 -12.5924 -12.5921 -12.5899 -12.5898
   -12.5683 -12.5677 -12.5592 -12.5584 -12.5436 -12.5421 -12.5073 -12.5070
   -12.4985 -12.4983 -12.4923 -12.4922 -12.4906 -12.4902 -12.4173 -12.4173
   -11.3954 -11.3941 -11.3581 -11.3569 -11.2795 -11.2787 -11.2375 -11.2370
   -11.2048 -11.2032 -11.1585 -11.1576 -11.0941 -11.0933 -11.0696 -11.0674
   -11.0464 -11.0441 -11.0249 -11.0213 -11.0016 -10.9988 -10.9810 -10.9796
   -10.9662 -10.9625 -10.9280 -10.9268 -10.8923 -10.8912 -10.8513 -10.8488
   -10.8094 -10.8083 -10.7878 -10.7872 -10.7596 -10.7579 -10.6890 -10.6885
   -10.6408 -10.6406 -10.6200 -10.6196 -10.6000 -10.5992 -10.5432 -10.5428
    -6.0975  -6.0974  -6.0134  -6.0131  -5.9762  -5.9760  -5.9724  -5.9723
    -5.9427  -5.9410  -5.9365  -5.9346  -5.7960  -5.7958  -5.7741  -5.7739
    -5.1036  -5.1031  -4.9454  -4.9451  -4.9236  -4.9225  -4.7876  -4.7856
    -4.6376  -4.6369  -4.5365  -4.5326  -4.4989  -4.4976  -4.4774  -4.4759
    -4.4644  -4.4631  -4.4200  -4.4161  -4.4015  -4.3950  -4.3864  -4.3833
    -4.3796  -4.3764  -4.3714  -4.3654  -4.3595  -4.3583  -4.3526  -4.3500
    -4.3447  -4.3432  -4.3245  -4.3198  -4.3158  -4.3132  -4.2942  -4.2908
    -4.2141  -4.2131  -4.1885  -4.1872  -4.1845  -4.1837  -4.1753  -4.1745
    -0.8018  -0.7213  -0.7062  -0.6570  -0.6344  -0.6197  -0.5759  -0.5170
    -0.5041  -0.4909  -0.3803  -0.3604  -0.3153  -0.2987  -0.2736  -0.2598
    -0.2329  -0.2110  -0.1919  -0.1687  -0.0672  -0.0463  -0.0047   0.0244
     0.0566   0.0773   0.1856   0.2100   0.2291   0.2468   0.2640   0.2853
     0.2979   0.3211   0.3336   0.3451   0.3738   0.3813   0.3961   0.4111
     0.4199   0.4494   0.4680   0.4698   0.5016   0.5151   0.5390   0.5827
     0.6364   0.6542   0.6798   0.6873   0.7005   0.7175   0.7286   0.7429
     0.7677   0.7776   0.7974   0.8138   0.8246   0.8400   0.8533   0.8681
     0.8798   0.9005   0.9053   0.9194   0.9288   0.9382   0.9603   0.9639
     0.9737   0.9803   1.0032   1.0070   1.0257   1.0346   1.0474   1.0615
     1.0694   1.0776   1.0852   1.1056   1.1116   1.1306   1.1369   1.1548
     1.1580   1.1662   1.1863   1.1942   1.2153   1.2262   1.2312   1.2484
     1.2654   1.2681   1.2791   1.3007   1.3062   1.3144   1.3322   1.3425
     1.3584   1.3660   1.3769   1.3890   1.3952   1.4101   1.4241   1.4274
     1.4341   1.4547   1.4663   1.4807   1.4962   1.5116   1.5298   1.5310
     1.5422   1.5580   1.5674   1.5921   1.6003   1.6135   1.6251   1.6473
     1.6619   1.6780   1.6865   1.6962   1.7217   1.7415   1.7746   1.8124
     1.9141   1.9376   1.9756   1.9850   2.0712   2.0942   2.1272   2.1531

          k = 0.3750-0.1250-0.1250 ( 73938 PWs)   bands (ev):

   -18.1275 -18.1275 -18.0396 -18.0396 -17.9992 -17.9992 -17.9952 -17.9952
   -17.9651 -17.9651 -17.9612 -17.9612 -17.8048 -17.8048 -17.7801 -17.7801
   -15.3215 -15.3215 -15.3008 -15.3007 -15.2539 -15.2535 -15.2492 -15.2489
   -15.2403 -15.2402 -15.2353 -15.2352 -15.2227 -15.2227 -15.2147 -15.2147
   -15.1849 -15.1848 -15.1674 -15.1674 -15.0948 -15.0948 -15.0874 -15.0874
   -15.0732 -15.0732 -15.0687 -15.0686 -15.0093 -15.0093 -15.0006 -15.0006
   -12.7892 -12.7877 -12.7779 -12.7757 -12.7703 -12.7698 -12.7308 -12.7294
   -12.7267 -12.7262 -12.7217 -12.7209 -12.7160 -12.7156 -12.6985 -12.6978
   -12.6836 -12.6833 -12.6582 -12.6579 -12.6571 -12.6568 -12.6472 -12.6462
   -12.6420 -12.6415 -12.6335 -12.6333 -12.5919 -12.5916 -12.5900 -12.5898
   -12.5689 -12.5684 -12.5610 -12.5603 -12.5425 -12.5412 -12.5059 -12.5056
   -12.4986 -12.4984 -12.4911 -12.4909 -12.4897 -12.4893 -12.4173 -12.4173
   -11.4053 -11.4046 -11.3397 -11.3389 -11.2839 -11.2830 -11.2231 -11.2221
   -11.2083 -11.2072 -11.1654 -11.1642 -11.0986 -11.0973 -11.0767 -11.0741
   -11.0463 -11.0445 -11.0193 -11.0158 -11.0034 -11.0013 -10.9863 -10.9851
   -10.9653 -10.9615 -10.9199 -10.9184 -10.8963 -10.8950 -10.8521 -10.8495
   -10.8221 -10.8210 -10.7916 -10.7908 -10.7579 -10.7562 -10.6880 -10.6874
   -10.6409 -10.6406 -10.6230 -10.6223 -10.5900 -10.5896 -10.5381 -10.5378
    -6.0976  -6.0974  -6.0135  -6.0132  -5.9763  -5.9762  -5.9726  -5.9724
    -5.9424  -5.9407  -5.9364  -5.9345  -5.7959  -5.7958  -5.7742  -5.7739
    -5.2142  -5.2134  -5.0374  -5.0360  -4.8039  -4.8027  -4.7746  -4.7738
    -4.6244  -4.6213  -4.5919  -4.5903  -4.5017  -4.5012  -4.4794  -4.4787
    -4.4228  -4.4203  -4.4064  -4.4041  -4.3899  -4.3884  -4.3806  -4.3778
    -4.3731  -4.3709  -4.3641  -4.3608  -4.3570  -4.3536  -4.3449  -4.3425
    -4.3307  -4.3277  -4.3207  -4.3160  -4.3139  -4.3113  -4.2177  -4.2145
    -4.1982  -4.1908  -4.1876  -4.1852  -4.1795  -4.1772  -4.1526  -4.1463
    -0.9915  -0.9362  -0.7461  -0.7152  -0.6923  -0.6666  -0.6401  -0.6359
    -0.5876  -0.5380  -0.5092  -0.4979  -0.4634  -0.4503  -0.4269  -0.4074
    -0.3495  -0.3250  -0.2864  -0.2592  -0.1114  -0.0830  -0.0698  -0.0433
     0.1569   0.1836   0.2016   0.2365   0.2593   0.2731   0.3009   0.3214
     0.3449   0.3597   0.3715   0.4054   0.4198   0.4356   0.4583   0.4650
     0.4812   0.4902   0.4926   0.5236   0.5851   0.6086   0.6397   0.6520
     0.6783   0.6936   0.7081   0.7175   0.7511   0.7627   0.7683   0.7842
     0.8066   0.8230   0.8361   0.8428   0.8552   0.8709   0.8766   0.8919
     0.8939   0.9282   0.9343   0.9508   0.9583   0.9642   0.9735   0.9856
     0.9935   1.0042   1.0140   1.0236   1.0355   1.0498   1.0558   1.0693
     1.0858   1.1016   1.1047   1.1172   1.1219   1.1371   1.1456   1.1577
     1.1700   1.1782   1.1870   1.2045   1.2171   1.2207   1.2340   1.2469
     1.2633   1.2718   1.2748   1.2924   1.3071   1.3138   1.3269   1.3380
     1.3469   1.3665   1.3733   1.3864   1.3956   1.4133   1.4187   1.4309
     1.4369   1.4538   1.4684   1.4865   1.4955   1.5078   1.5291   1.5479
     1.5640   1.5670   1.5832   1.6008   1.6127   1.6208   1.6320   1.6488
     1.6746   1.6847   1.7286   1.7389   1.7965   1.8172   1.8431   1.8785
     1.9617   1.9923   2.0178   2.0508   2.1888   2.2164   2.3185   2.3332

     highest occupied level (ev):     2.5306

!    total energy              =   -1927.21785172 Ry
     estimated scf accuracy    <          8.7E-09 Ry

     The total energy is the sum of the following terms:
     one-electron contribution =    -875.26741691 Ry
     hartree contribution      =     552.01623806 Ry
     xc contribution           =    -294.81304947 Ry
     ewald contribution        =   -1309.15362340 Ry

     convergence has been achieved in  21 iterations

     Writing output data file ./temp/cspbbr3.save/
 
     init_run     :     12.63s CPU     14.04s WALL (       1 calls)
     electrons    :    702.98s CPU    715.22s WALL (       1 calls)

     Called by init_run:
     wfcinit      :     12.17s CPU     13.01s WALL (       1 calls)
     potinit      :      0.06s CPU      0.24s WALL (       1 calls)
     hinit0       :      0.04s CPU      0.23s WALL (       1 calls)

     Called by electrons:
     c_bands      :    624.30s CPU    635.14s WALL (      22 calls)
     sum_band     :     76.79s CPU     77.74s WALL (      22 calls)
     v_of_rho     :      0.43s CPU      0.58s WALL (      22 calls)
     mix_rho      :      0.70s CPU      0.86s WALL (      22 calls)

     Called by c_bands:
     init_us_2    :      2.09s CPU      2.11s WALL (     360 calls)
     cegterg      :    598.52s CPU    609.19s WALL (     176 calls)

     Called by *egterg:
     cdiaghg      :     48.26s CPU     48.85s WALL (     597 calls)
     h_psi        :    326.44s CPU    333.14s WALL (     613 calls)
     g_psi        :      2.10s CPU      2.11s WALL (     429 calls)

     Called by h_psi:
     h_psi:calbec :     41.24s CPU     41.44s WALL (     613 calls)
     vloc_psi     :    238.46s CPU    242.15s WALL (     613 calls)
     add_vuspsi   :     42.45s CPU     42.63s WALL (     613 calls)

     General routines
     calbec       :     41.24s CPU     41.44s WALL (     613 calls)
     fft          :      0.24s CPU      0.30s WALL (     283 calls)
     ffts         :      0.07s CPU      0.08s WALL (      88 calls)
     fftw         :    252.30s CPU    255.92s WALL (  740196 calls)
 
     Parallel routines
     fft_scatt_xy :     33.68s CPU     34.05s WALL (  740567 calls)
     fft_scatt_yz :    111.81s CPU    113.55s WALL (  740567 calls)
 
     PWSCF        :  12m 4.35s CPU  12m25.24s WALL

 
   This run was terminated on:  17:54:44  27Sep2021            

=------------------------------------------------------------------------------=
   JOB DONE.
=------------------------------------------------------------------------------=
