CsPbBr3

20 atoms
3 atom types

0.0 8.17034841 xlo xhi
0.0 8.56998467 ylo yhi
0.0 11.95496001 zlo zhi

Masses

1 132.90543
2 207.2
3 79.904

Atoms

1 1 4.30513479 3.8208777 3.04589576
2 1 0.04936922 0.467838 8.99983909
3 1 7.95340039 8.05616271 2.88978608
4 1 3.86209048 4.70952283 8.9627074
5 2 4.00915887 -0.04814122 5.89279904
6 2 0.02081718 4.28190981 -0.00808454
7 2 -0.02296516 4.27009388 5.93714269
8 2 4.00861064 0.0110422 -0.01084938
9 3 4.59792511 8.46634432 8.99207728
10 3 0.55309212 4.42342075 2.9211005
11 3 6.60490458 1.66699161 0.39698245
12 3 1.69344632 6.77853308 11.51821177
13 3 2.38928228 2.44950415 11.53945545
14 3 5.66454208 6.0519252 0.37072627
15 3 2.49176028 2.47720157 6.53310617
16 3 5.75508486 6.07017037 5.47363742
17 3 1.58883914 6.7655447 6.51547296
18 3 6.56822388 1.85559143 5.54670223
19 3 7.5622107 4.26146111 8.94013359
20 3 3.46917768 0.03337988 2.90673951
