  <PP_INFO>

############################################################
#    Opium Parameter File                                  #
############################################################
#-----------------------------------------------------------
#Command line   : opium c_srl_gga log all rpt upf 
 
#Opium version  : 3.6 
#Compile Host   : whoville2.chem.upenn.edu 
#Compile OS     : Linux 2.6.18-92.1.13.el5 x86_64 
#Compile Date   : Wed Jan 19 10:47:14 EST 2011 
#-----------------------------------------------------------
#Execution Host : whoville2.chem.upenn.edu 
#Execution Date : Mon Aug 29 13:01:01 2011
 
#-----------------------------------------------------------
############################################################
[Atom]
C  
3
100   2.00   -
200   2.00   -
210   2.00   -

[Pseudo]
2  0.84 1.29
opt

[Optinfo]
7.07  10
7.07  10
conmax

[Configs]
1
#
200  2.00  -
210  2.00  -

[Relativity]
srl

[XC]
gga
############################################################
  </PP_INFO>



<PP_HEADER>
   0         Version Number
   C        Element
   NC        Norm - Conserving pseudopotential
    F      Nonlinear Core Correction
SLA  PW   PBE  PBE     PBE  Exchange-Correlation functional
 4          Z valence
 0          Total energy
 0.000000   0.000000     Suggested cutoff for wfc and rho
 1           Max angular momentum component
 1122           Number of points in mesh
 2  1     Number of Wavefuncitons, Number of Projectors
 Wavefunctions         nl  l   occ
                       S  0  2.000000
                       P  1  2.000000
</PP_HEADER>
<PP_MESH>
  <PP_R>
 5.5032120814910476e-05  5.5752208816302571e-05  5.6481719073680262e-05  5.7220774876013368e-05 
 5.7969501125491499e-05  5.8728024358632913e-05  5.9496472767669259e-05  6.0274976222210700e-05 
 6.1063666291193979e-05  6.1862676265117891e-05  6.2672141178569770e-05  6.3492197833046570e-05 
 6.4322984820074745e-05  6.5164642544632438e-05  6.6017313248878376e-05  6.6881141036190917e-05 
 6.7756271895522149e-05  6.8642853726070237e-05  6.9541036362274632e-05  7.0450971599138646e-05 
 7.1372813217883042e-05  7.2306717011935470e-05  7.3252840813259901e-05  7.4211344519030679e-05 
 7.5182390118655275e-05  7.6166141721151323e-05  7.7162765582881003e-05  7.8172430135649032e-05 
 7.9195306015167948e-05  8.0231566089895905e-05  8.1281385490251953e-05  8.2344941638213404e-05 
 8.3422414277300712e-05  8.4513985502954249e-05  8.5619839793309215e-05  8.6740164040372783e-05 
 8.7875147581609146e-05  8.9024982231938139e-05  9.0189862316152403e-05  9.1369984701758703e-05 
 9.2565548832248981e-05  9.3776756760806978e-05  9.5003813184455223e-05  9.6246925478649892e-05 
 9.7506303732327454e-05  9.8782160783410231e-05  1.0007471225477644e-04  1.0138417659070127e-04 
 1.0271077509377406e-04  1.0405473196229937e-04  1.0541627432818653e-04  1.0679563229533612e-04 
 1.0819303897852752e-04  1.0960873054281619e-04  1.1104294624344600e-04  1.1249592846628389e-04 
 1.1396792276878379e-04  1.1545917792148629e-04  1.1696994595006154e-04  1.1850048217790223e-04 
 1.2005104526927351e-04  1.2162189727302836e-04  1.2321330366689426e-04  1.2482553340233945e-04 
 1.2645885895002648e-04  1.2811355634586037e-04  1.2978990523763941e-04  1.3148818893231622e-04 
 1.3320869444387711e-04  1.3495171254184854e-04  1.3671753780043769e-04  1.3850646864831614e-04 
 1.4031880741905488e-04  1.4215486040221982e-04  1.4401493789513502e-04  1.4589935425532400e-04 
 1.4780842795363673e-04  1.4974248162807194e-04  1.5170184213830407e-04  1.5368684062092245e-04 
 1.5569781254539533e-04  1.5773509777076427e-04  1.5979904060308122e-04  1.6188998985359728e-04 
 1.6400829889771245e-04  1.6615432573469706e-04  1.6832843304819410e-04  1.7053098826751419e-04 
 1.7276236362973179e-04  1.7502293624259392e-04  1.7731308814825260e-04  1.7963320638783058e-04 
 1.8198368306683252e-04  1.8436491542141156e-04  1.8677730588550318e-04  1.8922126215883744e-04 
 1.9169719727584169e-04  1.9420552967544321e-04  1.9674668327178789e-04  1.9932108752588156e-04 
 2.0192917751817062e-04  2.0457139402207125e-04  2.0724818357846126e-04  2.0995999857114693e-04 
 2.1270729730331613e-04  2.1549054407499351e-04  2.1831020926150785e-04  2.2116676939298681e-04 
 2.2406070723489155e-04  2.2699251186960513e-04  2.2996267877908880e-04  2.3297170992861958e-04 
 2.3602011385162350e-04  2.3910840573561899e-04  2.4223710750928516e-04  2.4540674793066796e-04 
 2.4861786267654285e-04  2.5187099443294464e-04  2.5516669298688291e-04  2.5850551531925745e-04 
 2.6188802569898900e-04  2.6531479577838275e-04  2.6878640468973775e-04  2.7230343914322292e-04 
 2.7586649352603183e-04  2.7947617000283561e-04  2.8313307861755011e-04  2.8683783739643520e-04 
 2.9059107245254200e-04  2.9439341809152814e-04  2.9824551691885661e-04  3.0214801994839750e-04 
 3.0610158671245155e-04  3.1010688537321109e-04  3.1416459283568302e-04  3.1827539486208636e-04 
 3.2243998618774756e-04  3.2665907063851297e-04  3.3093336124969639e-04  3.3526358038658480e-04 
 3.3965045986651785e-04  3.4409474108256947e-04  3.4859717512884277e-04  3.5315852292740771e-04 
 3.5777955535689889e-04  3.6246105338279532e-04  3.6720380818940600e-04  3.7200862131358110e-04 
 3.7687630478017479e-04  3.8180768123927833e-04  3.8680358410525089e-04  3.9186485769756685e-04 
 3.9699235738351003e-04  4.0218694972273108e-04  4.0744951261369920e-04  4.1278093544206866e-04 
 4.1818211923098599e-04  4.2365397679336729e-04  4.2919743288616423e-04  4.3481342436665015e-04 
 4.4050290035075218e-04  4.4626682237345299e-04  4.5210616455129303e-04  4.5802191374699877e-04 
 4.6401506973626415e-04  4.7008664537671576e-04  4.7623766677908769e-04  4.8246917348063694e-04 
 4.8878221862082782e-04  4.9517786911931489e-04  5.0165720585625400e-04  5.0822132385497560e-04 
 5.1487133246704453e-04  5.2160835555974431e-04  5.2843353170601182e-04  5.3534801437686043e-04 
 5.4235297213631867e-04  5.4944958883892069e-04  5.5663906382977962e-04  5.6392261214728058e-04 
 5.7130146472842477e-04  5.7877686861686076e-04  5.8635008717363812e-04  5.9402240029071760e-04 
 6.0179510460727696e-04  6.0966951372884578e-04  6.1764695844930691e-04  6.2572878697580623e-04 
 6.3391636515659875e-04  6.4221107671188517e-04  6.5061432346766041e-04  6.5912752559262728e-04 
 6.6775212183820584e-04  6.7648956978168988e-04  6.8534134607257761e-04  6.9430894668213018e-04 
 7.0339388715619450e-04  7.1259770287133387e-04  7.2192194929430987e-04  7.3136820224496083e-04 
 7.4093805816251811e-04  7.5063313437540903e-04  7.6045506937458902e-04  7.7040552309044991e-04 
 7.8048617717335275e-04  7.9069873527783140e-04  8.0104492335051052e-04  8.1152648992180042e-04 
 8.2214520640139851e-04  8.3290286737766443e-04  8.4380129092090578e-04  8.5484231889064151e-04 
 8.6602781724687706e-04  8.7735967636545754e-04  8.8883981135754440e-04  9.0047016239327580e-04 
 9.1225269502965764e-04  9.2418940054274888e-04  9.3628229626419219e-04  9.4853342592214650e-04 
 9.6094485998668314e-04  9.7351869601969927e-04  9.8625705902941128e-04  9.9916210182948739e-04 
 1.0122360054028742e-03  1.0254809792703938e-03  1.0388992618641541e-03  1.0524931209058507e-03 
 1.0662648537900154e-03  1.0802167879722839e-03  1.0943512813627401e-03  1.1086707227244089e-03 
 1.1231775320769616e-03  1.1378741611057059e-03  1.1527630935759283e-03  1.1678468457526523e-03 
 1.1831279668258973e-03  1.1986090393414949e-03  1.2142926796375464e-03  1.2301815382865908e-03 
 1.2462783005435568e-03  1.2625856867995785e-03  1.2791064530417444e-03  1.2958433913188713e-03 
 1.3127993302133642e-03  1.3299771353192530e-03  1.3473797097264843e-03  1.3650099945115535e-03 
 1.3828709692345509e-03  1.4009656524427156e-03  1.4192971021805766e-03  1.4378684165067710e-03 
 1.4566827340176207e-03  1.4757432343775652e-03  1.4950531388565316e-03  1.5146157108743355e-03 
 1.5344342565522093e-03  1.5545121252715417e-03  1.5748527102399351e-03  1.5954594490646616e-03 
 1.6163358243336267e-03  1.6374853642039399e-03  1.6589116429981772e-03  1.6806182818084527e-03 
 1.7026089491083863e-03  1.7248873613730936e-03  1.7474572837072710e-03  1.7703225304815133e-03 
 1.7934869659769455e-03  1.8169545050383002e-03  1.8407291137355342e-03  1.8648148100341019e-03 
 1.8892156644740065e-03  1.9139358008577218e-03  1.9389793969471351e-03  1.9643506851695909e-03 
 1.9900539533331853e-03  2.0160935453514156e-03  2.0424738619773059e-03  2.0691993615471558e-03 
 2.0962745607340017e-03  2.1237040353109505e-03  2.1514924209244854e-03  2.1796444138779164e-03 
 2.2081647719250576e-03  2.2370583150743001e-03  2.2663299264032051e-03  2.2959845528837571e-03 
 2.3260272062184117e-03  2.3564629636870869e-03  2.3872969690052347e-03  2.4185344331931423e-03 
 2.4501806354566059e-03  2.4822409240791280e-03  2.5147207173257928e-03  2.5476255043589673e-03 
 2.5809608461659713e-03  2.6147323764989135e-03  2.6489458028268000e-03  2.6836069073001138e-03 
 2.7187215477280035e-03  2.7542956585682788e-03  2.7903352519303439e-03  2.8268464185912511e-03 
 2.8638353290250684e-03  2.9013082344456968e-03  2.9392714678633403e-03  2.9777314451548032e-03 
 3.0166946661477866e-03  3.0561677157193742e-03  3.0961572649088956e-03  3.1366700720453374e-03 
 3.1777129838895337e-03  3.2192929367912712e-03  3.2614169578615553e-03  3.3040921661602056e-03 
 3.3473257738989956e-03  3.3911250876605347e-03  3.4354975096330936e-03  3.4804505388616003e-03 
 3.5259917725149800e-03  3.5721289071701163e-03  3.6188697401125774e-03  3.6662221706543776e-03 
 3.7141942014689809e-03  3.7627939399437747e-03  3.8120295995502317e-03  3.8619095012320127e-03 
 3.9124420748112235e-03  3.9636358604130647e-03  4.0154995099091510e-03  4.0680417883796919e-03 
 4.1212715755948003e-03  4.1751978675152093e-03  4.2298297778126043e-03  4.2851765394098526e-03 
 4.3412475060413958e-03  4.3980521538340535e-03  4.4556000829084940e-03  4.5139010190017063e-03 
 4.5729648151106505e-03  4.6328014531574471e-03  4.6934210456763426e-03  4.7548338375227543e-03 
 4.8170502076046720e-03  4.8800806706367191e-03  4.9439358789171734e-03  5.0086266241282052e-03 
 5.0741638391597309e-03  5.1405585999570753e-03  5.2078221273928393e-03  5.2759657891632526e-03 
 5.3450011017093443e-03  5.4149397321632447e-03  5.4857935003199609e-03  5.5575743806349559e-03 
 5.6302945042478363e-03  5.7039661610325818e-03  5.7786018016745310e-03  5.8542140397745968e-03 
 5.9308156539809795e-03  6.0084195901488014e-03  6.0870389635279748e-03  6.1666870609797279e-03 
 6.2473773432221045e-03  6.3291234471048426e-03  6.4119391879140656e-03  6.4958385617070839e-03 
 6.5808357476777532e-03  6.6669451105528070e-03  6.7541812030195185e-03  6.8425587681851434e-03 
 6.9320927420685437e-03  7.0227982561244127e-03  7.1146906398004981e-03  7.2077854231283644e-03 
 7.3020983393479637e-03  7.3976453275666140e-03  7.4944425354527347e-03  7.5925063219648451e-03 
 7.6918532601162673e-03  7.7925001397760032e-03  7.8944639705062717e-03  7.9977619844371368e-03 
 8.1024116391788196e-03  8.2084306207720493e-03  8.3158368466770480e-03  8.4246484688016276e-03 
 8.5348838765689165e-03  8.6465617000251946e-03  8.7597008129884271e-03  8.8743203362380008e-03 
 8.9904396407461309e-03  9.1080783509516639e-03  9.2272563480766141e-03  9.3479937734861525e-03 
 9.4703110320925425e-03  9.5942287958036086e-03  9.7197680070163599e-03  9.8469498821562845e-03 
 9.9757959152629947e-03  1.0106327881622737e-02  1.0238567841448510e-02  1.0372538143608270e-02 
 1.0508261429401944e-02  1.0645760636387868e-02  1.0785059002259281e-02  1.0926180068771553e-02 
 1.1069147685720822e-02  1.1213986014974626e-02  1.1360719534555322e-02  1.1509373042776971e-02 
 1.1659971662436269e-02  1.1812540845058379e-02  1.1967106375198296e-02  1.2123694374798493e-02 
 1.2282331307603591e-02  1.2443043983632815e-02  1.2605859563710931e-02  1.2770805564058470e-02 
 1.2937909860942086e-02  1.3107200695385679e-02  1.3278706677943201e-02  1.3452456793533895e-02 
 1.3628480406340848e-02  1.3806807264773577e-02  1.3987467506495585e-02  1.4170491663517729e-02 
 1.4355910667358142e-02  1.4543755854269792e-02  1.4734058970536356e-02  1.4926852177837431e-02 
 1.5122168058683912e-02  1.5320039621924532e-02  1.5520500308324430e-02  1.5723583996216733e-02 
 1.5929325007228063e-02  1.6137758112078928e-02  1.6348918536460161e-02  1.6562841966986069e-02 
 1.6779564557225558e-02  1.6999122933812210e-02  1.7221554202634232e-02  1.7446895955105460e-02 
 1.7675186274518407e-02  1.7906463742480411e-02  1.8140767445433997e-02  1.8378136981262647e-02 
 1.8618612465982867e-02  1.8862234540523944e-02  1.9109044377596304e-02  1.9359083688649855e-02 
 1.9612394730923289e-02  1.9869020314585633e-02  2.0129003809971357e-02  2.0392389154909926e-02 
 2.0659220862151526e-02  2.0929544026889787e-02  2.1203404334382919e-02  2.1480848067674720e-02 
 2.1761922115416454e-02  2.2046673979791178e-02  2.2335151784541693e-02  2.2627404283103645e-02 
 2.2923480866844828e-02  2.3223431573412615e-02  2.3527307095190322e-02  2.3835158787864383e-02 
 2.4147038679103575e-02  2.4462999477351824e-02  2.4783094580736048e-02  2.5107378086090582e-02 
 2.5435904798099682e-02  2.5768730238559547e-02  2.6105910655761799e-02  2.6447503033999467e-02 
 2.6793565103197498e-02  2.7144155348669239e-02  2.7499333021000633e-02  2.7859158146063642e-02 
 2.8223691535160828e-02  2.8592994795302598e-02  2.8967130339618855e-02  2.9346161397907061e-02 
 2.9730152027318223e-02  3.0119167123182636e-02  3.0513272429977409e-02  3.0912534552437382e-02 
 3.1317020966811542e-02  3.1726800032266626e-02  3.2141941002440048e-02  3.2562514037143782e-02 
 3.2988590214221736e-02  3.3420241541561917e-02  3.3857540969266041e-02  3.4300562401978187e-02 
 3.4749380711374928e-02  3.5204071748818767e-02  3.5664712358177260e-02  3.6131380388809788e-02 
 3.6604154708724169e-02  3.7083115217905749e-02  3.7568342861820571e-02  3.8059919645095322e-02 
 3.8557928645376383e-02  3.9062454027370123e-02  3.9573581057066896e-02  4.0091396116151264e-02 
 4.0615986716600709e-02  4.1147441515475190e-02  4.1685850329900687e-02  4.2231304152248295e-02 
 4.2783895165512210e-02  4.3343716758888907e-02  4.3910863543560108e-02  4.4485431368682271e-02 
 4.5067517337585371e-02  4.5657219824183616e-02  4.6254638489600687e-02  4.6859874299013032e-02 
 4.7473029538712942e-02  4.8094207833395297e-02  4.8723514163670378e-02  4.9361054883805773e-02 
 5.0006937739700628e-02  5.0661271887094843e-02  5.1324167910016753e-02  5.1995737839471895e-02 
 5.2676095172376779e-02  5.3365354890740006e-02  5.4063633481094470e-02  5.4771048954183936e-02 
 5.5487720864907032e-02  5.6213770332522450e-02  5.6949320061118275e-02  5.7694494360349381e-02 
 5.8449419166445811e-02  5.9214222063496628e-02  5.9989032305011764e-02  6.0773980835766135e-02 
 6.1569200313929713e-02  6.2374825133487001e-02  6.3190991446949979e-02  6.4017837188368135e-02 
 6.4855502096639830e-02  6.5704127739128190e-02  6.6563857535586635e-02  6.7434836782396992e-02 
 6.8317212677125053e-02  6.9211134343397096e-02  7.0116752856102374e-02  7.1034221266924977e-02 
 7.1963694630210032e-02  7.2905330029168186e-02  7.3859286602422955e-02  7.4825725570905791e-02 
 7.5804810265102565e-02  7.6796706152656921e-02  7.7801580866334666e-02  7.8819604232354123e-02 
 7.9850948299087107e-02  8.0895787366135632e-02  8.1954298013788895e-02  8.3026659132865610e-02 
 8.4113051954947227e-02  8.5213660083006446e-02  8.6328669522436438e-02  8.7458268712486298e-02 
 8.8602648558107733e-02  8.9762002462218340e-02  9.0936526358387337e-02  9.2126418743948668e-02 
 9.3331880713547463e-02  9.4553115993125769e-02  9.5790330974352467e-02  9.7043734749504076e-02 
 9.8313539146801812e-02  9.9599958766211125e-02  1.0090321101570947e-01  1.0222351614802884e-01 
 1.0356109729787916e-01  1.0491618051965822e-01  1.0628899482565574e-01  1.0767977222475685e-01 
 1.0908874776165227e-01  1.1051615955656113e-01  1.1196224884547423e-01  1.1342726002092320e-01 
 1.1491144067328356e-01  1.1641504163261814e-01  1.1793831701106761e-01  1.1948152424579651e-01 
 1.2104492414250061e-01  1.2262878091948336e-01  1.2423336225230990e-01  1.2585893931904449e-01 
 1.2750578684608041e-01  1.2917418315456947e-01  1.3086441020745881e-01  1.3257675365714305e-01 
 1.3431150289374086e-01  1.3606895109400205e-01  1.3784939527085541e-01  1.3965313632360446e-01 
 1.4148047908878014e-01  1.4333173239165911e-01  1.4520720909845558e-01  1.4710722616919705e-01 
 1.4903210471129044e-01  1.5098217003379086e-01  1.5295775170237913e-01  1.5495918359505936e-01 
 1.5698680395858503e-01  1.5904095546562347e-01  1.6112198527266844e-01  1.6323024507871040e-01 
 1.6536609118467446e-01  1.6752988455363604e-01  1.6972199087182446e-01  1.7194278061042501e-01 
 1.7419262908818947e-01  1.7647191653486485e-01  1.7878102815545491e-01  1.8112035419531927e-01 
 1.8349029000612668e-01  1.8589123611266969e-01  1.8832359828055498e-01  1.9078778758477799e-01 
 1.9328422047919624e-01  1.9581331886691064e-01  1.9837551017156815e-01  2.0097122740959752e-01 
 2.0360090926339022e-01  2.0626500015543814e-01  2.0896395032344306e-01  2.1169821589640703e-01 
 2.1446825897171973e-01  2.1727454769325386e-01  2.2011755633048299e-01  2.2299776535863267e-01 
 2.2591566153988418e-01  2.2887173800563709e-01  2.3186649433984982e-01  2.3490043666347069e-01 
 2.3797407771997339e-01  2.4108793696201217e-01  2.4424254063921011e-01  2.4743842188709689e-01 
 2.5067612081721008e-01  2.5395618460837477e-01  2.5727916759917852e-01  2.6064563138165581e-01 
 2.6405614489619850e-01  2.6751128452770773e-01  2.7101163420300495e-01  2.7455778548951632e-01 
 2.7815033769525005e-01  2.8178989797007858e-01  2.8547708140835115e-01  2.8921251115284485e-01 
 2.9299681850007714e-01  2.9683064300699669e-01  3.0071463259907005e-01  3.0464944367978258e-01 
 3.0863574124157217e-01  3.1267419897821447e-01  3.1676549939867898e-01  3.2091033394247437e-01 
 3.2510940309650366e-01  3.2936341651344808e-01  3.3367309313170018e-01  3.3803916129686562e-01 
 3.4246235888485627e-01  3.4694343342659190e-01  3.5148314223433624e-01  3.5608225252968145e-01 
 3.6074154157321442e-01  3.6546179679587287e-01  3.7024381593202432e-01  3.7508840715428443e-01 
 3.7999638921010032e-01  3.8496859156012087e-01  3.9000585451837755e-01  3.9510902939429954e-01 
 4.0027897863658685e-01  4.0551657597896651e-01  4.1082270658785519e-01  4.1619826721195502e-01 
 4.2164416633380575e-01  4.2716132432332082e-01  4.3275067359333191e-01  4.3841315875716869e-01 
 4.4414973678830189e-01  4.4996137718207097e-01  4.5584906211953541e-01  4.6181378663346279e-01 
 4.6785655877649290e-01  4.7397839979149997e-01  4.8018034428418632e-01  4.8646344039793238e-01 
 4.9282874999093562e-01  4.9927734881566760e-01  5.0581032670067771e-01  5.1242878773477774e-01 
 5.1913385045363503e-01  5.2592664802880784e-01  5.3280832845925385e-01  5.3978005476534463e-01 
 5.4684300518541973e-01  5.5399837337491031e-01  5.6124736860807189e-01  5.6859121598235052e-01 
 5.7603115662543203e-01  5.8356844790499318e-01  5.9120436364119966e-01  5.9894019432198509e-01 
 6.0677724732114668e-01  6.1471684711929375e-01  6.2276033552768972e-01  6.3090907191501977e-01 
 6.3916443343712814e-01  6.4752781526976044e-01  6.5600063084435212e-01  6.6458431208690161e-01 
 6.7328030965996855e-01  6.8209009320784031e-01  6.9101515160490479e-01  7.0005699320727344e-01 
 7.0921714610769859e-01  7.1849715839382011e-01  7.2789859840980287e-01  7.3742305502138616e-01 
 7.4707213788440618e-01  7.5684747771683247e-01  7.6675072657436338e-01  7.7678355812962618e-01 
 7.8694766795503301e-01  7.9724477380933545e-01  8.0767661592793161e-01  8.1824495731696800e-01 
 8.2895158405129321e-01  8.3979830557630797e-01  8.5078695501376644e-01  8.6191938947157720e-01 
 8.7319749035766059e-01  8.8462316369790894e-01  8.9619834045831193e-01  9.0792497687129015e-01 
 9.1980505476630858e-01  9.3184058190480779e-01  9.4403359231951944e-01  9.5638614665822430e-01 
 9.6890033253200614e-01  9.8157826486806232e-01  9.9442208626713235e-01  1.0074339673656023e+00 
 1.0206161072023476e+00  1.0339707335903749e+00  1.0475001034933296e+00  1.0612065034069260e+00 
 1.0750922497453723e+00  1.0891596892328494e+00  1.1034111993001119e+00  1.1178491884862816e+00 
 1.1324760968458969e+00  1.1472943963612796e+00  1.1623065913603192e+00  1.1775152189397009e+00 
 1.1929228493936834e+00  1.2085320866484852e+00  1.2243455687023539e+00  1.2403659680713941e+00 
 1.2565959922412295e+00  1.2730383841245738e+00  1.2896959225247893e+00  1.3065714226055127e+00 
 1.3236677363664229e+00  1.3409877531252363e+00  1.3585344000060082e+00  1.3763106424338247e+00 
 1.3943194846359648e+00  1.4125639701496240e+00  1.4310471823362798e+00  1.4497722449027783e+00 
 1.4687423224292637e+00  1.4879606209039882e+00  1.5074303882651361e+00  1.5271549149497312e+00 
 1.5471375344497289e+00  1.5673816238753855e+00  1.5878906045259973e+00  1.6086679424681067e+00 
 1.6297171491212790e+00  1.6510417818515373e+00  1.6726454445725671e+00  1.6945317883547881e+00 
 1.7167045120423905e+00  1.7391673628784510e+00  1.7619241371382246e+00  1.7849786807707240e+00 
 1.8083348900486991e+00  1.8319967122271013e+00  1.8559681462101993e+00  1.8802532432273906e+00 
 1.9048561075178716e+00  1.9297808970242649e+00  1.9550318240953211e+00  1.9806131561978138e+00 
 2.0065292166377549e+00  2.0327843852910417e+00  2.0593830993436657e+00  2.0863298540416104e+00 
 2.1136292034505546e+00  2.1412857612255238e+00  2.1693042013906076e+00  2.1976892591288801e+00 
 2.2264457315826585e+00  2.2555784786642308e+00  2.2850924238771966e+00  2.3149925551485340e+00 
 2.3452839256715978e+00  2.3759716547601033e+00  2.4070609287133049e+00  2.4385570016924976e+00 
 2.4704651966089775e+00  2.5027909060236304e+00  2.5355395930582856e+00  2.5687167923189977e+00 
 2.6023281108314058e+00  2.6363792289883379e+00  2.6708759015098060e+00  2.7058239584155719e+00 
 2.7412293060104331e+00  2.7770979278824011e+00  2.8134358859139432e+00  2.8502493213064537e+00 
 2.8875444556181393e+00  2.9253275918154547e+00  2.9636051153383494e+00  3.0023834951794037e+00 
 3.0416692849771061e+00  3.0814691241234367e+00  3.1217897388859388e+00  3.1626379435444743e+00 
 3.2040206415428529e+00  3.2459448266555317e+00  3.2884175841695780e+00  3.3314460920821003e+00 
 3.3750376223133487e+00  3.4191995419356846e+00  3.4639393144186332e+00  3.5092645008902288e+00 
 3.5551827614148639e+00  3.6017018562878564e+00  3.6488296473469681e+00  3.6965740993010421e+00 
 3.7449432810761025e+00  3.7939453671789907e+00  3.8435886390788898e+00  3.8938814866069063e+00 
 3.9448324093739733e+00  3.9964500182073084e+00  4.0487430366056580e+00  4.1017203022135922e+00 
 4.1553907683150930e+00  4.2097635053466727e+00  4.2648477024302984e+00  4.3206526689263844e+00 
 4.3771878360070913e+00  4.4344627582502136e+00  4.4924871152539305e+00  4.5512707132726797e+00 
 4.6108234868744447e+00  4.6711555006196894e+00  4.7322769507623397e+00  4.7941981669729472e+00 
 4.8569296140844278e+00  4.9204818938606509e+00  4.9848657467881594e+00  5.0500920538913379e+00 
 5.1161718385713320e+00  5.1831162684690275e+00  5.2509366573524145e+00  5.3196444670286294e+00 
 5.3892513092810406e+00  5.4597689478316598e+00  5.5312093003292420e+00  5.6035844403633925e+00 
 5.6769065995050383e+00  5.7511881693735853e+00  5.8264417037311524e+00  5.9026799206041352e+00 
 5.9799157044326483e+00  6.0581621082479877e+00  6.1374323558786346e+00  6.2177398441851066e+00 
 6.2990981453240673e+00  6.3815210090420535e+00  6.4650223649992036e+00  6.5496163251234174e+00 
 6.6353171859952971e+00  6.7221394312643064e+00  6.8100977340965434e+00  6.8992069596545322e+00 
 6.9894821676094843e+00  7.0809386146864055e+00  7.1735917572425256e+00  7.2674572538794635e+00 
 7.3625509680895727e+00  7.4588889709368580e+00  7.5564875437731098e+00  7.6553631809894300e+00 
 7.7555325928038421e+00  7.8570127080853567e+00  7.9598206772149878e+00  8.0639738749842120e+00 
 8.1694899035313444e+00  8.2763865953163513e+00  8.3846820161345690e+00  8.4943944681698671e+00 
 8.6055424930877642e+00  8.7181448751690187e+00  8.8322206444842024e+00  8.9477890801098461e+00 
 9.0648697133866332e+00  9.1834823312202456e+00  9.3036469794254284e+00  9.4253839661136993e+00 
 9.5487138651255687e+00  9.6736575195075059e+00  9.8002360450344810e+00  9.9284708337785776e+00 
 1.0058383557724303e+01  1.0189996172431211e+01  1.0323330920744434e+01  1.0458410336553792e+01 
 1.0595257248602051e+01  1.0733894784343066e+01  1.0874346373850342e+01  1.1016635753776795e+01 
 1.1160786971366292e+01  1.1306824388517706e+01  1.1454772685902116e+01  1.1604656867133910e+01 
 1.1756502262996472e+01  1.1910334535723075e+01  1.2066179683333965e+01  1.2224064044030014e+01 
 1.2384014300643956e+01  1.2546057485149861e+01  1.2710220983231586e+01  1.2876532538911034e+01 
 1.3045020259236951e+01  1.3215712619035088e+01  1.3388638465720518e+01  1.3563827024172909e+01 
 1.3741307901675604e+01  1.3921111092919327e+01  1.4103266985071343e+01  1.4287806362910972e+01 
 1.4474760414032298e+01  1.4664160734114928e+01  1.4856039332263769e+01  1.5050428636418546e+01 
 1.5247361498834357e+01  1.5446871201633662e+01  1.5648991462431093e+01  1.5853756440031788e+01 
 1.6061200740204324e+01  1.6271359421529166e+01  1.6484268001323652e+01  1.6699962461644517e+01 
 1.6918479255368926e+01  1.7139855312355110e+01  1.7364128045683596e+01  1.7591335357980103e+01 
 1.7821515647821194e+01  1.8054707816223694e+01  1.8290951273219090e+01  1.8530285944513892e+01 
 1.8772752278237220e+01  1.9018391251776507e+01  1.9267244378702959e+01  1.9519353715787314e+01 
 1.9774761870107589e+01  2.0033512006249754e+01  2.0295647853602677e+01  2.0561213713748458e+01 
 2.0830254467949544e+01  2.1102815584733737e+01  2.1378943127578484e+01  2.1658683762695755e+01 
 2.1942084766918679e+01  2.2229194035691496e+01  2.2520060091163973e+01  2.2814732090391789e+01 
 2.3113259833644147e+01  2.3415693772820177e+01  2.3722085019975477e+01  2.4032485355959974e+01 
 2.4346947239169264e+01  2.4665523814410065e+01  2.4988268921881829e+01  2.5315237106275887e+01 
 2.5646483625993625e+01  2.5982064462485273e+01  2.6322036329710901e+01  2.6666456683725244e+01 
 2.7015383732387878e+01  2.7368876445200524e+01  2.7726994563272967e+01  2.8089798609419546e+01 
 2.8457349898387545e+01  2.8829710547219619e+01  2.9206943485751680e+01  2.9589112467248185e+01 
 2.9976282079176652e+01  3.0368517754122895e+01  3.0765885780849597e+01  3.1168453315499061e+01 
 3.1576288392942757e+01  3.1989459938279484e+01  3.2408037778483809e+01  3.2832092654206946e+01 
 3.3261696231732202e+01  3.3696921115086688e+01  3.4137840858311542e+01  3.4584529977892821e+01 
 3.5037063965354889e+01  3.5495519300018699e+01  3.5959973461926985e+01  3.6430504944938555e+01 
 3.6907193269993940e+01  3.7390118998554719e+01  3.7879363746218282e+01  3.8375010196511511e+01 
 3.8877142114864192e+01  3.9385844362765624e+01  3.9901202912106498e+01  4.0423304859708232e+01 
 4.0952238442042649e+01  4.1488093050144045e+01  4.2030959244716598e+01  4.2580928771439254e+01 
 4.3138094576471019e+01  4.3702550822159033e+01  4.4274392902952307e+01  4.4853717461523502e+01 
 4.5440622405101891e+01  4.6035206922019817e+01  4.6637571498475815e+01  4.7247817935517055e+01 
 4.7866049366243715e+01  4.8492370273239082e+01  4.9126886506227159e+01  4.9769705299961537e+01 
 5.0420935292348311e+01  5.1080686542806205e+01  5.1749070550866811e+01  5.2426200275018310e+01 
 5.3112190151795708e+01  5.3807156115120911e+01  5.4511215615895800e+01  5.5224487641851759e+01 
 5.5947092737658807e+01  5.6679153025298000e+01  5.7420792224700357e+01  5.8172135674655699e+01 
 5.8933310353995402e+01  5.9704444903052000e+01  6.0485669645399462e+01  6.1277116609878732e+01 
 6.2078919552910556e+01  6.2891213981100641e+01  6.3714137174140717e+01  6.4547828208009037e+01 
 6.5392427978474558e+01  6.6248079224908778e+01  6.7114926554408825e+01  6.7993116466236600e+01 
 6.8882797376577344e+01  6.9784119643622475e+01  7.0697235592980306e+01  7.1622299543419629e+01 
 7.2559467832949792e+01  7.3508898845242257e+01  7.4470753036397880e+01  7.5445192962064382e+01 
 7.6432383304908186e+01  7.7432490902447014e+01  7.8445684775245141e+01  7.9472136155478623e+01 
 8.0512018515873748e+01  8.1565507599024443e+01  8.2632781447093166e+01  8.3714020431900479e+01 
 8.4809407285408241e+01  8.5919127130601836e+01  8.7043367512776328e+01  8.8182318431232105e+01 
 8.9336172371385217e+01  9.0505124337297843e+01  9.1689371884634440e+01  9.2889115154049065e+01 
 9.4104556905009829e+01  9.5335902550065654e+01  9.6583360189560935e+01  9.7847140646806011e+01 
 9.9127457503706054e+01  1.0042452713685715e+02  1.0173856875411447e+02  1.0306980443163889e+02 
 1.0441845915142834e+02  1.0578476083934042e+02  1.0716894040361230e+02  1.0857123177388486e+02 
 1.0999187194073721e+02  1.1143110099573887e+02  1.1288916217202559e+02  1.1436630188540651e+02 
 1.1586276977600896e+02  1.1737881875046811e+02 
  </PP_R>
  <PP_RAB>
 7.1541757059383612e-07  7.2477871461193334e-07  7.3426234795784339e-07  7.4387007338817376e-07 
 7.5360351463138949e-07  7.6346431666222785e-07  7.7345414597970031e-07  7.8357469088873904e-07 
 7.9382766178552173e-07  8.0421479144653252e-07  8.1473783532140701e-07  8.2539857182960532e-07 
 8.3619880266097160e-07  8.4714035308022171e-07  8.5822507223541883e-07  8.6945483347048186e-07 
 8.8083153464178790e-07  8.9235709843891303e-07  9.0403347270957022e-07  9.1586263078880235e-07 
 9.2784657183247953e-07  9.3998732115516104e-07  9.5228693057237870e-07  9.6474747874739870e-07 
 9.7737107154251861e-07  9.9015984237496717e-07  1.0031159525774531e-06  1.0162415917634375e-06 
 1.0295389781971833e-06  1.0430103591686468e-06  1.0566580113732754e-06  1.0704842412967742e-06 
 1.0844913856049091e-06  1.0986818115384052e-06  1.1130579173130197e-06  1.1276221325248462e-06 
 1.1423769185609188e-06  1.1573247690151959e-06  1.1724682101099812e-06  1.1878098011228631e-06 
 1.2033521348192367e-06  1.2190978378904906e-06  1.2350495713979178e-06  1.2512100312224485e-06 
 1.2675819485202568e-06  1.2841680901843330e-06  1.3009712593120937e-06  1.3179942956791164e-06 
 1.3352400762190627e-06  1.3527115155098917e-06  1.3704115662664248e-06  1.3883432198393695e-06 
 1.4065095067208576e-06  1.4249134970566104e-06  1.4435583011647980e-06  1.4624470700616905e-06 
 1.4815829959941892e-06  1.5009693129793217e-06  1.5206092973508000e-06  1.5405062683127288e-06 
 1.5606635885005556e-06  1.5810846645493687e-06  1.6017729476696254e-06  1.6227319342304128e-06 
 1.6439651663503442e-06  1.6654762324961846e-06  1.6872687680893121e-06  1.7093464561201108e-06 
 1.7317130277704023e-06  1.7543722630440308e-06  1.7773279914056899e-06  1.8005840924281098e-06 
 1.8241444964477133e-06  1.8480131852288575e-06  1.8721941926367551e-06  1.8966916053192119e-06 
 1.9215095633972773e-06  1.9466522611649350e-06  1.9721239477979528e-06  1.9979289280719917e-06 
 2.0240715630901392e-06  2.0505562710199355e-06  2.0773875278400559e-06  2.1045698680967643e-06 
 2.1321078856702618e-06  2.1600062345510619e-06  2.1882696296265233e-06  2.2169028474776844e-06 
 2.2459107271865133e-06  2.2752981711537207e-06  2.3050701459272836e-06  2.3352316830417972e-06 
 2.3657878798688225e-06  2.3967439004783503e-06  2.4281049765115413e-06  2.4598764080648865e-06 
 2.4920635645859420e-06  2.5246718857807616e-06  2.5577068825332427e-06  2.5911741378364602e-06 
 2.6250793077362178e-06  2.6594281222869261e-06  2.6942263865199963e-06  2.7294799814249098e-06 
 2.7651948649431096e-06  2.8013770729749157e-06  2.8380327203996021e-06  2.8751680021088283e-06 
 2.9127891940535899e-06  2.9509026543048667e-06  2.9895148241281543e-06  3.0286322290720546e-06 
 3.0682614800711054e-06  3.1084092745630467e-06  3.1490823976207071e-06  3.1902877230986834e-06 
 3.2320322147950568e-06  3.2743229276282803e-06  3.3171670088294777e-06  3.3605716991503467e-06 
 3.4045443340868567e-06  3.4490923451189757e-06  3.4942232609665904e-06  3.5399447088618977e-06 
 3.5862644158384136e-06  3.6331902100368629e-06  3.6807300220281512e-06  3.7288918861536573e-06 
 3.7776839418830458e-06  3.8271144351898659e-06  3.8771917199451355e-06  3.9279242593291673e-06 
 3.9793206272618701e-06  4.0313895098517442e-06  4.0841397068638790e-06  4.1375801332071222e-06 
 4.1917198204407184e-06  4.2465679183006688e-06  4.3021336962460530e-06  4.3584265450256021e-06 
 4.4154559782647322e-06  4.4732316340734030e-06  4.5317632766749554e-06  4.5910607980563000e-06 
 4.6511342196396852e-06  4.7119936939763391e-06  4.7736495064622777e-06  4.8361120770765538e-06 
 4.8993919621422722e-06  4.9634998561106177e-06  5.0284465933682611e-06  5.0942431500683686e-06 
 5.1609006459856301e-06  5.2284303463955038e-06  5.2968436639780896e-06  5.3661521607468921e-06 
 5.4363675500028176e-06  5.5075016983137743e-06  5.5795666275201351e-06  5.6525745167664515e-06 
 5.7265377045597784e-06  5.8014686908548883e-06  5.8773801391668095e-06  5.9542848787109837e-06 
 6.0321959065714336e-06  6.1111263898973049e-06  6.1910896681281393e-06  6.2720992552482798e-06 
 6.3541688420707615e-06  6.4373122985510937e-06  6.5215436761313017e-06  6.6068772101146827e-06 
 6.6933273220715782e-06  6.7809086222766756e-06  6.8696359121781531e-06  6.9595241868991851e-06 
 7.0505886377721426e-06  7.1428446549059687e-06  7.2363078297871350e-06  7.3309939579146471e-06 
 7.4269190414695213e-06  7.5240992920191896e-06  7.6225511332572949e-06  7.7222912037793280e-06 
 7.8233363598945993e-06  7.9257036784749943e-06  8.0294104598409890e-06  8.1344742306854797e-06 
 8.2409127470357837e-06  8.3487439972545076e-06  8.4579862050795847e-06  8.5686578327041539e-06 
 8.6807775838966755e-06  8.7943644071619681e-06  8.9094374989435084e-06  9.0260163068676922e-06 
 9.1441205330305280e-06  9.2637701373273398e-06  9.3849853408260271e-06  9.5077866291844901e-06 
 9.6321947561127349e-06  9.7582307468803166e-06  9.8859159018696577e-06  1.0015271800175848e-05 
 1.0146320303253585e-05  1.0279083558611808e-05  1.0413584003556636e-05  1.0549844368983405e-05 
 1.0687887683218181e-05  1.0827737275909637e-05  1.0969416781971775e-05  1.1112950145578340e-05 
 1.1258361624209401e-05  1.1405675792750947e-05  1.1554917547648076e-05  1.1706112111112585e-05 
 1.1859285035385549e-05  1.2014462207055734e-05  1.2171669851434497e-05  1.2330934536987905e-05 
 1.2492283179826879e-05  1.2655743048256090e-05  1.2821341767382346e-05  1.2989107323783335e-05 
 1.3159068070237364e-05  1.3331252730515118e-05  1.3505690404234002e-05  1.3682410571776059e-05 
 1.3861443099270200e-05  1.4042818243639691e-05  1.4226566657715621e-05  1.4412719395417315e-05 
 1.4601307917000501e-05  1.4792364094374176e-05  1.4985920216487067e-05  1.5182008994784480e-05 
 1.5380663568736663e-05  1.5581917511439433e-05  1.5785804835288102e-05  1.5992359997725679e-05 
 1.6201617907066239e-05  1.6413613928394518e-05  1.6628383889542676e-05  1.6845964087145327e-05 
 1.7066391292773735e-05  1.7289702759150288e-05  1.7515936226444295e-05  1.7745129928650196e-05 
 1.7977322600049160e-05  1.8212553481755302e-05  1.8450862328347496e-05  1.8692289414588022e-05 
 1.8936875542229069e-05  1.9184662046908345e-05  1.9435690805134910e-05  1.9690004241366362e-05 
 1.9947645335178718e-05  2.0208657628530042e-05  2.0473085233119155e-05  2.0740972837840600e-05 
 2.1012365716337146e-05  2.1287309734651218e-05  2.1565851358976302e-05  2.1848037663509886e-05 
 2.2133916338409021e-05  2.2423535697850217e-05  2.2716944688194523e-05  2.3014192896259672e-05 
 2.3315330557700291e-05  2.3620408565497902e-05  2.3929478478561941e-05  2.4242592530443323e-05 
 2.4559803638162083e-05  2.4881165411150381e-05  2.5206732160312754e-05  2.5536558907204681e-05 
 2.5870701393331406e-05  2.6209216089568401e-05  2.6552160205704974e-05  2.6899591700113024e-05 
 2.7251569289542021e-05  2.7608152459042357e-05  2.7969401472018308e-05  2.8335377380412912e-05 
 2.8706142035025749e-05  2.9081758095965901e-05  2.9462289043241666e-05  2.9847799187488842e-05 
 3.0238353680839350e-05  3.0634018527932130e-05  3.1034860597068050e-05  3.1440947631510849e-05 
 3.1852348260935877e-05  3.2269132013028661e-05  3.2691369325235307e-05  3.3119131556666574e-05 
 3.3552491000157626e-05  3.3991520894485870e-05  3.4436295436748396e-05  3.4886889794901481e-05 
 3.5343380120464046e-05  3.5805843561387626e-05  3.6274358275094466e-05  3.6749003441686264e-05 
 3.7229859277325887e-05  3.7717007047794055e-05  3.8210529082223422e-05  3.8710508787012440e-05 
 3.9217030659921224e-05  3.9730180304351860e-05  4.0250044443815641e-05  4.0776710936589381e-05 
 4.1310268790563940e-05  4.1850808178286521e-05  4.2398420452200220e-05  4.2953198160082670e-05 
 4.3515235060686938e-05  4.4084626139586950e-05  4.4661467625230217e-05  4.5245857005200798e-05 
 4.5837893042694734e-05  4.6437675793211507e-05  4.7045306621463504e-05  4.7660888218506904e-05 
 4.8284524619096748e-05  4.8916321219269070e-05  4.9556384794153007e-05  5.0204823516016165e-05 
 5.0861746972545904e-05  5.1527266185369838e-05  5.2201493628818963e-05  5.2884543248935993e-05 
 5.3576530482732398e-05  5.4277572277697719e-05  5.4987787111563855e-05  5.5707295012328084e-05 
 5.6436217578538140e-05  5.7174677999842696e-05  5.7922801077810422e-05  5.8680713247022181e-05 
 5.9448542596438453e-05  6.0226418891046811e-05  6.1014473593792454e-05  6.1812839887795797e-05 
 6.2621652698860734e-05  6.3441048718277342e-05  6.4271166425923249e-05  6.5112146113666667e-05 
 6.5964129909076505e-05  6.6827261799441977e-05  6.7701687656106910e-05  6.8587555259122277e-05 
 6.9485014322221472e-05  7.0394216518122175e-05  7.1315315504159491e-05  7.2248466948254426e-05 
 7.3193828555221871e-05  7.4151560093423560e-05  7.5121823421768895e-05  7.6104782517069753e-05 
 7.7100603501752726e-05  7.8109454671934414e-05  7.9131506525863664e-05  8.0166931792736453e-05 
 8.1215905461887354e-05  8.2278604812362953e-05  8.3355209442882854e-05  8.4445901302192082e-05 
 8.5550864719810790e-05  8.6670286437186492e-05  8.7804355639253739e-05  8.8953263986406858e-05 
 9.0117205646891068e-05  9.1296377329617355e-05  9.2490978317406473e-05  9.3701210500668738e-05 
 9.4927278411523525e-05  9.6169389258365972e-05  9.7427752960885551e-05  9.8702582185542984e-05 
 9.9994092381511476e-05  1.0130250181708803e-04  1.0262803161658153e-04  1.0397090579768277e-04 
 1.0533135130932465e-04  1.0670959807003663e-04  1.0810587900680161e-04  1.0952043009442116e-04 
 1.1095349039539592e-04  1.1240530210032752e-04  1.1387611056884955e-04  1.1536616437109400e-04 
 1.1687571532969970e-04  1.1840501856237163e-04  1.1995433252499598e-04  1.2152391905531997e-04 
 1.2311404341720303e-04  1.2472497434544690e-04  1.2635698409121267e-04  1.2801034846803168e-04 
 1.2968534689841891e-04  1.3138226246109556e-04  1.3310138193883063e-04  1.3484299586690750e-04 
 1.3660739858222526e-04  1.3839488827304230e-04  1.4020576702937065e-04  1.4204034089403020e-04 
 1.4389891991437067e-04  1.4578181819467013e-04  1.4768935394921917e-04  1.4962184955610061e-04 
 1.5157963161167149e-04  1.5356303098575891e-04  1.5557238287757785e-04  1.5760802687238041e-04 
 1.5967030699884667e-04  1.6175957178722660e-04  1.6387617432824208e-04  1.6602047233276010e-04 
 1.6819282819224710e-04  1.7039360904001381e-04  1.7262318681326161e-04  1.7488193831594062e-04 
 1.7717024528243102e-04  1.7948849444205650e-04  1.8183707758444260e-04  1.8421639162573047e-04 
 1.8662683867565584e-04  1.8906882610550730e-04  1.9154276661697262e-04  1.9404907831188661e-04 
 1.9658818476289084e-04  1.9916051508501889e-04  2.0176650400821757e-04  2.0440659195081751e-04 
 2.0708122509396481e-04  2.0979085545702605e-04  2.1253594097398208e-04  2.1531694557081889e-04 
 2.1813433924393224e-04  2.2098859813955872e-04  2.2388020463424502e-04  2.2680964741637096e-04 
 2.2977742156873927e-04  2.3278402865224533e-04  2.3582997679064195e-04  2.3891578075641441e-04 
 2.4204196205777724e-04  2.4520904902681123e-04  2.4841757690875196e-04  2.5166808795244809e-04 
 2.5496113150200276e-04  2.5829726408961324e-04  2.6167704952962761e-04  2.6510105901382904e-04 
 2.6856987120796983e-04  2.7208407234956722e-04  2.7564425634697795e-04  2.7925102487977137e-04 
 2.8290498750041391e-04  2.8660676173728530e-04  2.9035697319904199e-04  2.9415625568034734e-04 
 2.9800525126898273e-04  3.0190461045436401e-04  3.0585499223747419e-04  3.0985706424223699e-04 
 3.1391150282834645e-04  3.1801899320557371e-04  3.2218022954956863e-04  3.2639591511917753e-04 
 3.3066676237529584e-04  3.3499349310127412e-04  3.3937683852490339e-04  3.4381753944199303e-04 
 3.4831634634156745e-04  3.5287401953270009e-04  3.5749132927300820e-04  3.6216905589882731e-04 
 3.6690798995709072e-04  3.7170893233893376e-04  3.7657269441504509e-04  3.8150009817279178e-04 
 3.8649197635513686e-04  3.9154917260137426e-04  3.9667254158970628e-04  4.0186294918168595e-04 
 4.0712127256855001e-04  4.1244840041946613e-04  4.1784523303172062e-04  4.2331268248286917e-04 
 4.2885167278488255e-04  4.3446314004030488e-04  4.4014803260045853e-04  4.4590731122571642e-04 
 4.5174194924787401e-04  4.5765293273464393e-04  4.6364126065630436e-04  4.6970794505452724e-04 
 4.7585401121341420e-04  4.8208049783277470e-04  4.8838845720366737e-04  4.9477895538623917e-04 
 5.0125307238989291e-04  5.0781190235581154e-04  5.1445655374186968e-04  5.2118814950996638e-04 
 5.2800782731580922e-04  5.3491673970117745e-04  5.4191605428870887e-04  5.4900695397922786e-04 
 5.5619063715165872e-04  5.6346831786555573e-04  5.7084122606628135e-04  5.7831060779286948e-04 
 5.8587772538860980e-04  5.9354385771438702e-04  6.0131030036480895e-04  6.0917836588716935e-04 
 6.1714938400326820e-04  6.2522470183413884e-04  6.3340568412771484e-04  6.4169371348947500e-04 
 6.5009019061610816e-04  6.5859653453223294e-04  6.6721418283021772e-04  6.7594459191313465e-04 
 6.8478923724089814e-04  6.9374961357962007e-04  7.0282723525422804e-04  7.1202363640439110e-04 
 7.2134037124379135e-04  7.3077901432279184e-04  7.4034116079453756e-04  7.5002842668454189e-04 
 7.5984244916379551e-04  7.6978488682545609e-04  7.7985741996515294e-04  7.9006175086495972e-04 
 8.0039960408108618e-04  8.1087272673533101e-04  8.2148288881034965e-04  8.3223188344878571e-04 
 8.4312152725631777e-04  8.5415366060866648e-04  8.6533014796262618e-04  8.7665287817116091e-04 
 8.8812376480262563e-04  8.9974474646416225e-04  9.1151778712933083e-04  9.2344487647002464e-04 
 9.3552803019273040e-04  9.4776929037918641e-04  9.6017072583149841e-04  9.7273443242177520e-04 
 9.8546253344633321e-04  9.9835717998453992e-04  1.0114205512623505e-03  1.0246548550206036e-03 
 1.0380623278881324e-03  1.0516452357597632e-03  1.0654058741792556e-03  1.0793465687272529e-03 
 1.0934696754143138e-03  1.1077775810790838e-03  1.1222727037916737e-03  1.1369574932623219e-03 
 1.1518344312554005e-03  1.1669060320088384e-03  1.1821748426590352e-03  1.1976434436713327e-03 
 1.2133144492761170e-03  1.2291905079106350e-03  1.2452743026665821e-03  1.2615685517435530e-03 
 1.2780760089084234e-03  1.2947994639607445e-03  1.3117417432042229e-03  1.3289057099243749e-03 
 1.3462942648724289e-03  1.3639103467555569e-03  1.3817569327335246e-03  1.3998370389218390e-03 
 1.4181537209014795e-03  1.4367100742352947e-03  1.4555092349911650e-03  1.4745543802720015e-03 
 1.4938487287526861e-03  1.5133955412240357e-03  1.5331981211438787e-03  1.5532598151953546e-03 
 1.5735840138525077e-03  1.5941741519532836e-03  1.6150337092800285e-03  1.6361662111475783e-03 
 1.6575752289990453e-03  1.6792643810094030e-03  1.7012373326969646e-03  1.7234977975428597e-03 
 1.7460495376186310e-03  1.7688963642220265e-03  1.7920421385211201e-03  1.8154907722068578e-03 
 1.8392462281541417e-03  1.8633125210915683e-03  1.8876937182799225e-03  1.9123939401995615e-03 
 1.9374173612467756e-03  1.9627682104392812e-03  1.9884507721309288e-03  2.0144693867357715e-03 
 2.0408284514616053e-03  2.0675324210531051e-03  2.0945858085446895e-03  2.1219931860232350e-03 
 2.1497591854007679e-03  2.1778884991972684e-03  2.2063858813337178e-03  2.2352561479355251e-03 
 2.2645041781464629e-03  2.2941349149532431e-03  2.3241533660209135e-03  2.3545646045391505e-03 
 2.3853737700796468e-03  2.4165860694647058e-03  2.4482067776472145e-03  2.4802412386021135e-03 
 2.5126948662295510e-03  2.5455731452698380e-03  2.5788816322303860e-03  2.6126259563247676e-03 
 2.6468118204240726e-03  2.6814450020206959e-03  2.7165313542047596e-03  2.7520768066532910e-03 
 2.7880873666323563e-03  2.8245691200122999e-03  2.8615282322962789e-03  2.8989709496622246e-03 
 2.9369036000184943e-03  2.9753325940732821e-03  3.0142644264180476e-03  3.0537056766251187e-03 
 3.0936630103596541e-03  3.1341431805061580e-03  3.1751530283097313e-03  3.2166994845322593e-03 
 3.2587895706237308e-03  3.3014303999088718e-03  3.3446291787893206e-03  3.3883932079615251e-03 
 3.4327298836505805e-03  3.4776466988602002e-03  3.5231512446390642e-03  3.5692512113637120e-03 
 3.6159543900382506e-03  3.6632686736110215e-03  3.7112020583085648e-03  3.7597626449869829e-03 
 3.8089586405010028e-03  3.8587983590909567e-03  3.9092902237879102e-03  3.9604427678371738e-03 
 4.0122646361404378e-03  4.0647645867167882e-03  4.1179514921828265e-03  4.1718343412521664e-03 
 4.2264222402545477e-03  4.2817244146748246e-03  4.3377502107121019e-03  4.3945090968592528e-03 
 4.4520106655031311e-03  4.5102646345456946e-03  4.5692808490463708e-03  4.6290692828858584e-03 
 4.6896400404517870e-03  4.7510033583463476e-03  4.8131696071163164e-03  4.8761492930056976e-03 
 4.9399530597313036e-03  5.0045916902815707e-03  5.0700761087389083e-03  5.1364173821258942e-03 
 5.2036267222756285e-03  5.2717154877265646e-03  5.3406951856421175e-03  5.4105774737554149e-03 
 5.4813741623394741e-03  5.5530972162031707e-03  5.6257587567133142e-03  5.6993710638431928e-03 
 5.7739465782479247e-03  5.8494979033669224e-03  5.9260378075539598e-03  6.0035792262350162e-03 
 6.0821352640944076e-03  6.1617191972894994e-03  6.2423444756944217e-03  6.3240247251731205e-03 
 6.4067737498821626e-03  6.4906055346036782e-03  6.5755342471088100e-03  6.6615742405521103e-03 
 6.7487400558972552e-03  6.8370464243745020e-03  6.9265082699703001e-03  7.0171407119494801e-03 
 7.1089590674104563e-03  7.2019788538738340e-03  7.2962157919049340e-03  7.3916858077705564e-03 
 7.4884050361306159e-03  7.5863898227649107e-03  7.6856567273355953e-03  7.7862225261858056e-03 
 7.8881042151749074e-03  7.9913190125508182e-03  8.0958843618599667e-03  8.2018179348952568e-03 
 8.3091376346826652e-03  8.4178615985068851e-03  8.5280082009765775e-03  8.6395960571297205e-03 
 8.7526440255795909e-03  8.8671712117019234e-03  8.9831969708637615e-03  9.1007409116945544e-03 
 9.2198228994000812e-03  9.3404630591196608e-03  9.4626817793274365e-03  9.5864997152780192e-03 
 9.7119377924972800e-03  9.8390172103188216e-03  9.9677594454667239e-03  1.0098186255685140e-02 
 1.0230319683415428e-02  1.0364182059521360e-02  1.0499796007063111e-02  1.0637184445120584e-02 
 1.0776370592666812e-02  1.0917377972492003e-02  1.1060230415178963e-02  1.1204952063130503e-02 
 1.1351567374649587e-02  1.1500101128072815e-02  1.1650578425958055e-02  1.1803024699326771e-02 
 1.1957465711962011e-02  1.2113927564762501e-02  1.2272436700153752e-02  1.2433019906556915e-02 
 1.2595704322916079e-02  1.2760517443284809e-02  1.2927487121472720e-02  1.3096641575752830e-02 
 1.3268009393630518e-02  1.3441619536674873e-02  1.3617501345413284e-02  1.3795684544290037e-02 
 1.3976199246689840e-02  1.4159075960027042e-02  1.4344345590901454e-02  1.4532039450321660e-02 
 1.4722189258996659e-02  1.4914827152696633e-02  1.5109985687684149e-02  1.5307697846216111e-02 
 1.5507997042117885e-02  1.5710917126430309e-02  1.5916492393130598e-02  1.6124757584928123e-02 
 1.6335747899135982e-02  1.6549498993619460e-02  1.6766046992822258e-02  1.6985428493871666e-02 
 1.7207680572763496e-02  1.7432840790628071e-02  1.7660947200078107e-02  1.7892038351639720e-02 
 1.8126153300267542e-02  1.8363331611945109e-02  1.8603613370371638e-02  1.8847039183736116e-02 
 1.9093650191580429e-02  1.9343488071751846e-02  1.9596595047446767e-02  1.9853013894346506e-02 
 2.0112787947846475e-02  2.0375961110380009e-02  2.0642577858837965e-02  2.0912683252085385e-02 
 2.1186322938576627e-02  2.1463543164069985e-02  2.1744390779443373e-02  2.2028913248612246e-02 
 2.2317158656551074e-02  2.2609175717419862e-02  2.2905013782796919e-02  2.3204722850019410e-02 
 2.3508353570633089e-02  2.3815957258952317e-02  2.4127585900732589e-02  2.4443292161956075e-02 
 2.4763129397732328e-02  2.5087151661315442e-02  2.5415413713239174e-02  2.5747971030571578e-02 
 2.6084879816290811e-02  2.6426197008783542e-02  2.6771980291467653e-02  2.7122288102540935e-02 
 2.7477179644857210e-02  2.7836714895931810e-02  2.8200954618077898e-02  2.8569960368675439e-02 
 2.8943794510574560e-02  2.9322520222634998e-02  2.9706201510403554e-02  3.0094903216930941e-02 
 3.0488691033730770e-02  3.0887631511881342e-02  3.1291792073272963e-02  3.1701241022002467e-02 
 3.2116047555916703e-02  3.2536281778307197e-02  3.2962014709757709e-02  3.3393318300146968e-02 
 3.3830265440808277e-02  3.4272929976848387e-02  3.4721386719627476e-02  3.5175711459402431e-02 
 3.5635980978135626e-02  3.6102273062471213e-02  3.6574666516881259e-02  3.7053241176983893e-02 
 3.7538077923035811e-02  3.8029258693600909e-02  3.8526866499398543e-02  3.9030985437332244e-02 
 3.9541700704702379e-02  4.0059098613604675e-02  4.0583266605517206e-02  4.1114293266078163e-02 
 4.1652268340057086e-02  4.2197282746521909e-02  4.2749428594204511e-02  4.3308799197067302e-02 
 4.3875489090073529e-02  4.4449594045163895e-02  4.5031211087442229e-02  4.5620438511572971e-02 
 4.6217375898393226e-02  4.6822124131742131e-02  4.7434785415510584e-02  4.8055463290913543e-02 
 4.8684262653989334e-02  4.9321289773326879e-02  4.9966652308025564e-02  5.0620459325889780e-02 
 5.1282821321861648e-02  5.1953850236695007e-02  5.2633659475873555e-02  5.3322363928776699e-02 
 5.4020079988096208e-02  5.4726925569506743e-02  5.5443020131593877e-02  5.6168484696042992e-02 
 5.6903441868092181e-02  5.7648015857252773e-02  5.8402332498301096e-02  5.9166519272544835e-02 
 5.9940705329367780e-02  6.0725021508055962e-02  6.1519600359910415e-02  6.2324576170648308e-02 
 6.3140084983097561e-02  6.3966264620188465e-02  6.4803254708246064e-02  6.5651196700587389e-02 
 6.6510233901427310e-02  6.7380511490097356e-02  6.8262176545581379e-02  6.9155378071372176e-02 
 7.0060267020653530e-02  7.0976996321811578e-02  7.1905720904280143e-02  7.2846597724724099e-02 
 7.3799785793565498e-02  7.4765446201856600e-02  7.5743742148504975e-02  7.6734838967853755e-02 
 7.7738904157624425e-02  7.8756107407223844e-02  7.9786620626422250e-02  8.0830617974406382e-02 
 8.1888275889212866e-02  8.2959773117546695e-02  8.4045290744989648e-02  8.5145012226604422e-02 
 8.6259123417938857e-02  8.7387812606435980e-02  8.8531270543255061e-02  8.9689690475508912e-02 
 9.0863268178923290e-02  9.2052201990923274e-02  9.3256692844152833e-02  9.4476944300433019e-02 
 9.5713162585164435e-02  9.6965556622179150e-02  9.8234338069050423e-02  9.9519721352862592e-02 
 1.0082192370644995e-01  1.0214116520510963e-01  1.0347766880379483e-01  1.0483166037479476e-01 
 1.0620336874590747e-01  1.0759302573911256e-01  1.0900086620974939e-01  1.1042712808620826e-01 
 1.1187205241014093e-01  1.1333588337719724e-01  1.1481886837829462e-01  1.1632125804142800e-01 
 1.1784330627402623e-01  1.1938527030586318e-01  1.2094741073253057e-01  1.2252999155947808e-01 
 1.2413328024663239e-01  1.2575754775359757e-01  1.2740306858544825e-01  1.2907012083912150e-01 
 1.3075898625041593e-01  1.3246995024160574e-01  1.3420330196967764e-01  1.3595933437519928e-01 
 1.3773834423182665e-01  1.3954063219645985e-01  1.4136650286005445e-01  1.4321626479909833e-01 
 1.4509023062776180e-01  1.4698871705073016e-01  1.4891204491672749e-01  1.5086053927274082e-01 
 1.5283452941895412e-01  1.5483434896439999e-01  1.5686033588334156e-01  1.5891283257239017e-01 
 1.6099218590837142e-01  1.6309874730694818e-01  1.6523287278201063e-01  1.6739492300584344e-01 
 1.6958526337008037e-01  1.7180426404745613e-01  1.7405230005436673e-01  1.7632975131424780e-01 
 1.7863700272178284e-01  1.8097444420795125e-01  1.8334247080592744e-01  1.8574148271784263e-01 
 1.8817188538241986e-01  1.9063408954349406e-01  1.9312851131942899e-01  1.9565557227344110e-01 
 1.9821569948484663e-01  2.0080932562123760e-01  2.0343688901160420e-01  2.0609883372041324e-01 
 2.0879560962265620e-01  2.1152767247987914e-01  2.1429548401720747e-01  2.1709951200137872e-01 
 2.1994023031979601e-01  2.2281811906061641e-01  2.2573366459388675e-01  2.2868735965374135e-01 
 2.3167970342167551e-01  2.3471120161090800e-01  2.3778236655184815e-01  2.4089371727868059e-01 
 2.4404577961708385e-01  2.4723908627309457e-01  2.5047417692313845e-01  2.5375159830523508e-01 
 2.5707190431139865e-01  2.6043565608124680e-01  2.6384342209683481e-01  2.6729577827872997e-01 
 2.7079330808334406e-01  2.7433660260153858e-01  2.7792626065852027e-01  2.8156288891504483e-01 
 2.8524710196994280e-01  2.8897952246398945e-01  2.9276078118513166e-01  2.9659151717509324e-01 
 3.0047237783737391e-01  3.0440401904666231e-01  3.0838710525968122e-01  3.1242230962747963e-01 
 3.1651031410920044e-01  3.2065180958733080e-01  3.2484749598446377e-01  3.2909808238158650e-01 
 3.3340428713791709e-01  3.3776683801230850e-01  3.4218647228624172e-01  3.4666393688842817e-01 
 3.5119998852104239e-01  3.5579539378760677e-01  3.6045092932254857e-01  3.6516738192245407e-01 
 3.6994554867903806e-01  3.7478623711385506e-01  3.7969026531477179e-01  3.8465846207422638e-01 
 3.8969166702929647e-01  3.9479073080359761e-01  3.9995651515104474e-01  4.0518989310148779e-01 
 4.1049174910825581e-01  4.1586297919763326e-01  4.2130449112028950e-01  4.2681720450469030e-01 
 4.3240205101251861e-01  4.3805997449612694e-01  4.4379193115805005e-01  4.4959888971260664e-01 
 4.5548183154961353e-01  4.6144175090024309e-01  4.6747965500505079e-01  4.7359656428420122e-01 
 4.7979351250992119e-01  4.8607154698121130e-01  4.9243172870083762e-01  4.9887513255464960e-01 
 5.0540284749323450e-01  5.1201597671595311e-01  5.1871563785738450e-01  5.2550296317620704e-01 
 5.3237909974655440e-01  5.3934520965187260e-01  5.4640247018131571e-01  5.5355207402871032e-01 
 5.6079522949412319e-01  5.6813316068806741e-01  5.7556710773837994e-01  5.8309832699980546e-01 
 5.9072809126632453e-01  5.9845768998625759e-01  6.0628842948018558e-01  6.1422163316172174e-01 
 6.2225864176116830e-01  6.3040081355210809e-01  6.3864952458095303e-01  6.4700616889949991e-01 
 6.5547215880052800e-01  6.6404892505648061e-01  6.7273791716126852e-01  6.8154060357523805e-01 
 6.9045847197334420e-01  6.9949302949657177e-01  7.0864580300664537e-01  7.1791833934407279e-01 
 7.2731220558956444e-01  7.3682898932887397e-01  7.4647029892110461e-01  7.5623776377052410e-01 
 7.6613303460194015e-01  7.7615778373967592e-01  7.8631370539019296e-01  7.9660251592842346e-01 
 8.0702595418783718e-01  8.1758578175430829e-01  8.2828378326382923e-01  8.3912176670411742e-01 
 8.5010156372016921e-01  8.6122502992381411e-01  8.7249404520731466e-01  8.8391051406107579e-01 
 8.9547636589550539e-01  9.0719355536709212e-01  9.1906406270874397e-01  9.3108989406445519e-01 
 9.4327308182834724e-01  9.5561568498814931e-01  9.6811978947317245e-01  9.8078750850683694e-01 
 9.9362098296380641e-01  1.0066223817318112e+00  1.0197939020781868e+00  1.0331377700212221e+00 
 1.0466562407063587e+00  1.0603515987873178e+00  1.0742261588122111e+00  1.0882822656147062e+00 
 1.1025222947103070e+00  1.1169486526978238e+00  1.1315637776660923e+00  1.1463701396060173e+00 
 1.1613702408280078e+00  1.1765666163848718e+00  1.1919618345002476e+00  1.2075584970026378e+00 
 1.2233592397651276e+00  1.2393667331508536e+00  1.2555836824642921e+00  1.2720128284084782e+00 
 1.2886569475481786e+00  1.3055188527791428e+00  1.3226013938034880e+00  1.3399074576113055e+00 
 1.3574399689685683e+00  1.3752018909114254e+00  1.3931962252469599e+00  1.4114260130605032e+00 
 1.4298943352295836e+00  1.4486043129446053e+00  1.4675591082363326e+00  1.4867619245102845e+00 
 1.5062160070881163e+00  1.5259246437560854e+00 
  </PP_RAB>
</PP_MESH>


<PP_LOCAL>
3.1183120258891581e+01 3.1183119892486904e+01 3.1183119516430800e+01 3.1183119130468977e+01 
3.1183118734340582e+01 3.1183118327777741e+01 3.1183117910505672e+01 3.1183117482242281e+01 
3.1183117042698022e+01 3.1183116591575750e+01 3.1183116128570493e+01 3.1183115653369249e+01 
3.1183115165650747e+01 3.1183114665085249e+01 3.1183114151334387e+01 3.1183113624050851e+01 
3.1183113082878187e+01 3.1183112527450497e+01 3.1183111957392306e+01 3.1183111372318276e+01 
3.1183110771832823e+01 3.1183110155530002e+01 3.1183109522993167e+01 3.1183108873794698e+01 
3.1183108207495753e+01 3.1183107523645852e+01 3.1183106821782669e+01 3.1183106101431793e+01 
3.1183105362106136e+01 3.1183104603305971e+01 3.1183103824518238e+01 3.1183103025216493e+01 
3.1183102204860344e+01 3.1183101362895268e+01 3.1183100498752008e+01 3.1183099611846373e+01 
3.1183098701578761e+01 3.1183097767333841e+01 3.1183096808479984e+01 3.1183095824368962e+01 
3.1183094814335522e+01 3.1183093777696740e+01 3.1183092713751915e+01 3.1183091621781728e+01 
3.1183090501047943e+01 3.1183089350792905e+01 3.1183088170238999e+01 3.1183086958588081e+01 
3.1183085715021061e+01 3.1183084438697158e+01 3.1183083128753641e+01 3.1183081784304793e+01 
3.1183080404441782e+01 3.1183078988231692e+01 3.1183077534717142e+01 3.1183076042915435e+01 
3.1183074511818042e+01 3.1183072940389838e+01 3.1183071327568491e+01 3.1183069672263553e+01 
3.1183067973356028e+01 3.1183066229697289e+01 3.1183064440108506e+01 3.1183062603379792e+01 
3.1183060718269413e+01 3.1183058783502830e+01 3.1183056797772043e+01 3.1183054759734461e+01 
3.1183052668012252e+01 3.1183050521191227e+01 3.1183048317819882e+01 3.1183046056408514e+01 
3.1183043735428164e+01 3.1183041353309601e+01 3.1183038908442207e+01 3.1183036399172899e+01 
3.1183033823805097e+01 3.1183031180597460e+01 3.1183028467762693e+01 3.1183025683466521e+01 
3.1183022825826264e+01 3.1183019892909478e+01 3.1183016882732996e+01 3.1183013793261164e+01 
3.1183010622404712e+01 3.1183007368019293e+01 3.1183004027904001e+01 3.1183000599799769e+01 
3.1182997081388045e+01 3.1182993470289013e+01 3.1182989764060018e+01 3.1182985960193985e+01 
3.1182982056117517e+01 3.1182978049189384e+01 3.1182973936698360e+01 3.1182969715861752e+01 
3.1182965383823078e+01 3.1182960937650439e+01 3.1182956374334207e+01 3.1182951690785067e+01 
3.1182946883831850e+01 3.1182941950219199e+01 3.1182936886605418e+01 3.1182931689559950e+01 
3.1182926355561023e+01 3.1182920880993152e+01 3.1182915262144284e+01 3.1182909495203400e+01 
3.1182903576257480e+01 3.1182897501288608e+01 3.1182891266171119e+01 3.1182884866668122e+01 
3.1182878298428555e+01 3.1182871556983468e+01 3.1182864637742540e+01 3.1182857535990401e+01 
3.1182850246882513e+01 3.1182842765441055e+01 3.1182835086550561e+01 3.1182827204953146e+01 
3.1182819115243628e+01 3.1182810811864204e+01 3.1182802289098760e+01 3.1182793541066726e+01 
3.1182784561716545e+01 3.1182775344818513e+01 3.1182765883957028e+01 3.1182756172522048e+01 
3.1182746203699839e+01 3.1182735970462673e+01 3.1182725465557322e+01 3.1182714681492577e+01 
3.1182703610524939e+01 3.1182692244642848e+01 3.1182680575548837e+01 3.1182668594639029e+01 
3.1182656292980639e+01 3.1182643661285564e+01 3.1182630689880678e+01 3.1182617368673821e+01 
3.1182603687114653e+01 3.1182589634149501e+01 3.1182575198169399e+01 3.1182560366949726e+01 
3.1182545127581619e+01 3.1182529466391127e+01 3.1182513368844852e+01 3.1182496819441912e+01 
3.1182479801588450e+01 3.1182462297449320e+01 3.1182444287776040e+01 3.1182425751709889e+01 
3.1182406666547145e+01 3.1182387007466883e+01 3.1182366747215788e+01 3.1182345855738760e+01 
3.1182324299750245e+01 3.1182302042229402e+01 3.1182279041836690e+01 3.1182255252238075e+01 
3.1182230621308697e+01 3.1182205090215316e+01 3.1182178592349366e+01 3.1182151052082627e+01 
3.1182122383342229e+01 3.1182092487940459e+01 3.1182061253648634e+01 3.1182028552000411e+01 
3.1181994235737374e+01 3.1181958135879011e+01 3.1181920058359907e+01 3.1181879780197786e+01 
3.1181837045126912e+01 3.1181791558604253e+01 3.1181742982192386e+01 3.1181690927180757e+01 
3.1181634947414853e+01 3.1181574531288980e+01 3.1181509092821500e+01 3.1181437961770808e+01 
3.1181360372683759e+01 3.1181275452991883e+01 3.1181182210078060e+01 3.1181079517406086e+01 
3.1180966099644358e+01 3.1180840517066024e+01 3.1180701149571188e+01 3.1180546180227910e+01 
3.1180373579167693e+01 3.1180181087840314e+01 3.1179966204582989e+01 3.1179726172777528e+01 
3.1179457971417968e+01 3.1179158309825066e+01 3.1178823628045976e+01 3.1178450104646817e+01 
3.1178033672632015e+01 3.1177570045611002e+01 3.1177054758150895e+01 3.1176483218910295e+01 
3.1175850781417903e+01 3.1175152835605669e+01 3.1174384915772372e+01 3.1173542834085325e+01 
3.1172622838632758e+01 3.1171621789904815e+01 3.1170537362950991e+01 3.1169368269167606e+01 
3.1168114496141840e+01 3.1166777558853539e+01 3.1165360750146284e+01 3.1163869392040979e+01 
3.1162311069910338e+01 3.1160695831688230e+01 3.1159036346238473e+01 3.1157348000319189e+01 
3.1155648909791573e+01 3.1153959838846557e+01 3.1152304010866207e+01 3.1150706787274540e+01 
3.1149195212327896e+01 3.1147797425286793e+01 3.1146541937747823e+01 3.1145456787687053e+01 
3.1144467053834965e+01 3.1143451896718968e+01 3.1142410178854512e+01 3.1141341209898872e+01 
3.1140244281998694e+01 3.1139118669702228e+01 3.1137963628255832e+01 3.1136778394676462e+01 
3.1135562186455129e+01 3.1134314198960233e+01 3.1133033608967480e+01 3.1131719573988185e+01 
3.1130371227079973e+01 3.1128987679869113e+01 3.1127568023340910e+01 3.1126111323002608e+01 
3.1124616621314960e+01 3.1123082937672198e+01 3.1121509266313474e+01 3.1119894575622599e+01 
3.1118237807249901e+01 3.1116537876593650e+01 3.1114793672904437e+01 3.1113004057868721e+01 
3.1111167862069383e+01 3.1109283887136428e+01 3.1107350906805255e+01 3.1105367664527094e+01 
3.1103332869710645e+01 3.1101245199586472e+01 3.1099103300831878e+01 3.1096905785619505e+01 
3.1094651231435645e+01 3.1092338179783376e+01 3.1089965137227527e+01 3.1087530573374643e+01 
3.1085032918700122e+01 3.1082470567127867e+01 3.1079841872641907e+01 3.1077145147344648e+01 
3.1074378663730023e+01 3.1071540651902662e+01 3.1068629297558072e+01 3.1065642744766183e+01 
3.1062579090505430e+01 3.1059436384788125e+01 3.1056212634475433e+01 3.1052905796710540e+01 
3.1049513776692258e+01 3.1046034432132899e+01 3.1042465570913262e+01 3.1038804946422889e+01 
3.1035050259447363e+01 3.1031199156096246e+01 3.1027249226862399e+01 3.1023198006463993e+01 
3.1019042971560239e+01 3.1014781537968808e+01 3.1010411063551590e+01 3.1005928845949153e+01 
3.1001332116194121e+01 3.0996618044608844e+01 3.0991783736358926e+01 3.0986826229887676e+01 
3.0981742496151693e+01 3.0976529436772946e+01 3.0971183887017158e+01 3.0965702606813707e+01 
3.0960082284923647e+01 3.0954319538540464e+01 3.0948410907030738e+01 3.0942352856279893e+01 
3.0936141773944982e+01 3.0929773967713086e+01 3.0923245666711985e+01 3.0916553019552580e+01 
3.0909692091702041e+01 3.0902658864985352e+01 3.0895449236873777e+01 3.0888059018349871e+01 
3.0880483935239933e+01 3.0872719623699826e+01 3.0864761628485876e+01 3.0856605408468205e+01 
3.0848246329379222e+01 3.0839679661205277e+01 3.0830900584717451e+01 3.0821904184782397e+01 
3.0812685449851113e+01 3.0803239275088163e+01 3.0793560455409963e+01 3.0783643688782170e+01 
3.0773483577126164e+01 3.0763074620876537e+01 3.0752411221283911e+01 3.0741487679667475e+01 
3.0730298198144592e+01 3.0718836877622923e+01 3.0707097717046938e+01 3.0695074616030585e+01 
3.0682761371441199e+01 3.0670151680487180e+01 3.0657239140586039e+01 3.0644017247182280e+01 
3.0630479397451225e+01 3.0616618890011821e+01 3.0602428924173029e+01 3.0587902601903256e+01 
3.0573032930177504e+01 3.0557812822387817e+01 3.0542235097173407e+01 3.0526292481159548e+01 
3.0509977613991705e+01 3.0493283047605122e+01 3.0476201247441374e+01 3.0458724597645265e+01 
3.0440845404813260e+01 3.0422555898351696e+01 3.0403848234576412e+01 3.0384714500470071e+01 
3.0365146719731705e+01 3.0345136856760980e+01 3.0324676816631719e+01 3.0303758454767912e+01 
3.0282373584417037e+01 3.0260513976728646e+01 3.0238171367969386e+01 3.0215337469435944e+01 
3.0192003971646169e+01 3.0168162553235994e+01 3.0143804887684009e+01 3.0118922648847299e+01 
3.0093507525729745e+01 3.0067551227907160e+01 3.0041045492388925e+01 3.0013982100030248e+01 
2.9986352882460661e+01 2.9958149731283974e+01 2.9929364611713122e+01 2.9899989577437069e+01 
2.9870016780033446e+01 2.9839438480213154e+01 2.9808247064851226e+01 2.9776435061540955e+01 
2.9743995151760611e+01 2.9710920186605037e+01 2.9677203202391095e+01 2.9642837435825196e+01 
2.9607816346561950e+01 2.9572133628575472e+01 2.9535783228272507e+01 2.9498759370138124e+01 
2.9461056567965230e+01 2.9422669646228531e+01 2.9383593765482299e+01 2.9343824437452728e+01 
2.9303357545158089e+01 2.9262189368920048e+01 2.9220316607329394e+01 2.9177736396273236e+01 
2.9134446332766931e+01 2.9090444500032298e+01 2.9045729489768746e+01 2.9000300421598176e+01 
2.8954156970086920e+01 2.8907299390266829e+01 2.8859728535729083e+01 2.8811445884066764e+01 
2.8762453563150974e+01 2.8712754372679868e+01 2.8662351804034881e+01 2.8611250066891532e+01 
2.8559454111058535e+01 2.8506969644871923e+01 2.8453803161524259e+01 2.8399961955633831e+01 
2.8345454141846957e+01 2.8290288679478103e+01 2.8234475384618150e+01 2.8178024946496230e+01 
2.8120948948505013e+01 2.8063259876840068e+01 2.8004971133426871e+01 2.7946097048999768e+01 
2.7886652890596661e+01 2.7826654868905045e+01 2.7766120142974895e+01 2.7705066823290210e+01 
2.7643513972177811e+01 2.7581481602677307e+01 2.7518990671415366e+01 2.7456063073118997e+01 
2.7392721630588635e+01 2.7328990080133877e+01 2.7264893054793220e+01 2.7200456064168428e+01 
2.7135705472610407e+01 2.7070668469552629e+01 2.7005373040317654e+01 2.6939847930522124e+01 
2.6874122606992007e+01 2.6808227215606916e+01 2.6742192532413132e+01 2.6676049913657408e+01 
2.6609831239549756e+01 2.6543568852764064e+01 2.6477295492653685e+01 2.6411044228331942e+01 
2.6344848382519238e+01 2.6278741450157050e+01 2.6212757018257715e+01 2.6146928675918996e+01 
2.6081289919864592e+01 2.6015874057551198e+01 2.5950714104596944e+01 2.5885842677237310e+01 
2.5821291880902400e+01 2.5757093194462232e+01 2.5693277349969240e+01 2.5629874209298368e+01 
2.5566912636310438e+01 2.5504420364750079e+01 2.5442423864843228e+01 2.5380948205651311e+01 
2.5320016914523269e+01 2.5259651835434948e+01 2.5199872984663063e+01 2.5140698404960940e+01 
2.5082144018973420e+01 2.5024223482676565e+01 2.4966948038397497e+01 2.4910326368737536e+01 
2.4854364451708172e+01 2.4799065417552885e+01 2.4744429408665372e+01 2.4690453442771503e+01 
2.4637131280272801e+01 2.4584453296802462e+01 2.4532406360213944e+01 2.4480973715005966e+01 
2.4430134875038043e+01 2.4379865523023319e+01 2.4330137419081645e+01 2.4280918319770027e+01 
2.4232171908405714e+01 2.4183857735884043e+01 2.4135931174277324e+01 2.4088343384096227e+01 
2.4041041294183980e+01 2.3993967597607487e+01 2.3947060762394187e+01 2.3900255057263138e+01 
2.3853480594246420e+01 2.3806663387920956e+01 2.3759725431619387e+01 2.3712584790389759e+01 
2.3665155711523365e+01 2.3617348752750136e+01 2.3569070926564983e+01 2.3520225861775373e+01 
2.3470713982352290e+01 2.3420432701289069e+01 2.3369276629967548e+01 2.3317137802512374e+01 
2.3263905913827507e+01 2.3209468570462317e+01 2.3153711553146771e+01 2.3096519089890062e+01 
2.3037774138821376e+01 2.2977358678928617e+01 2.2915154007332749e+01 2.2851041042324738e+01 
2.2784900629980442e+01 2.2716613853495446e+01 2.2646062343555929e+01 2.2573128588153999e+01 
2.2497696241157538e+01 2.2419650427534719e+01 2.2338878044358452e+01 2.2255268056603114e+01 
2.2168711786266034e+01 2.2079103194229788e+01 2.1986339153744261e+01 2.1890319714910426e+01 
2.1790948359673180e+01 2.1688132246642589e+01 2.1581782445625095e+01 2.1471814161579264e+01 
2.1358146947923707e+01 2.1240704909344252e+01 2.1119416894244189e+01 2.0994216677204690e+01 
2.0865043131855387e+01 2.0731840394734117e+01 2.0594558020733121e+01 2.0453151130861226e+01 
2.0307580553108217e+01 2.0157812957249352e+01 2.0003820984465548e+01 1.9845583372689052e+01 
1.9683085078643458e+01 1.9516317397467184e+01 1.9345278080864063e+01 1.9169971454697265e+01 
1.8990408536902251e+01 1.8806607156516513e+01 1.8618592074610650e+01 1.8426395107863506e+01 
1.8230055255338712e+01 1.8029618829052048e+01 1.7825139588778914e+01 1.7616678881407093e+01 
1.7404305785117227e+01 1.7188097258487762e+01 1.6968138294506765e+01 1.6744522079393075e+01 
1.6517350155968703e+01 1.6286732591098925e+01 1.6052788146780298e+01 1.5815644454113890e+01 
1.5575438189296852e+01 1.5332315250757233e+01 1.5086430936149009e+01 1.4837950117981892e+01 
1.4587047416402399e+01 1.4333907367468035e+01 1.4078724585158644e+01 1.3821703915089001e+01 
1.3563060577806027e+01 1.3303020299379265e+01 1.3041819426759730e+01 1.2779705025212248e+01 
1.2516934954970223e+01 1.2253777924131933e+01 1.1990513514553802e+01 1.1727432177292432e+01 
1.1464835194095532e+01 1.1203034601179217e+01 1.0942353071346311e+01 1.0683123750392452e+01 
1.0425690043524920e+01 1.0170405347408773e+01 9.9176327233103798e+00 9.6677445066385967e+00 
9.4211218481370906e+00 9.1781541818109336e+00 8.9392386146103373e+00 8.7047792329361453e+00 
8.4751863208563236e+00 8.2508754850168451e+00 8.0322666813071013e+00 7.8197831383310339e+00 
7.6138501729505874e+00 7.4148938933404196e+00 7.2233397851929064e+00 7.0396111770719161e+00 
6.8641275813298792e+00 6.6973029073856791e+00 6.5395435447624601e+00 6.3912463139871676e+00 
6.2527962841318798e+00 6.1245644566897379e+00 6.0069053164965043e+00 5.9001542515224532e+00 
5.8046248446208137e+00 5.7206060417619788e+00 5.6483592028825447e+00 5.5881150432022633e+00 
5.5400704747940930e+00 5.5043853603204456e+00 5.4811791931320277e+00 5.4705277203648670e+00 
5.4724595283988702e+00 5.4869526128586470e+00 5.5139309583545577e+00 5.5532611563734786e+00 
5.6047490930624893e+00 5.6681367421603843e+00 5.7430991018897410e+00 5.8292413182772336e+00 
5.9260960411035741e+00 6.0331210623381173e+00 6.1496972904995779e+00 6.2751271178848596e+00 
6.4086332408092233e+00 6.5493579959240442e+00 6.6963632781925613e+00 6.8486311080581652e+00 
7.0050649166525973e+00 7.1644916183909872e+00 7.3256645398622391e+00 7.4872672723828719e+00 
7.6479185127440399e+00 7.8061779524368777e+00 7.9605532697580248e+00 8.1095082715116433e+00 
8.2514722214602081e+00 8.3848503809236945e+00 8.5080357730036233e+00 8.6194221656639503e+00 
8.7174182501874533e+00 8.8004629704504183e+00 8.8670419349367577e+00 8.9157048175623572e+00 
8.9450836253756361e+00 8.9539116812333912e+00 8.9410431379600421e+00 8.9054728076864063e+00 
8.8463560565334376e+00 8.7630284811769190e+00 8.6550250508032018e+00 8.5220983663640304e+00 
8.3642356597959768e+00 8.1816741299650708e+00 7.9749141906731316e+00 7.7447301902474344e+00 
7.4921781532592950e+00 7.2186000940692914e+00 6.9256229030508285e+00 6.6151605604027921e+00 
6.2893967750195259e+00 5.9507771154085329e+00 5.6019887401816089e+00 5.2459359604174418e+00 
4.8857101238332961e+00 4.5245537823976871e+00 4.1658192330171362e+00 3.8129216290353587e+00 
3.4692870195773762e+00 3.1382958092958075e+00 2.8232222989208897e+00 2.5271711202747413e+00 
2.2530115520635912e+00 2.0033108664739872e+00 1.7802680016691776e+00 1.5856490331074136e+00 
1.4207260246118454e+00 1.2862209895436347e+00 1.1822567784169937e+00 1.1083167984992939e+00 
1.0632155088939212e+00 1.0450816484689283e+00 1.0513561036750663e+00 1.0788062243283281e+00 
1.1235582103405326e+00 1.1811489283604428e+00 1.2465981405228725e+00 1.3145016440518327e+00 
1.3791452127978256e+00 1.4346384971111996e+00 1.4750671924229830e+00 1.4946608436291924e+00 
1.4879726254908916e+00 1.4500664037053159e+00 1.3767053470714095e+00 1.2645354219992275e+00 
1.1112563101706905e+00 9.1577172572266297e-01 6.7831083516969837e-01 4.0051257674039936e-01 
8.5465171962634687e-02 -2.6230592363705002e-01 -6.3690698856479899e-01 -1.0312054194839693e+00 
-1.4370207852283039e+00 -1.8453762040876447e+00 -2.2468058561573012e+00 -2.6317114449146533e+00 
-2.9907573883470340e+00 -3.3152915482684326e+00 -3.5977755212672644e+00 -3.8322059795850882e+00 
-4.0145063997651764e+00 -4.1428668241206816e+00 -4.2180082402410211e+00 -4.2433479386531836e+00 
-4.2250431334074028e+00 -4.1718925885454041e+00 -4.0950804175044020e+00 -4.0077529902706601e+00 
-3.9244291782152816e+00 -3.8602558741390847e+00 -3.8301342887791727e+00 -3.8477569716114632e+00 
-3.9246094731742835e+00 -4.0690024839602881e+00 -4.2852085480859010e+00 -4.5727806538567011e+00 
-4.9261271314528949e+00 -5.3344078589072117e+00 -5.7818009529256233e+00 -6.2481675910592962e+00 
-6.7101164906037276e+00 -7.1424400416138250e+00 -7.5198621763347075e+00 -7.8190045871465852e+00 
-8.0204439749208429e+00 -8.1107009175949951e+00 -8.0839750984434726e+00 -7.9434285316936455e+00 
-7.7018250978848988e+00 -7.3813660028762582e+00 -7.0126389904648727e+00 -6.6325192194017397e+00 
-6.2814338201930981e+00 -5.9997353761393635e+00 -5.8236594670635906e+00 -5.7813394728305987e+00 
-5.8891366402092844e+00 -6.1488480036991433e+00 -6.5462212440536733e+00 -7.0511270330981368e+00 
-7.6195796869452392e+00 -8.1975817922158623e+00 -8.7265546674250984e+00 -9.1496085978546482e+00 
-9.4202705732282954e+00 -9.4905906118306103e+00 -9.3779718535344792e+00 -9.2541758982367455e+00 
-9.1335073052404638e+00 -9.0144262744733421e+00 -8.8970054291668923e+00 -8.7811722508055166e+00 
-8.6668909185511431e+00 -8.5541547469632508e+00 -8.4429922783360247e+00 -8.3334665324354162e+00 
-8.2256690250664199e+00 -8.1197084118688299e+00 -8.0156944484156778e+00 -7.9137187318073021e+00 
-7.8138344900154548e+00 -7.7160382604511959e+00 -7.6202564330101685e+00 -7.5263392188186033e+00 
-7.4340636953329211e+00 -7.3431463709511675e+00 -7.2532644640068291e+00 -7.1640840119059312e+00 
-7.0752921167143255e+00 -6.9866300920529243e+00 -6.8979239746991139e+00 -6.8091088011056522e+00 
-6.7202432460697628e+00 -6.6315116752768244e+00 -6.5432113354522174e+00 -6.4557233391501123e+00 
-6.3694675621549797e+00 -6.2848786000624113e+00 -6.2023518016445083e+00 -6.1218557113463490e+00 
-6.0428413876760061e+00 -5.9648973094711115e+00 -5.8879491976974458e+00 -5.8119850286070580e+00 
-5.7369929150597816e+00 -5.6629610942836219e+00 -5.5898779188841141e+00 -5.5177318503604207e+00 
-5.4465114545408797e+00 -5.3762053987285183e+00 -5.3068024499679325e+00 -5.2382914743031339e+00 
-5.1706614368029857e+00 -5.1039014020031885e+00 -5.0380005347580878e+00 -4.9729481013308146e+00 
-4.9087334705617405e+00 -4.8453461151191402e+00 -4.7827756127187095e+00 -4.7210116472836097e+00 
-4.6600440100095462e+00 -4.5998626003108036e+00 -4.5404574266319448e+00 -4.4818186071161268e+00 
-4.4239363701262420e+00 -4.3668010546187297e+00 -4.3104031103724809e+00 -4.2547330980787272e+00 
-4.1997816892978799e+00 -4.1455396662912349e+00 -4.0919979217363265e+00 -4.0391474583341456e+00 
-3.9869793883176388e+00 -3.9354849328702599e+00 -3.8846554214630329e+00 -3.8344822911189196e+00 
-3.7849570856120414e+00 -3.7360714546096747e+00 -3.6878171527640076e+00 -3.6401860387601852e+00 
-3.5931700743268262e+00 -3.5467613232147617e+00 -3.5009519501489912e+00 -3.4557342197586931e+00 
-3.4111004954894510e+00 -3.3670432385017497e+00 -3.3235550065589963e+00 -3.2806284529082581e+00 
-3.2382563251566290e+00 -3.1964314641454608e+00 -3.1551468028247855e+00 -3.1143953651298126e+00 
-3.0741702648611788e+00 -3.0344647045703557e+00 -2.9952719744516538e+00 -2.9565854512416450e+00 
-2.9183985971271902e+00 -2.8807049586626987e+00 -2.8434981656973939e+00 -2.8067719303129417e+00 
-2.7705200457721415e+00 -2.7347363854788869e+00 -2.6994149019495657e+00 -2.6645496257964130e+00 
-2.6301346647226369e+00 -2.5961642025296490e+00 -2.5626324981362600e+00 -2.5295338846100863e+00 
-2.4968627682108724e+00 -2.4646136274459138e+00 -2.4327810121373759e+00 -2.4013595425014991e+00 
-2.3703439082395192e+00 -2.3397288676402845e+00 -2.3095092466943297e+00 -2.2796799382194233e+00 
-2.2502359009973465e+00 -2.2211721589217954e+00 -2.1924838001572953e+00 -2.1641659763090133e+00 
-2.1362139016032304e+00 -2.1086228520784940e+00 -2.0813881647871582e+00 -2.0545052370072656e+00 
-2.0279695254646590e+00 -2.0017765455650802e+00 -1.9759218706362902e+00 -1.9504011311798888e+00 
-1.9252100141328998e+00 -1.9003442621388480e+00 -1.8757996728282873e+00 -1.8515720981085799e+00 
-1.8276574434629391e+00 -1.8040516672584588e+00 -1.7807507800631035e+00 -1.7577508439715590e+00 
-1.7350479719397109e+00 -1.7126383271278314e+00 -1.6905181222521448e+00 -1.6686836189448098e+00 
-1.6471311271221989e+00 -1.6258570043612750e+00 -1.6048576552840232e+00 -1.5841295309499070e+00 
-1.5636691282560700e+00 -1.5434729893453187e+00 -1.5235377010217848e+00 -1.5038598941740629e+00 
-1.4844362432058307e+00 -1.4652634654738523e+00 -1.4463383207331524e+00 -1.4276576105894363e+00 
-1.4092181779585493e+00 -1.3910169065328934e+00 -1.3730507202547655e+00 -1.3553165827964977e+00 
-1.3378114970472901e+00 -1.3205325046066594e+00 -1.3034766852845001e+00 -1.2866411566075209e+00 
-1.2700230733320899e+00 -1.2536196269633932e+00 -1.2374280452807578e+00 -1.2214455918691698e+00 
-1.2056695656567566e+00 -1.1900973004583371e+00 -1.1747261645248037e+00 -1.1595535600983524e+00 
-1.1445769229734626e+00 -1.1297937220634982e+00 -1.1152014589730079e+00 -1.1007976675754234e+00 
-1.0865799135963308e+00 -1.0725457942020495e+00 -1.0586929375935219e+00 -1.0450190026055399e+00 
-1.0315216783110197e+00 -1.0181986836304719e+00 -1.0050477669464921e+00 -9.9206670572325351e-01 
-9.7925330613087358e-01 -9.6660540267464656e-01 -9.5412085782909439e-01 -9.4179756167670547e-01 
-9.2963343155135014e-01 -9.1762641168633674e-01 -9.0577447286693602e-01 -8.9407561208746800e-01 
-8.8252785221280905e-01 -8.7112924164421568e-01 -8.5987785398950844e-01 -8.4877178773754536e-01 
-8.3780916593680288e-01 -8.2698813587822884e-01 -8.1630686878207936e-01 -8.0576355948888312e-01 
-7.9535642615435398e-01 -7.8508370994826493e-01 -7.7494367475718684e-01 -7.6493460689109327e-01 
-7.5505481479375058e-01 -7.4530262875681930e-01 -7.3567640063768636e-01 -7.2617450358093305e-01 
-7.1679533174337950e-01 -7.0753730002267301e-01 -6.9839884378945460e-01 -6.8937841862289062e-01 
-6.8047450004967613e-01 -6.7168558328640193e-01 -6.6301018298523462e-01 -6.5444683298288797e-01 
-6.4599408605283215e-01 -6.3765051366074432e-01 -6.2941470572303382e-01 -6.2128527036856995e-01 
-6.1326083370342332e-01 -6.0534003957872662e-01 -5.9752154936141699e-01 -5.8980404170804190e-01 
-5.8218621234144496e-01 -5.7466677383034270e-01 -5.6724445537173218e-01 -5.5991800257612079e-01 
-5.5268617725557101e-01 -5.4554775721438320e-01 -5.3850153604258488e-01 -5.3154632291202930e-01 
-5.2468094237515039e-01 -5.1790423416628950e-01 -5.1121505300564207e-01 -5.0461226840566620e-01 
-4.9809476448006151e-01 -4.9166143975514132e-01 -4.8531120698372121e-01 -4.7904299296135450e-01 
-4.7285573834494449e-01 -4.6674839747374719e-01 -4.6071993819260187e-01 -4.5476934167757060e-01 
-4.4889560226365399e-01 -4.4309772727492652e-01 -4.3737473685671774e-01 -4.3172566381002742e-01 
-4.2614955342805522e-01 -4.2064546333487857e-01 -4.1521246332617878e-01 -4.0984963521202022e-01 
-4.0455607266168686e-01 -3.9933088105051762e-01 -3.9417317730868195e-01 -3.8908208977197700e-01 
-3.8405675803449230e-01 -3.7909633280319366e-01 -3.7419997575443925e-01 -3.6936685939220604e-01 
-3.6459616690833624e-01 -3.5988709204444563e-01 -3.5523883895567526e-01 -3.5065062207618697e-01 
-3.4612166598641320e-01 -3.4165120528199061e-01 -3.3723848444442439e-01 -3.3288275771338266e-01 
-3.2858328896069144e-01 -3.2433935156594618e-01 -3.2015022829351297e-01 -3.1601521117165088e-01 
-3.1193360137261789e-01 -3.0790470909465739e-01 -3.0392785344536954e-01 -3.0000236232669630e-01 
-2.9612757232129000e-01 -2.9230282858041468e-01 -2.8852748471328127e-01 -2.8480090267778935e-01 
-2.8112245267270286e-01 -2.7749151303121666e-01 -2.7390747011588940e-01 -2.7036971821493794e-01 
-2.6687765943987046e-01 -2.6343070362444349e-01 -2.6002826822491959e-01 -2.5666977822161802e-01 
-2.5335466602173495e-01 -2.5008237136341815e-01 -2.4685234122108191e-01 -2.4366402971194456e-01 
-2.4051689800377249e-01 -2.3741041422381648e-01 -2.3434405336892411e-01 -2.3131729721681257e-01 
-2.2832963423848823e-01 -2.2538055951179686e-01 -2.2246957463609046e-01 -2.1959618764799732e-01 
-2.1675991293827623e-01 -2.1396027116975086e-01 -2.1119678919629975e-01 -2.0846899998289156e-01 
-2.0577644252665683e-01 -2.0311866177897706e-01 -2.0049520856857994e-01 -1.9790563952562892e-01 
-1.9534951700679223e-01 -1.9282640902128051e-01 -1.9033588915783886e-01 -1.8787753651268274e-01 
-1.8545093561836393e-01 -1.8305567637355585e-01 -1.8069135397374506e-01 -1.7835756884281878e-01 
-1.7605392656553473e-01 -1.7378003782086610e-01 -1.7153551831620245e-01 -1.6931998872240517e-01 
-1.6713307460970012e-01 -1.6497440638439706e-01 -1.6284361922642801e-01 -1.6074035302769177e-01 
-1.5866425233119485e-01 -1.5661496627097812e-01 -1.5459214851281997e-01 -1.5259545719570472e-01 
-1.5062455487404755e-01 -1.4867910846066507e-01 -1.4675878917048313e-01 -1.4486327246497108e-01 
-1.4299223799729424e-01 -1.4114536955817431e-01 -1.3932235502244930e-01 -1.3752288629632384e-01 
-1.3574665926530016e-01 -1.3399337374278231e-01 -1.3226273341934439e-01 -1.3055444581265246e-01 
-1.2886822221803507e-01 -1.2720377765969137e-01 -1.2556083084252945e-01 -1.2393910410462683e-01 
-1.2233832337030499e-01 -1.2075821810380973e-01 -1.1919852126359028e-01 -1.1765896925716836e-01 
-1.1613930189659068e-01 -1.1463926235445623e-01 -1.1315859712051228e-01 -1.1169705595881008e-01 
-1.1025439186541471e-01 -1.0883036102666074e-01 -1.0742472277794704e-01 -1.0603723956306385e-01 
-1.0466767689404592e-01 -1.0331580331154225e-01 -1.0198139034569986e-01 -1.0066421247755146e-01 
-9.9364047100902339e-02 -9.8080674484709307e-02 -9.6813877735945700e-02 -9.5563442762945844e-02 
-9.4329158239223165e-02 -9.3110815567755439e-02 -9.1908208845731421e-02 -9.0721134829752761e-02 
-8.9549392901485406e-02 -8.8392785033754598e-02 -8.7251115757077863e-02 -8.6124192126630222e-02 
-8.5011823689635849e-02 -8.3913822453181255e-02 -8.2830002852444434e-02 -8.1760181719333067e-02 
-8.0704178251529410e-02 -7.9661813981934032e-02 -7.8632912748504410e-02 -7.7617300664483219e-02 
-7.6614806089011014e-02 -7.5625259598118513e-02 -7.4648493956093534e-02 -7.3684344087217746e-02 
-7.2732647047868582e-02 -7.1793241998981239e-02 -7.0865970178866589e-02 -6.9950674876380028e-02 
-6.9047201404436945e-02 -6.8155397073870236e-02 
</PP_LOCAL>


<PP_NONLOCAL>
  <PP_BETA>
  1  1      Beta    L
  1121  
 -3.0111695355334227e-07  -3.0904865734372732e-07  -3.1718928960858667e-07  -3.2554435371535586e-07 
 -3.3411949799502845e-07  -3.4292051956061377e-07  -3.5195336822617772e-07  -3.6122415052911096e-07 
 -3.7073913385834658e-07  -3.8050475069132100e-07  -3.9052760294253446e-07  -4.0081446642665950e-07 
 -4.1137229543920762e-07  -4.2220822745785444e-07  -4.3332958796760328e-07  -4.4474389541304190e-07 
 -4.5645886628104745e-07  -4.6848242031737193e-07  -4.8082268588063732e-07  -4.9348800543735574e-07 
 -5.0648694120169199e-07  -5.1982828092378183e-07  -5.3352104383051618e-07  -5.4757448672281085e-07 
 -5.6199811023347839e-07  -5.7680166524993690e-07  -5.9199515950609818e-07  -6.0758886434788687e-07 
 -6.2359332167696659e-07  -6.4001935107736874e-07  -6.5687805712983790e-07  -6.7418083691884375e-07 
 -6.9193938773732422e-07  -7.1016571499438431e-07  -7.2887214033127551e-07  -7.4807130995116282e-07 
 -7.6777620316829597e-07  -7.8800014118237085e-07  -8.0875679608400700e-07  -8.3006020009743774e-07 
 -8.5192475506665118e-07  -8.7436524219139807e-07  -8.9739683201965648e-07  -9.2103509470328901e-07 
 -9.4529601052384425e-07  -9.7019598069560852e-07  -9.9575183845321075e-07  -1.0219808604312759e-06 
 -1.0489007783438267e-06  -1.0765297909713086e-06  -1.1048865764633753e-06  -1.1339903049657017e-06 
 -1.1638606515794219e-06  -1.1945178096618871e-06  -1.2259825044777912e-06  -1.2582760072098475e-06 
 -1.2914201493385211e-06  -1.3254373374005118e-06  -1.3603505681359829e-06  -1.3961834440347520e-06 
 -1.4329601892919900e-06  -1.4707056661841648e-06  -1.5094453918763406e-06  -1.5492055556721700e-06 
 -1.5900130367182533e-06  -1.6318954221748123e-06  -1.6748810258649942e-06  -1.7189989074153662e-06 
 -1.7642788919005891e-06  -1.8107515900055021e-06  -1.8584484187182754e-06  -1.9074016225686127e-06 
 -1.9576442954253545e-06  -2.0092104028682160e-06  -2.0621348051487852e-06  -2.1164532807562868e-06 
 -2.1722025506040796e-06  -2.2294203028531726e-06  -2.2881452183895950e-06  -2.3484169969728238e-06 
 -2.4102763840729151e-06  -2.4737651984145050e-06  -2.5389263602463352e-06  -2.6058039203552837e-06 
 -2.6744430898446821e-06  -2.7448902706969055e-06  -2.8171930871409559e-06  -2.8914004178462356e-06 
 -2.9675624289642617e-06  -3.0457306080406432e-06  -3.1259577988202551e-06  -3.2082982369691499e-06 
 -3.2928075867372823e-06  -3.3795429785869276e-06  -3.4685630478121081e-06  -3.5599279741752473e-06 
 -3.6536995225877244e-06  -3.7499410848619232e-06  -3.8487177225629167e-06  -3.9500962109887899e-06 
 -4.0541450843093122e-06  -4.1609346818934327e-06  -4.2705371958570004e-06  -4.3830267198626932e-06 
 -4.4984792992052799e-06  -4.6169729822159939e-06  -4.7385878730206864e-06  -4.8634061856876118e-06 
 -4.9915122998011884e-06  -5.1229928174994822e-06  -5.2579366220138661e-06  -5.3964349377503963e-06 
 -5.5385813919535920e-06  -5.6844720779941708e-06  -5.8342056203236077e-06  -5.9878832411393441e-06 
 -6.1456088288057057e-06  -6.3074890080767404e-06  -6.4736332121685239e-06  -6.6441537567294481e-06 
 -6.8191659157586467e-06  -6.9987879995237645e-06  -7.1831414345307060e-06  -7.3723508455994090e-06 
 -7.5665441401011382e-06  -7.7658525944141392e-06  -7.9704109426560974e-06  -8.1803574677533295e-06 
 -8.3958340949082526e-06  -8.6169864875282822e-06  -8.8439641456808834e-06  -9.0769205071413743e-06 
 -9.3160130511017272e-06  -9.5614034046103539e-06  -9.8132574518148707e-06  -1.0071745446081503e-05 
 -1.0337042125067050e-05  -1.0609326828820888e-05  -1.0888783620997054e-05  -1.1175601413258010e-05 
 -1.1469974092954315e-05  -1.1772100654166300e-05  -1.2082185332196312e-05  -1.2400437741602441e-05 
 -1.2727073017866562e-05  -1.3062311962793032e-05  -1.3406381193735455e-05  -1.3759513296752968e-05 
 -1.4121946983798902e-05  -1.4493927254048409e-05  -1.4875705559473616e-05  -1.5267539974778403e-05 
 -1.5669695371807216e-05  -1.6082443598546022e-05  -1.6506063662835953e-05  -1.6940841920923769e-05 
 -1.7387072270976396e-05  -1.7845056351690305e-05  -1.8315103746129573e-05  -1.8797532190930251e-05 
 -1.9292667791012433e-05  -1.9800845239944676e-05  -2.0322408046109725e-05  -2.0857708764823945e-05 
 -2.1407109236567305e-05  -2.1970980831484389e-05  -2.2549704700321907e-05  -2.3143672031971320e-05 
 -2.3753284317791049e-05  -2.4378953622886043e-05  -2.5021102864527934e-05  -2.5680166097903821e-05 
 -2.6356588809385848e-05  -2.7050828217519997e-05  -2.7763353581936609e-05  -2.8494646520391512e-05 
 -2.9245201334150793e-05  -3.0015525341939414e-05  -3.0806139222678399e-05  -3.1617577367241506e-05 
 -3.2450388239469296e-05  -3.3305134746683016e-05  -3.4182394619948771e-05  -3.5082760804347711e-05 
 -3.6006841859516086e-05  -3.6955262370724126e-05  -3.7928663370771455e-05  -3.8927702772982924e-05 
 -3.9953055815596979e-05  -4.1005415517845525e-05  -4.2085493148032814e-05  -4.3194018703928489e-05 
 -4.4331741405798265e-05  -4.5499430202404732e-05  -4.6697874290318145e-05  -4.7927883646887721e-05 
 -4.9190289577231756e-05  -5.0485945275614635e-05  -5.1815726401589512e-05  -5.3180531671292877e-05 
 -5.4581283464290409e-05  -5.6018928446381169e-05  -5.7494438208780198e-05  -5.9008809924108922e-05 
 -6.0563067019634033e-05  -6.2158259868208763e-05  -6.3795466497380433e-05  -6.5475793317140989e-05 
 -6.7200375866809499e-05  -6.8970379581549405e-05  -7.0787000579034892e-05  -7.2651466466795047e-05 
 -7.4565037170778176e-05  -7.6529005785693104e-05  -7.8544699447697866e-05  -8.0613480230022112e-05 
 -8.2736746062124990e-05  -8.4915931673004149e-05  -8.7152509559289710e-05  -8.9447990978772443e-05 
 -9.1803926970033801e-05  -9.4221909398858550e-05  -9.6703572032135092e-05  -9.9250591639961618e-05 
 -1.0186468912669585e-04  -1.0454763069170894e-04  -1.0730122902061819e-04  -1.1012734450779822e-04 
 -1.1302788651098818e-04  -1.1600481463883596e-04  -1.1906014007223918e-04  -1.2219592692036898e-04 
 -1.2541429361228224e-04  -1.2871741432505295e-04  -1.3210752044937816e-04  -1.3558690209363700e-04 
 -1.3915790962740798e-04  -1.4282295526547403e-04  -1.4658451469337736e-04  -1.5044512873560169e-04 
 -1.5440740506750218e-04  -1.5847401997211955e-04  -1.6264772014305186e-04  -1.6693132453458661e-04 
 -1.7132772626032275e-04  -1.7583989454154932e-04  -1.8047087670667670e-04  -1.8522380024305139e-04 
 -1.9010187490251919e-04  -1.9510839486213530e-04  -2.0024674094145883e-04  -2.0552038287790212e-04 
 -2.1093288166165134e-04  -2.1648789193169979e-04  -2.2218916443458720e-04  -2.2804054854747718e-04 
 -2.3404599486724100e-04  -2.4020955786726347e-04  -2.4653539862372868e-04  -2.5302778761319159e-04 
 -2.5969110758328163e-04  -2.6652985649843684e-04  -2.7354865056261406e-04  -2.8075222732096755e-04 
 -2.8814544884254550e-04  -2.9573330498609617e-04  -3.0352091675114147e-04  -3.1151353971651608e-04 
 -3.1971656756863928e-04  -3.2813553572183529e-04  -3.3677612503307862e-04  -3.4564416561360680e-04 
 -3.5474564073989013e-04  -3.6408669086653088e-04  -3.7367361774371120e-04  -3.8351288864188720e-04 
 -3.9361114068648328e-04  -4.0397518530542242e-04  -4.1461201279239081e-04  -4.2552879698880887e-04 
 -4.3673290008755511e-04  -4.4823187756156996e-04  -4.6003348322053720e-04  -4.7214567439892504e-04 
 -4.8457661727875075e-04  -4.9733469235050992e-04  -5.1042850001580648e-04  -5.2386686633529723e-04 
 -5.3765884892566576e-04  -5.5181374300941339e-04  -5.6634108762136572e-04  -5.8125067197588364e-04 
 -5.9655254199886265e-04  -6.1225700702869908e-04  -6.2837464669051961e-04  -6.4491631794805757e-04 
 -6.6189316233767747e-04  -6.7931661338915372e-04  -6.9719840423791430e-04  -7.1555057543359435e-04 
 -7.3438548294982721e-04  -7.5371580640036138e-04  -7.7355455746666167e-04  -7.9391508854233424e-04 
 -8.1481110159978797e-04  -8.3625665728469852e-04  -8.5826618424399799e-04  -8.8085448869317472e-04 
 -9.0403676422888080e-04  -9.2782860189295161e-04  -9.5224600049406509e-04  -9.7730537719344199e-04 
 -1.0030235783611452e-03  -1.0294178907096295e-03  -1.0565060527114158e-03  -1.0843062663078735e-03 
 -1.1128372089162671e-03  -1.1421180457423989e-03  -1.1721684424063081e-03  -1.2030085778886956e-03 
 -1.2346591578058824e-03  -1.2671414280212986e-03  -1.3004771886016822e-03  -1.3346888081262980e-03 
 -1.3697992383577516e-03  -1.4058320292830752e-03  -1.4428113445339916e-03  -1.4807619771954629e-03 
 -1.5197093660117714e-03  -1.5596796119996153e-03  -1.6006994954779305e-03  -1.6427964935242349e-03 
 -1.6859987978676350e-03  -1.7303353332287176e-03  -1.7758357761168649e-03  -1.8225305740956236e-03 
 -1.8704509655270633e-03  -1.9196289998062465e-03  -1.9700975580971007e-03  -2.0218903745812746e-03 
 -2.0750420582316908e-03  -2.1295881151228262e-03  -2.1855649712898620e-03  -2.2430099961491617e-03 
 -2.3019615264926693e-03  -2.3624588910691321e-03  -2.4245424357651727e-03  -2.4882535493995360e-03 
 -2.5536346901440243e-03  -2.6207294125848435e-03  -2.6895823954383026e-03  -2.7602394699350586e-03 
 -2.8327476488872530e-03  -2.9071551564531515e-03  -2.9835114586140702e-03  -3.0618672943786003e-03 
 -3.1422747077292888e-03  -3.2247870803272533e-03  -3.3094591649902301e-03  -3.3963471199598360e-03 
 -3.4855085439740542e-03  -3.5770025121609618e-03  -3.6708896127700609e-03  -3.7672319847575366e-03 
 -3.8660933562421340e-03  -3.9675390838482269e-03  -4.0716361929530086e-03  -4.1784534188546198e-03 
 -4.2880612488782931e-03  -4.4005319654376058e-03  -4.5159396900679378e-03  -4.6343604284493885e-03 
 -4.7558721164362872e-03  -4.8805546671106103e-03  -5.0084900188763588e-03  -5.1397621846122152e-03 
 -5.2744573018993698e-03  -5.4126636843416153e-03  -5.5544718739944984e-03  -5.6999746949202186e-03 
 -5.8492673078847689e-03  -6.0024472662135843e-03  -6.1596145728215965e-03  -6.3208717384334910e-03 
 -6.4863238410094387e-03  -6.6560785863911450e-03  -6.8302463701827550e-03  -7.0089403408805607e-03 
 -7.1922764642649052e-03  -7.3803735890669965e-03  -7.5733535139228926e-03  -7.7713410556257741e-03 
 -7.9744641186871666e-03  -8.1828537662168386e-03  -8.3966442921298273e-03  -8.6159732946882641e-03 
 -8.8409817513845721e-03  -9.0718140951711584e-03  -9.3086182920404693e-03  -9.5515459199579551e-03 
 -9.8007522491488364e-03  -1.0056396323737704e-02  -1.0318641044738961e-02  -1.0587653254393013e-02 
 -1.0863603821842212e-02  -1.1146667730137736e-02  -1.1437024164566420e-02  -1.1734856602284183e-02 
 -1.2040352903239855e-02  -1.2353705402370681e-02  -1.2675111003047367e-02  -1.3004771271744018e-02 
 -1.3342892533904300e-02  -1.3689685970971782e-02  -1.4045367718549235e-02  -1.4410158965646565e-02 
 -1.4784286054973901e-02  -1.5167980584231249e-02  -1.5561479508341750e-02  -1.5965025242570319e-02 
 -1.6378865766464568e-02  -1.6803254728549211e-02  -1.7238451551699039e-02  -1.7684721539110378e-02 
 -1.8142335980783207e-02  -1.8611572260420758e-02  -1.9092713962645266e-02  -1.9586050980421571e-02 
 -2.0091879622572851e-02  -2.0610502721263822e-02  -2.1142229739319066e-02  -2.1687376877234481e-02 
 -2.2246267179731532e-02  -2.2819230641693136e-02  -2.3406604313310871e-02  -2.4008732404262188e-02 
 -2.4625966386725578e-02  -2.5258665097029891e-02  -2.5907194835722690e-02  -2.6571929465829987e-02 
 -2.7253250509066625e-02  -2.7951547239744141e-02  -2.8667216776108870e-02  -2.9400664168828618e-02 
 -3.0152302486332470e-02  -3.0922552896693184e-02  -3.1711844745724964e-02  -3.2520615630956054e-02 
 -3.3349311471116673e-02  -3.4198386570768256e-02  -3.5068303679681799e-02  -3.5959534046556198e-02 
 -3.6872557466650392e-02  -3.7807862322883974e-02  -3.8765945619944057e-02  -3.9747313010917100e-02 
 -4.0752478815947291e-02  -4.1781966032402217e-02  -4.2836306336011022e-02  -4.3916040072419817e-02 
 -4.5021716238592073e-02  -4.6153892453463560e-02  -4.7313134917244169e-02  -4.8500018358742326e-02 
 -4.9715125970069780e-02  -5.0959049328073554e-02  -5.2232388301822016e-02  -5.3535750945463166e-02 
 -5.4869753375759639e-02  -5.6235019633595701e-02  -5.7632181528742735e-02  -5.9061878467164076e-02 
 -6.0524757260137570e-02  -6.2021471914471042e-02  -6.3552683403091184e-02  -6.5119059415291364e-02 
 -6.6721274085931898e-02  -6.8360007702904707e-02  -7.0035946392189810e-02  -7.1749781779857996e-02 
 -7.3502210630403783e-02  -7.5293934460831588e-02  -7.7125659129959223e-02  -7.8998094402461513e-02 
 -8.0911953487230098e-02  -8.2867952549705873e-02  -8.4866810197912354e-02  -8.6909246942019777e-02 
 -8.8995984627369226e-02  -9.1127745841006066e-02  -9.3305253291909446e-02  -9.5529229165244922e-02 
 -9.7800394451146563e-02  -1.0011946824870581e-01  -1.0248716704605912e-01  -1.0490420397769003e-01 
 -1.0737128806030777e-01  -1.0988912340894441e-01  -1.1245840843520655e-01  -1.1507983502995346e-01 
 -1.1775408773302769e-01  -1.2048184289306267e-01  -1.2326376782080982e-01  -1.2610051993990107e-01 
 -1.2899274593945886e-01  -1.3194108093351342e-01  -1.3494614763277310e-01  -1.3800855553493233e-01 
 -1.4112890014038210e-01  -1.4430776220092478e-01  -1.4754570700989006e-01  -1.5084328374288677e-01 
 -1.5420102485934284e-01  -1.5761944557594817e-01  -1.6109904342415465e-01  -1.6464029790498577e-01 
 -1.6824367025558559e-01  -1.7190960334317687e-01  -1.7563852170342018e-01  -1.7943083174156421e-01 
 -1.8328692211624273e-01  -1.8720716432733900e-01  -1.9119191353095738e-01  -1.9524150960627262e-01 
 -1.9935627850080354e-01  -2.0353653388254786e-01  -2.0778257912935777e-01  -2.1209470968796382e-01 
 -2.1647321583716647e-01  -2.2091838589186374e-01  -2.2543050988683588e-01  -2.3000988378147663e-01 
 -2.3465681422900728e-01  -2.3937162395606773e-01  -2.4415465780098189e-01  -2.4900628946139042e-01 
 -2.5392692900434138e-01  -2.5891703119430182e-01  -2.6397710469686414e-01  -2.6910772221817381e-01 
 -2.7430953164223681e-01  -2.7958326823027774e-01  -2.8492976794813590e-01  -2.9034998198931655e-01 
 -2.9584499256264496e-01  -3.0141603001453221e-01  -3.0706449135651287e-01  -3.1279196026895340e-01 
 -3.1860022865156168e-01  -3.2449131979048446e-01  -3.3046751321025242e-01  -3.3653137127658800e-01 
 -3.4268576761295377e-01  -3.4893391738965263e-01  -3.5527940953912562e-01  -3.6172624094475131e-01 
 -3.6827885264274468e-01  -3.7494216806759878e-01  -3.8172163336070908e-01  -3.8862325974924405e-01 
 -3.9565366798776380e-01  -4.0282013483843015e-01  -4.1013064154662227e-01  -4.1759392424726899e-01 
 -4.2521952621297454e-01  -4.3301785182784364e-01  -4.4100022214067774e-01  -4.4917893181758178e-01 
 -4.5756730727692241e-01  -4.6617976574871850e-01  -4.7503187495577898e-01  -4.8414041306507344e-01 
 -4.9352342850472120e-01  -5.0320029918454889e-01  -5.1319179059624620e-01  -5.2352011220274175e-01 
 -5.3420897145546353e-01  -5.4528362470277136e-01  -5.5677092417309559e-01  -5.6869936013247158e-01 
 -5.8109909722851927e-01  -5.9400200394186531e-01  -6.0744167397218973e-01  -6.2145343829010491e-01 
 -6.3607436648895377e-01  -6.5134325597331011e-01  -6.6730060742483222e-01  -6.8398858489272074e-01 
 -7.0145095876708297e-01  -7.1973302981124032e-01  -7.3888153235561016e-01  -7.5894451469436042e-01 
 -7.7997119467923115e-01  -8.0201178847667975e-01  -8.2511731044835557e-01  -8.4933934213547557e-01 
 -8.7472976837929328e-01  -9.0134047869806377e-01  -9.2922303217085522e-01  -9.5842828425630711e-01 
 -9.8900597420620662e-01  -1.0210042720257273e+00  -1.0544692842913674e+00  -1.0894445185702657e+00 
 -1.1259703066975622e+00  -1.1640831877678692e+00  -1.2038152523888013e+00  -1.2451934505336928e+00 
 -1.2882388662215856e+00  -1.3329659632476658e+00  -1.3793818072879216e+00  -1.4274852709066579e+00 
 -1.4772662293010193e+00  -1.5287047560159388e+00  -1.5817703293458321e+00  -1.6364210616911348e+00 
 -1.6926029657394084e+00  -1.7502492729675989e+00  -1.8092798215843044e+00  -1.8696005326118801e+00 
 -1.9311029943053795e+00  -1.9936641764689353e+00  -2.0571462974041399e+00  -2.1213968671454557e+00 
 -2.1862489312363076e+00  -2.2515215394999801e+00  -2.3170204639824670e+00  -2.3825391894061494e+00 
 -2.4478601979883270e+00  -2.5127565682619140e+00  -2.5769939045046910e+00  -2.6403326094609474e+00 
 -2.7025305081576221e+00  -2.7633458247194511e+00  -2.8225405071354923e+00  -2.8798838869031780e+00 
 -2.9351566513816714e+00  -2.9881550965590913e+00  -3.0386956168463399e+00  -3.0866193765609760e+00 
 -3.1317970951059029e+00  -3.1741338646739825e+00  -3.2135737230343304e+00  -3.2501049459256266e+00 
 -3.2837633188199447e+00  -3.3146366629847681e+00  -3.3428679784032629e+00  -3.3686580218606821e+00 
 -3.3922670019166667e+00  -3.4140152255442811e+00  -3.4342825326412307e+00  -3.4535063559674612e+00 
 -3.4721782557627661e+00  -3.4908387912972243e+00  -3.5100706146278497e+00  -3.5304896994168002e+00 
 -3.5527346558390644e+00  -3.5774541283910790e+00  -3.6052923258780587e+00  -3.6368728012575540e+00 
 -3.6727806671266578e+00  -3.7135435187268566e+00  -3.7596114228327120e+00  -3.8113364281245503e+00 
 -3.8689521499618476e+00  -3.9325540828153280e+00  -4.0020813872279488e+00  -4.0773009848863895e+00 
 -4.1577948643375144e+00  -4.2429515480396729e+00  -4.3319626868075662e+00  -4.4238257254573732e+00 
 -4.5173535131837177e+00  -4.6111916055523299e+00  -4.7038438172767982e+00  -4.7937063346264432e+00 
 -4.8791103624059708e+00  -4.9583728739557866e+00  -5.0298546919605753e+00  -5.0920244517715840e+00 
 -5.1435266282195968e+00  -5.1832512119779839e+00  -5.2104021294364733e+00  -5.2245610519867336e+00 
 -5.2257428837611135e+00  -5.2144389969822571e+00  -5.1916442233947464e+00  -5.1588637629912517e+00 
 -5.1180965465496504e+00  -5.0717922272393334e+00  -5.0227798810899094e+00  -4.9741676783857525e+00 
 -4.9292142330217876e+00  -4.8911740307030804e+00  -4.8631212292304333e+00  -4.8477581653741328e+00 
 -4.8472169991057852e+00  -4.8628649703834448e+00  -4.8951255857553804e+00  -4.9433295142330262e+00 
 -5.0056098403418607e+00  -5.0788563611208488e+00  -5.1587425807950229e+00  -5.2398367223567215e+00 
 -5.3158042746659477e+00  -5.3797042477931436e+00  -5.4243744971048757e+00  -5.4428934539160503e+00 
 -5.4290968463131213e+00  -5.3781191964259278e+00  -5.2869219174191979e+00  -5.1547636900299665e+00 
 -4.9835654702739260e+00  -4.7781228496673904e+00  -4.5461231902288555e+00  -4.2979342983325566e+00 
 -4.0461452807495162e+00  -3.8048581566644786e+00  -3.5887499195085244e+00  -3.4119479019362879e+00 
 -3.2867850801942420e+00  -3.2225246972655959e+00  -3.2241633112580983e+00  -3.2914357146257958e+00 
 -3.4181512871028783e+00  -3.5919860224748259e+00  -3.7948344227687056e+00  -4.0037880007942768e+00 
 -4.1927512192718837e+00  -4.3346330955279617e+00  -4.4039691214337555e+00  -4.3797436736472015e+00 
 -4.2481115305462103e+00  -4.0046739644975879e+00  -3.6559640353610932e+00  -3.2198457885501828e+00 
 -2.7246331011684295e+00  -2.2068791180444776e+00  -1.7079370432994472e+00  -1.2697415748196466e+00 
 -9.2870555501418028e-01  -7.2319961396541443e-01  -6.4754737769956516e-01  -5.8949867385162891e-01 
 -5.4168154975048588e-01  -5.0679796328238103e-01  -4.8544474376544683e-01  -4.7709706013663872e-01 
 -4.7988147432824502e-01  -4.9058040741407632e-01  -5.0474797540972605e-01  -5.1696200127277214e-01 
 -5.2121046674912330e-01  -5.1139813224517849e-01  -4.8194328222614713e-01  -4.2841875721590084e-01 
 -3.4817727411538013e-01  -2.4089066215562324e-01  -1.0892828866656154e-01  4.2496327062559500e-02 
 2.0546836792000400e-01  3.6983807958533171e-01  5.2401139024265675e-01  6.5602472849120619e-01 
 7.5481946112739340e-01  8.1158856194192264e-01  8.2103365337021528e-01  7.8235158372919356e-01 
 6.9977289100716356e-01  5.8250463645713613e-01  4.4399031180674081e-01  3.0047442706461103e-01 
 1.6906646287472535e-01  6.4610029003750194e-02  4.4570563064021086e-03  -4.4152616330471895e-04 
 4.3741863780553784e-05  -4.3334948144213474e-06  4.2931879578611879e-07  -4.2532830308776669e-08 
 4.2132746604245942e-09  -4.1625226087230861e-10  3.9409208177556507e-11  -2.1299976446879397e-12 
 -7.5276938532945604e-13  -1.6222305368951688e-12  1.0030473046242758e-12  4.7838791283010272e-14 
 -2.1307415215885589e-12  1.6520649766287959e-12  -1.1022405924463978e-12  3.4888488537720279e-13 
 -2.5470204489916191e-13  4.2224189354778030e-13  -7.1925766885410700e-13  9.9727822091989117e-14 
 7.8439489395800023e-13  -6.9315475617791942e-13  3.5267285594862538e-13  9.4118247823372464e-16 
 -5.4985768997746924e-14  -3.8458175078213306e-13  2.5011134795382507e-14  2.0121613317252901e-13 
 -1.3085701776268926e-12  1.1283076386225698e-12  -1.3014190189634218e-12  2.7657969683488118e-13 
 -8.7320921186938135e-15  3.8699984184101359e-13  -5.0343495575806254e-13  7.8147055452405968e-14 
 -3.2061266344785458e-13  2.1583659242826484e-13  -1.1266020263761964e-13  -4.6630626993245067e-13 
 4.1859967834910629e-13  -5.8039710357136953e-13  5.3086351584638464e-13  -5.0788774484337173e-14 
 6.1363110389195747e-14  1.2309372774939799e-13  -4.1223574404593630e-15  -1.8002672491257164e-13 
 2.8120520322270924e-14  0.0000000000000000e+00  0.0000000000000000e+00  0.0000000000000000e+00 
 0.0000000000000000e+00  0.0000000000000000e+00  0.0000000000000000e+00  0.0000000000000000e+00 
 0.0000000000000000e+00  0.0000000000000000e+00  0.0000000000000000e+00  0.0000000000000000e+00 
 0.0000000000000000e+00  0.0000000000000000e+00  0.0000000000000000e+00  0.0000000000000000e+00 
 0.0000000000000000e+00  0.0000000000000000e+00  0.0000000000000000e+00  0.0000000000000000e+00 
 0.0000000000000000e+00  0.0000000000000000e+00  0.0000000000000000e+00  0.0000000000000000e+00 
 0.0000000000000000e+00  0.0000000000000000e+00  0.0000000000000000e+00  0.0000000000000000e+00 
 0.0000000000000000e+00  0.0000000000000000e+00  0.0000000000000000e+00  0.0000000000000000e+00 
 0.0000000000000000e+00  0.0000000000000000e+00  0.0000000000000000e+00  0.0000000000000000e+00 
 0.0000000000000000e+00  0.0000000000000000e+00  0.0000000000000000e+00  0.0000000000000000e+00 
 0.0000000000000000e+00  0.0000000000000000e+00  0.0000000000000000e+00  0.0000000000000000e+00 
 0.0000000000000000e+00  0.0000000000000000e+00  0.0000000000000000e+00  0.0000000000000000e+00 
 0.0000000000000000e+00  0.0000000000000000e+00  0.0000000000000000e+00  0.0000000000000000e+00 
 0.0000000000000000e+00  0.0000000000000000e+00  0.0000000000000000e+00  0.0000000000000000e+00 
 0.0000000000000000e+00  0.0000000000000000e+00  0.0000000000000000e+00  0.0000000000000000e+00 
 0.0000000000000000e+00  0.0000000000000000e+00  0.0000000000000000e+00  0.0000000000000000e+00 
 0.0000000000000000e+00  0.0000000000000000e+00  0.0000000000000000e+00  0.0000000000000000e+00 
 0.0000000000000000e+00  0.0000000000000000e+00  0.0000000000000000e+00  0.0000000000000000e+00 
 0.0000000000000000e+00  0.0000000000000000e+00  0.0000000000000000e+00  0.0000000000000000e+00 
 0.0000000000000000e+00  0.0000000000000000e+00  0.0000000000000000e+00  0.0000000000000000e+00 
 0.0000000000000000e+00  0.0000000000000000e+00  0.0000000000000000e+00  0.0000000000000000e+00 
 0.0000000000000000e+00  0.0000000000000000e+00  0.0000000000000000e+00  0.0000000000000000e+00 
 0.0000000000000000e+00  0.0000000000000000e+00  0.0000000000000000e+00  0.0000000000000000e+00 
 0.0000000000000000e+00  0.0000000000000000e+00  0.0000000000000000e+00  0.0000000000000000e+00 
 0.0000000000000000e+00  0.0000000000000000e+00  0.0000000000000000e+00  0.0000000000000000e+00 
 0.0000000000000000e+00  0.0000000000000000e+00  0.0000000000000000e+00  0.0000000000000000e+00 
 0.0000000000000000e+00  0.0000000000000000e+00  0.0000000000000000e+00  0.0000000000000000e+00 
 0.0000000000000000e+00  0.0000000000000000e+00  0.0000000000000000e+00  0.0000000000000000e+00 
 0.0000000000000000e+00  0.0000000000000000e+00  0.0000000000000000e+00  0.0000000000000000e+00 
 0.0000000000000000e+00  0.0000000000000000e+00  0.0000000000000000e+00  0.0000000000000000e+00 
 0.0000000000000000e+00  0.0000000000000000e+00  0.0000000000000000e+00  0.0000000000000000e+00 
 0.0000000000000000e+00  0.0000000000000000e+00  0.0000000000000000e+00  0.0000000000000000e+00 
 0.0000000000000000e+00  0.0000000000000000e+00  0.0000000000000000e+00  0.0000000000000000e+00 
 0.0000000000000000e+00  0.0000000000000000e+00  0.0000000000000000e+00  0.0000000000000000e+00 
 0.0000000000000000e+00  0.0000000000000000e+00  0.0000000000000000e+00  0.0000000000000000e+00 
 0.0000000000000000e+00  0.0000000000000000e+00  0.0000000000000000e+00  0.0000000000000000e+00 
 0.0000000000000000e+00  0.0000000000000000e+00  0.0000000000000000e+00  0.0000000000000000e+00 
 0.0000000000000000e+00  0.0000000000000000e+00  0.0000000000000000e+00  0.0000000000000000e+00 
 0.0000000000000000e+00  0.0000000000000000e+00  0.0000000000000000e+00  0.0000000000000000e+00 
 0.0000000000000000e+00  0.0000000000000000e+00  0.0000000000000000e+00  0.0000000000000000e+00 
 0.0000000000000000e+00  0.0000000000000000e+00  0.0000000000000000e+00  0.0000000000000000e+00 
 0.0000000000000000e+00  0.0000000000000000e+00  0.0000000000000000e+00  0.0000000000000000e+00 
 0.0000000000000000e+00  0.0000000000000000e+00  0.0000000000000000e+00  0.0000000000000000e+00 
 0.0000000000000000e+00  0.0000000000000000e+00  0.0000000000000000e+00  0.0000000000000000e+00 
 0.0000000000000000e+00  0.0000000000000000e+00  0.0000000000000000e+00  0.0000000000000000e+00 
 0.0000000000000000e+00  0.0000000000000000e+00  0.0000000000000000e+00  0.0000000000000000e+00 
 0.0000000000000000e+00  0.0000000000000000e+00  0.0000000000000000e+00  0.0000000000000000e+00 
 0.0000000000000000e+00  0.0000000000000000e+00  0.0000000000000000e+00  0.0000000000000000e+00 
 0.0000000000000000e+00  0.0000000000000000e+00  0.0000000000000000e+00  0.0000000000000000e+00 
 0.0000000000000000e+00  0.0000000000000000e+00  0.0000000000000000e+00  0.0000000000000000e+00 
 0.0000000000000000e+00  0.0000000000000000e+00  0.0000000000000000e+00  0.0000000000000000e+00 
 0.0000000000000000e+00  0.0000000000000000e+00  0.0000000000000000e+00  0.0000000000000000e+00 
 0.0000000000000000e+00  0.0000000000000000e+00  0.0000000000000000e+00  0.0000000000000000e+00 
 0.0000000000000000e+00  0.0000000000000000e+00  0.0000000000000000e+00  0.0000000000000000e+00 
 0.0000000000000000e+00  0.0000000000000000e+00  0.0000000000000000e+00  0.0000000000000000e+00 
 0.0000000000000000e+00  0.0000000000000000e+00  0.0000000000000000e+00  0.0000000000000000e+00 
 0.0000000000000000e+00  0.0000000000000000e+00  0.0000000000000000e+00  0.0000000000000000e+00 
 0.0000000000000000e+00  0.0000000000000000e+00  0.0000000000000000e+00  0.0000000000000000e+00 
 0.0000000000000000e+00  0.0000000000000000e+00  0.0000000000000000e+00  0.0000000000000000e+00 
 0.0000000000000000e+00  0.0000000000000000e+00  0.0000000000000000e+00  0.0000000000000000e+00 
 0.0000000000000000e+00  0.0000000000000000e+00  0.0000000000000000e+00  0.0000000000000000e+00 
 0.0000000000000000e+00  0.0000000000000000e+00  0.0000000000000000e+00  0.0000000000000000e+00 
 0.0000000000000000e+00  0.0000000000000000e+00  0.0000000000000000e+00  0.0000000000000000e+00 
 0.0000000000000000e+00  0.0000000000000000e+00  0.0000000000000000e+00  0.0000000000000000e+00 
 0.0000000000000000e+00  0.0000000000000000e+00  0.0000000000000000e+00  0.0000000000000000e+00 
 0.0000000000000000e+00  0.0000000000000000e+00  0.0000000000000000e+00  0.0000000000000000e+00 
 0.0000000000000000e+00  0.0000000000000000e+00  0.0000000000000000e+00  0.0000000000000000e+00 
 0.0000000000000000e+00  0.0000000000000000e+00  0.0000000000000000e+00  0.0000000000000000e+00 
 0.0000000000000000e+00  0.0000000000000000e+00  0.0000000000000000e+00  0.0000000000000000e+00 
 0.0000000000000000e+00  0.0000000000000000e+00  0.0000000000000000e+00  0.0000000000000000e+00 
 0.0000000000000000e+00  0.0000000000000000e+00  0.0000000000000000e+00  0.0000000000000000e+00 
 0.0000000000000000e+00  0.0000000000000000e+00  0.0000000000000000e+00  0.0000000000000000e+00 
 0.0000000000000000e+00  0.0000000000000000e+00  0.0000000000000000e+00  0.0000000000000000e+00 
 0.0000000000000000e+00  0.0000000000000000e+00  0.0000000000000000e+00  0.0000000000000000e+00 
 0.0000000000000000e+00  0.0000000000000000e+00 
  </PP_BETA>
  <PP_DIJ>
 1   Number of nonzero Dij
 1 1 -9.5069954134889056e-01 
  </PP_DIJ>
</PP_NONLOCAL>
<PP_PSWFC>
S    0   2.00          Wavefunction
 2.5252354956675789e-05  2.5582778684585013e-05  2.5917525963654661e-05  2.6256653366998417e-05 
 2.6600218207982421e-05  2.6948278549911473e-05  2.7300893215841876e-05  2.7658121798522719e-05 
 2.8020024670467251e-05  2.8386662994156044e-05  2.8758098732373603e-05  2.9134394658680322e-05 
 2.9515614368021396e-05  2.9901822287474609e-05  3.0293083687138653e-05  3.0689464691164085e-05 
 3.1091032288928459e-05  3.1497854346357786e-05  3.1909999617396130e-05  3.2327537755625176e-05 
 3.2750539326036057e-05  3.3179075816954970e-05  3.3613219652125012e-05  3.4053044202946060e-05 
 3.4498623800874746e-05  3.4950033749986789e-05  3.5407350339703640e-05  3.5870650857685679e-05 
 3.6340013602894196e-05  3.6815517898823977e-05  3.7297244106909591e-05  3.7785273640106544e-05 
 3.8279688976650455e-05  3.8780573673996204e-05  3.9288012382939564e-05  3.9802090861923308e-05 
 4.0322895991530967e-05  4.0850515789169788e-05  4.1385039423946235e-05  4.1926557231735829e-05 
 4.2475160730450253e-05  4.3030942635504449e-05  4.3593996875485650e-05  4.4164418608028015e-05 
 4.4742304235894466e-05  4.5327751423269298e-05  4.5920859112263833e-05  4.6521727539638070e-05 
 4.7130458253741226e-05  4.7747154131673850e-05  4.8371919396674490e-05  4.9004859635734043e-05 
 4.9646081817440334e-05  5.0295694310056468e-05  5.0953806899835493e-05  5.1620530809574901e-05 
 5.2295978717413889e-05  5.2980264775876494e-05  5.3673504631163922e-05  5.4375815442699523e-05 
 5.5087315902929300e-05  5.5808126257381549e-05  5.6538368324989133e-05  5.7278165518677489e-05 
 5.8027642866222101e-05  5.8786927031379045e-05  5.9556146335291903e-05  6.0335430778178730e-05 
 6.1124912061302940e-05  6.1924723609231642e-05  6.2735000592385287e-05  6.3555879949882366e-05 
 6.4387500412682827e-05  6.5230002527034758e-05  6.6083528678227617e-05  6.6948223114656277e-05 
 6.7824231972200041e-05  6.8711703298920634e-05  6.9610787080083542e-05  7.0521635263506415e-05 
 7.1444401785239589e-05  7.2379242595582341e-05  7.3326315685439807e-05  7.4285781113024655e-05 
 7.5257801030908258e-05  7.6242539713425799e-05  7.7240163584439952e-05  7.8250841245468202e-05 
 7.9274743504177523e-05  8.0312043403252983e-05  8.1362916249643036e-05  8.2427539644188279e-05 
 8.3506093511637666e-05  8.4598760131057292e-05  8.5705724166637917e-05  8.6827172698904250e-05 
 8.7963295256334299e-05  8.9114283847391027e-05  9.0280332992974242e-05  9.1461639759296521e-05 
 9.2658403791189727e-05  9.3870827345847099e-05  9.5099115327007240e-05  9.6343475319585214e-05 
 9.7604117624756732e-05  9.8881255295501933e-05  1.0017510417261384e-04  1.0148588292117822e-04 
 1.0281381306753076e-04  1.0415911903669854e-04  1.0552202819033005e-04  1.0690277086512325e-04 
 1.0830158041175551e-04  1.0971869323432304e-04  1.1115434883029725e-04  1.1260878983100288e-04 
 1.1408226204262696e-04  1.1557501448776382e-04  1.1708729944750386e-04  1.1861937250407339e-04 
 1.2017149258403232e-04  1.2174392200203744e-04  1.2333692650517812e-04  1.2495077531789238e-04 
 1.2658574118747093e-04  1.2824210043015685e-04  1.2992013297784792e-04  1.3162012242541143e-04 
 1.3334235607861684e-04  1.3508712500269701e-04  1.3685472407154404e-04  1.3864545201754968e-04 
 1.4045961148209782e-04  1.4229750906671760e-04  1.4415945538490666e-04  1.4604576511463189e-04 
 1.4795675705151805e-04  1.4989275416273220e-04  1.5185408364157334e-04  1.5384107696277718e-04 
 1.5585406993854373e-04  1.5789340277529951e-04  1.5995942013120141e-04  1.6205247117439471e-04 
 1.6417290964203219e-04  1.6632109390006723e-04  1.6849738700382808e-04  1.7070215675938643e-04 
 1.7293577578572845e-04  1.7519862157774004e-04  1.7749107657001625e-04  1.7981352820150651e-04 
 1.8216636898100568e-04  1.8454999655350237e-04  1.8696481376739640e-04  1.8941122874259570e-04 
 1.9188965493950456e-04  1.9440051122891582e-04  1.9694422196281708e-04  1.9952121704612484e-04 
 2.0213193200935690e-04  2.0477680808225678e-04  2.0745629226838225e-04  2.1017083742066938e-04 
 2.1292090231798751e-04  2.1570695174269485e-04  2.1852945655921092e-04  2.2138889379361707e-04 
 2.2428574671429951e-04  2.2722050491364836e-04  2.3019366439082560e-04  2.3320572763561832e-04 
 2.3625720371338915e-04  2.3934860835113879e-04  2.4248046402469619e-04  2.4565330004705028e-04 
 2.4886765265783842e-04  2.5212406511400696e-04  2.5542308778165891e-04  2.5876527822910457e-04 
 2.6215120132113090e-04  2.6558142931450585e-04  2.6905654195473282e-04  2.7257712657407292e-04 
 2.7614377819085151e-04  2.7975709961006439e-04  2.8341770152530329e-04  2.8712620262201516e-04 
 2.9088322968211483e-04  2.9468941768996860e-04  2.9854540993976458e-04  3.0245185814429203e-04 
 3.0640942254514357e-04  3.1041877202436313e-04  3.1448058421755531e-04  3.1859554562847737e-04 
 3.2276435174513363e-04  3.2698770715738868e-04  3.3126632567612499e-04  3.3560093045395946e-04 
 3.3999225410754296e-04  3.4444103884146343e-04  3.4894803657377127e-04  3.5351400906315114e-04 
 3.5813972803776126e-04  3.6282597532575912e-04  3.6757354298754051e-04  3.7238323344971139e-04 
 3.7725585964081595e-04  3.8219224512884496e-04  3.8719322426054425e-04  3.9225964230255392e-04 
 3.9739235558439542e-04  4.0259223164333435e-04  4.0786014937114324e-04  4.1319699916278875e-04 
 4.1860368306706963e-04  4.2408111493922939e-04  4.2963022059557275e-04  4.3525193797010751e-04 
 4.4094721727324477e-04  4.4671702115257780e-04  4.5256232485577438e-04  4.5848411639560273e-04 
 4.6448339671712515e-04  4.7056117986708589e-04  4.7671849316552187e-04  4.8295637737962510e-04 
 4.8927588689988866e-04  4.9567808991856472e-04  5.0216406861046566e-04  5.0873491931613770e-04 
 5.1539175272744323e-04  5.2213569407557529e-04  5.2896788332154772e-04  5.3588947534918190e-04 
 5.4290164016063222e-04  5.5000556307447648e-04  5.5720244492641605e-04  5.6449350227260415e-04 
 5.7187996759565515e-04  5.7936308951335534e-04  5.8694413299011951e-04  5.9462437955122897e-04 
 6.0240512749988378e-04  6.1028769213711124e-04  6.1827340598456511e-04  6.2636361901025799e-04 
 6.3455969885725910e-04  6.4286303107540584e-04  6.5127501935606090e-04  6.5979708576996106e-04 
 6.6843067100819564e-04  6.7717723462635822e-04  6.8603825529191438e-04  6.9501523103482235e-04 
 7.0410967950146201e-04  7.1332313821190305e-04  7.2265716482056565e-04  7.3211333738031699e-04 
 7.4169325461004494e-04  7.5139853616576643e-04  7.6123082291530328e-04  7.7119177721658532e-04 
 7.8128308319962223e-04  7.9150644705219928e-04  8.0186359730933870e-04  8.1235628514658730e-04 
 8.2298628467717110e-04  8.3375539325307793e-04  8.4466543177011768e-04  8.5571824497700981e-04 
 8.6691570178855869e-04  8.7825969560296688e-04  8.8975214462334840e-04  9.0139499218348839e-04 
 9.1319020707791875e-04  9.2513978389635652e-04  9.3724574336257458e-04  9.4951013267775678e-04 
 9.6193502586840282e-04  9.7452252413884053e-04  9.8727475622841236e-04  1.0001938787734018e-03 
 1.0132820766737497e-03  1.0265415634646484e-03  1.0399745816930606e-03  1.0535834032992381e-03 
 1.0673703300033131e-03  1.0813376936970199e-03  1.0954878568406334e-03  1.1098232128651713e-03 
 1.1243461865799646e-03  1.1390592345856432e-03  1.1539648456926194e-03  1.1690655413451548e-03 
 1.1843638760510693e-03  1.1998624378171882e-03  1.2155638485905952e-03  1.2314707647057747e-03 
 1.2475858773377253e-03  1.2639119129611302e-03  1.2804516338156635e-03  1.2972078383775205e-03 
 1.3141833618372622e-03  1.3313810765840509e-03  1.3488038926963834e-03  1.3664547584394003e-03 
 1.3843366607688629e-03  1.4024526258418991e-03  1.4208057195346140e-03  1.4393990479666466e-03 
 1.4582357580327967e-03  1.4773190379417989e-03  1.4966521177623535e-03  1.5162382699765206e-03 
 1.5360808100405839e-03  1.5561830969534748e-03  1.5765485338328895e-03  1.5971805684991877e-03 
 1.6180826940671957e-03  1.6392584495460299e-03  1.6607114204470438e-03  1.6824452394000331e-03 
 1.7044635867777991e-03  1.7267701913292128e-03  1.7493688308208870e-03  1.7722633326875869e-03 
 1.7954575746915165e-03  1.8189554855905863e-03  1.8427610458158327e-03  1.8668782881580824e-03 
 1.8913112984640331e-03  1.9160642163418616e-03  1.9411412358765316e-03  1.9665466063549073e-03 
 1.9922846330008674e-03  2.0183596777205177e-03  2.0447761598576960e-03  2.0715385569599061e-03 
 2.0986514055548397e-03  2.1261193019376417e-03  2.1539469029691048e-03  2.1821389268849283e-03 
 2.2107001541162422e-03  2.2396354281215489e-03  2.2689496562302612e-03  2.2986478104980255e-03 
 2.3287349285740170e-03  2.3592161145803703e-03  2.3900965400039560e-03  2.4213814446006985e-03 
 2.4530761373126216e-03  2.4851859971978269e-03  2.5177164743736186e-03  2.5506730909729725e-03 
 2.5840614421145697e-03  2.6178871968866291e-03  2.6521560993447149e-03  2.6868739695238143e-03 
 2.7220467044648464e-03  2.7576802792558994e-03  2.7937807480883934e-03  2.8303542453284552e-03 
 2.8674069866037170e-03  2.9049452699058138e-03  2.9429754767088720e-03  2.9815040731042031e-03 
 3.0205376109515144e-03  3.0600827290469014e-03  3.1001461543079287e-03  3.1407347029760490e-03 
 3.1818552818367249e-03  3.2235148894574914e-03  3.2657206174442959e-03  3.3084796517164968e-03 
 3.3517992738007199e-03  3.3956868621440252e-03  3.4401498934466743e-03  3.4851959440148415e-03 
 3.5308326911336419e-03  3.5770679144608566e-03  3.6239094974416983e-03  3.6713654287450015e-03 
 3.7194438037212855e-03  3.7681528258830120e-03  3.8175008084075064e-03  3.8674961756629319e-03 
 3.9181474647577768e-03  3.9694633271142752e-03  4.0214525300662097e-03  4.0741239584815856e-03 
 4.1274866164106114e-03  4.1815496287595398e-03  4.2363222429907714e-03  4.2918138308498249e-03 
 4.3480338901196354e-03  4.4049920464027540e-03  4.4626980549319854e-03  4.5211618024100092e-03 
 4.5803933088786070e-03  4.6404027296180405e-03  4.7012003570772428e-03  4.7627966228353741e-03 
 4.8252020995954662e-03  4.8884275032107420e-03  4.9524836947443121e-03  5.0173816825629580e-03 
 5.0831326244656682e-03  5.1497478298476989e-03  5.2172387619008375e-03  5.2856170398507601e-03 
 5.3548944412320967e-03  5.4250829042021761e-03  5.4961945298941410e-03  5.5682415848103987e-03 
 5.6412365032571851e-03  5.7151918898211869e-03  5.7901205218891362e-03  5.8660353522112726e-03 
 5.9429495115097455e-03  6.0208763111328015e-03  6.0998292457559080e-03  6.1798219961307684e-03 
 6.2608684318833539e-03  6.3429826143620313e-03  6.4261787995368970e-03  6.5104714409515351e-03 
 6.5958751927282970e-03  6.6824049126284349e-03  6.7700756651682351e-03  6.8589027247924969e-03 
 6.9489015791066753e-03  7.0400879321689753e-03  7.1324777078439032e-03  7.2260870532185563e-03 
 7.3209323420832251e-03  7.4170301784777038e-03  7.5143974003049662e-03  7.6130510830136290e-03 
 7.7130085433509401e-03  7.8142873431878406e-03  7.9169052934179047e-03  8.0208804579317422e-03 
 8.1262311576688027e-03  8.2329759747482301e-03  8.3411337566807620e-03  8.4507236206635104e-03 
 8.5617649579595757e-03  8.6742774383644847e-03  8.7882810147615169e-03  8.9037959277679397e-03 
 9.0208427104743628e-03  9.1394421932793121e-03  9.2596155088212843e-03  9.3813840970105103e-03 
 9.5047697101628102e-03  9.6297944182378095e-03  9.7564806141839776e-03  9.8848510193929370e-03 
 1.0014928689265502e-02  1.0146737018892070e-02  1.0280299748849824e-02  1.0415640971119512e-02 
 1.0552785135124355e-02  1.0691757053893950e-02  1.0832581910355733e-02  1.0975285263756933e-02 
 1.1119893056219838e-02  1.1266431619433196e-02  1.1414927681482648e-02  1.1565408373823209e-02 
 1.1717901238396642e-02  1.1872434234896791e-02  1.2029035748185941e-02  1.2187734595865059e-02 
 1.2348560036001143e-02  1.2511541775014614e-02  1.2676709975729960e-02  1.2844095265592508e-02 
 1.3013728745054590e-02  1.3185641996134066e-02  1.3359867091148211e-02  1.3536436601626109e-02 
 1.3715383607402548e-02  1.3896741705896226e-02  1.4080545021575429e-02  1.4266828215613883e-02 
 1.4455626495739747e-02  1.4646975626280407e-02  1.4840911938405818e-02  1.5037472340572887e-02 
 1.5236694329173678e-02  1.5438615999389508e-02  1.5643276056253392e-02  1.5850713825923048e-02 
 1.6060969267166336e-02  1.6274082983061128e-02  1.6490096232911224e-02  1.6709050944379869e-02 
 1.6930989725842196e-02  1.7155955878957841e-02  1.7383993411464339e-02  1.7615147050192358e-02 
 1.7849462254302905e-02  1.8086985228746872e-02  1.8327762937946711e-02  1.8571843119699911e-02 
 1.8819274299303659e-02  1.9070105803899454e-02  1.9324387777036853e-02  1.9582171193454193e-02 
 1.9843507874074667e-02  2.0108450501215423e-02  2.0377052634006899e-02  2.0649368724019596e-02 
 2.0925454131094846e-02  2.1205365139375994e-02  2.1489158973535941e-02  2.1776893815196867e-02 
 2.2068628819537407e-02  2.2364424132082474e-02  2.2664340905670721e-02  2.2968441317594193e-02 
 2.3276788586904722e-02  2.3589446991881622e-02  2.3906481887654932e-02  2.4227959723978593e-02 
 2.4553948063148319e-02  2.4884515598058592e-02  2.5219732170394086e-02  2.5559668788950878e-02 
 2.5904397648083700e-02  2.6253992146276012e-02  2.6608526904830742e-02  2.6968077786680724e-02 
 2.7332721915318974e-02  2.7702537693851201e-02  2.8077604824173881e-02  2.8458004326284581e-02 
 2.8843818557732631e-02  2.9235131233222449e-02  2.9632027444383816e-02  3.0034593679728327e-02 
 3.0442917844815093e-02  3.0857089282653096e-02  3.1277198794374510e-02  3.1703338660217253e-02 
 3.2135602660863648e-02  3.2574086099188326e-02  3.3018885822477306e-02  3.3470100245188927e-02 
 3.3927829372337640e-02  3.4392174823592025e-02  3.4863239858190835e-02  3.5341129400793772e-02 
 3.5825950068397457e-02  3.6317810198462759e-02  3.6816819878415813e-02  3.7323090976703471e-02 
 3.7836737175602403e-02  3.8357874006001901e-02  3.8886618884402681e-02  3.9423091152396679e-02 
 3.9967412118918792e-02  4.0519705105586341e-02  4.1080095495471439e-02  4.1648710785679402e-02 
 4.2225680644137752e-02  4.2811136971031769e-02  4.3405213965356348e-02  4.4008048197087382e-02 
 4.4619778685511695e-02  4.5240546984290989e-02  4.5870497273870228e-02  4.6509776461879794e-02 
 4.7158534292215705e-02  4.7816923463519491e-02  4.8485099757814405e-02  4.9163222180088659e-02 
 4.9851453109648079e-02  5.0549958464090328e-02  5.1258907876779038e-02  5.1978474888716521e-02 
 5.2708837155732269e-02  5.3450176671913256e-02  5.4202680010206027e-02  5.4966538581114950e-02 
 5.5741948910405598e-02  5.6529112936696317e-02  5.7328238329780797e-02  5.8139538830472140e-02 
 5.8963234612687307e-02  5.9799552668404976e-02  6.0648727216020007e-02  6.1511000132490716e-02 
 6.2386621409519512e-02  6.3275849633830691e-02  6.4178952491401250e-02  6.5096207295264982e-02 
 6.6027901536244119e-02  6.6974333455659812e-02  6.7935812638741502e-02  6.8912660627083622e-02 
 6.9905211548093746e-02  7.0913812758933090e-02  7.1938825501975348e-02  7.2980625568294641e-02 
 7.4039603965150927e-02  7.5116167582865434e-02  7.6210739855877063e-02  7.7323761412149652e-02 
 7.8455690704463732e-02  7.9607004616482457e-02  8.0778199035844753e-02  8.1969789385912123e-02 
 8.3182311107202561e-02  8.4416320078994300e-02  8.5672392971093553e-02  8.6951127515358911e-02 
 8.8253142686274613e-02  8.9579078779699936e-02  9.0929597378916704e-02  9.2305381197273662e-02 
 9.3707133787134980e-02  9.5135579105492474e-02  9.6591460927548348e-02  9.8075542100842628e-02 
 9.9588603634128595e-02  1.0113144361721592e-01  1.0270487597044560e-01  1.0430972902535347e-01 
 1.0594684394144319e-01  1.0761707296784591e-01  1.0932127756298773e-01  1.1106032639022426e-01 
 1.1283509321270058e-01  1.1464645471643219e-01  1.1649528829670822e-01  1.1838246984932231e-01 
 1.2030887161473773e-01  1.2227536012993737e-01  1.2428279434926831e-01  1.2633202400183133e-01 
 1.2842388825867854e-01  1.3055921478799498e-01  1.3273881928024109e-01  1.3496350552759920e-01 
 1.3723406614261738e-01  1.3955128399929687e-01  1.4191593447559958e-01  1.4432878856906237e-01 
 1.4679061694645382e-01  1.4930219497383421e-01  1.5186430875460918e-01  1.5447776217993642e-01 
 1.5714338496794661e-01  1.5986204163562495e-01  1.6263464130995678e-01  1.6546214824333613e-01 
 1.6834559285283524e-01  1.7128608305447002e-01  1.7428481561320680e-01  1.7734308717854813e-01 
 1.8046230462590804e-01  1.8364399427780345e-01  1.8688980953869472e-01  1.9020153644598817e-01 
 1.9358109662049522e-01  1.9703054709596157e-01  2.0055207652275281e-01  2.0414799727900118e-01 
 2.0782073308691351e-01  2.1157280182556309e-01  2.1540679335671478e-01  2.1932534233849579e-01 
 2.2333109619320693e-01  2.2742667861872379e-01  2.3161464928434941e-01  2.3589746062574760e-01 
 2.4027741294123597e-01  2.4475660928183660e-01  2.4933691190563181e-01  2.5401990231570576e-01 
 2.5880684710004775e-01  2.6369867191871532e-01  2.6869594601424890e-01  2.7379887953128418e-01 
 2.7900733569711622e-01  2.8432085951603675e-01  2.8973872405117379e-01  2.9525999460042274e-01 
 3.0088361012033860e-01  3.0660848012906866e-01  3.1243359405784538e-01  3.1835813866935608e-01 
 3.2438161778925445e-01  3.3050396729265386e-01  3.3672565715817471e-01  3.4304777157131749e-01 
 3.4947205766072081e-01  3.5600093362227936e-01  3.6263744785673108e-01  3.6938518242519364e-01 
 3.7624809668722436e-01  3.8323031044736050e-01  3.9033583024821072e-01  3.9756822747359727e-01 
 4.0493028242615881e-01  4.1242361417432805e-01  4.2004832126999425e-01  4.2780266287055413e-01 
 4.3568281273628873e-01  4.4368271936427245e-01  4.5179410353813332e-01  4.6000661929262116e-01 
 4.6830819537147339e-01  4.7668556163168568e-01  4.8512494882011481e-01  4.9361293146830426e-01 
 5.0213736356399907e-01  5.1068833691266269e-01  5.1925907490172096e-01  5.2784666225468047e-01 
 5.3645250696339275e-01  5.4508243639770082e-01  5.5374634756451935e-01  5.6245736263422852e-01 
 5.7123048482547034e-01  5.8008080447416988e-01  5.8902136658267823e-01  5.9806087332679547e-01 
 6.0720145011385251e-01  6.1643674288219230e-01  6.2575062823403804e-01  6.3511679858483072e-01 
 6.4449942627638035e-01  6.5385501223538722e-01  6.6313539061727167e-01  6.7229170193572885e-01 
 6.8127898119395625e-01  6.9006085806139983e-01  6.9861455807923123e-01  7.0693075656186144e-01 
 7.1500238887934420e-01  7.2282253940870700e-01  7.3038445044857614e-01  7.3768153172353923e-01 
 7.4470737039840840e-01  7.5145574150868155e-01  7.5792061870529293e-01  7.6409618520845857e-01 
 7.6997684486596230e-01  7.7555723321463532e-01  7.8083222844933253e-01  7.8579696221078466e-01 
 7.9044683011176842e-01  7.9477750192962604e-01  7.9878493140190321e-01  8.0246536557043113e-01 
 8.0581535362733026e-01  8.0883175522397399e-01  8.1151174821082650e-01  8.1385283578217704e-01 
 8.1585285300519239e-01  8.1750997271733328e-01  8.1882271078019264e-01  8.1978993068117068e-01 
 8.2041084747729509e-01  8.2068503107790525e-01  8.2061240886498643e-01  8.2019326765171996e-01 
 8.1942825498135374e-01  8.1831837976986532e-01  8.1686501229713671e-01  8.1506988355249499e-01 
 8.1293508394155567e-01  8.1046306136232638e-01  8.0765661865952476e-01  8.0451891046701829e-01 
 8.0105343944924401e-01  7.9726405195336092e-01  7.9315493308478491e-01  7.8873060121958916e-01 
 7.8399590196808222e-01  7.7895600160461187e-01  7.7361637997936405e-01  7.6798282292856990e-01 
 7.6206141420010209e-01  7.5585852691194089e-01  7.4938081456140715e-01  7.4263520160339591e-01 
 7.3562887361607354e-01  7.2836926707265992e-01  7.2086405873796866e-01  7.1312115470834614e-01 
 7.0514867911352430e-01  6.9695496249870359e-01  6.8854852990489035e-01  6.7993808866518057e-01 
 6.7113251593426604e-01  6.6214084596801503e-01  6.5297225716951990e-01  6.4363605891753550e-01 
 6.3414167819282119e-01  6.2449864601750371e-01  6.1471658372228688e-01  6.0480518905615333e-01 
 5.9477422215314624e-01  5.8463349137097598e-01  5.7439283901652305e-01  5.6406212697390679e-01 
 5.5365122225163477e-01  5.4316998246649273e-01  5.3262824128327457e-01  5.2203579383120768e-01 
 5.1140238211998013e-01  5.0073768048062117e-01  4.9005128105907808e-01  4.7935267939313919e-01 
 4.6865126010630792e-01  4.5795628275524997e-01  4.4727686787046067e-01  4.3662198323268619e-01 
 4.2600043043032154e-01  4.1542083174535105e-01  4.0489161741730773e-01  3.9442101333609048e-01 
 3.8401702921519304e-01  3.7368744729689368e-01  3.6343981164015821e-01  3.5328141804038515e-01 
 3.4321930462765526e-01  3.3326024318684516e-01  3.2341073123886738e-01  3.1367698491747520e-01 
 3.0406493267059664e-01  2.9458020980915306e-01  2.8522815391990619e-01  2.7601380115217194e-01 
 2.6694188338141639e-01  2.5801682624592459e-01  2.4924274804605265e-01  2.4062345948918148e-01 
 2.3216246425747181e-01  2.2386296037002157e-01  2.1572784230609079e-01  2.0775970385177667e-01 
 1.9996084162893393e-01  1.9233325926226327e-01  1.8487867213834910e-01  1.7759851270900712e-01 
 1.7049393629057735e-01  1.6356582731073563e-01  1.5681480595494676e-01  1.5024123516579493e-01 
 1.4384522795003571e-01  1.3762665495025200e-01  1.3158515224040587e-01  1.2572012930727611e-01 
 1.2003077718269842e-01  1.1451607669461462e-01  1.0917480680811388e-01  1.0400555303086738e-01 
 9.9006715860541841e-02  9.4176519254884392e-02  8.9513019108145006e-02  8.5014111720295243e-02 
 8.0677542248075357e-02  7.6500913129213186e-02  7.2481692473179565e-02  6.8617222413548520e-02 
 6.4904727418393385e-02  6.1341322556165180e-02  5.7924021715153658e-02  5.4649745774930085e-02 
 5.1515330728126009e-02  4.8517535750524213e-02  4.5653051216760658e-02  4.2918506657987451e-02 
 4.0310478656668536e-02  3.7825498672317485e-02  3.5460060790490980e-02  3.3210629385775937e-02 
 3.1073646687907734e-02  2.9045540238586166e-02  2.7122730225069822e-02  2.5301636675275116e-02 
 2.3578686497931781e-02  2.1950320350388370e-02  2.0412999315953067e-02  1.8963211372219912e-02 
 1.7597477631685898e-02  1.6312358336116165e-02  1.5104458586566073e-02  1.3970433791709444e-02 
 1.2906994818140470e-02  1.1910912827590919e-02  1.0979023787509845e-02  1.0108232643161286e-02 
 9.2955171412736192e-03  8.5379312972892647e-03  7.8326085003796678e-03  7.1767642525732960e-03 
 6.5676985405595436e-03  6.0027978409456124e-03  5.4795367619261647e-03  4.9954793264479535e-03 
 4.5482799039880707e-03  4.1356837999920884e-03  3.7555275138176658e-03  3.4057386776834013e-03 
 3.0843356906191271e-03  2.7894270627417082e-03  2.5192104863331153e-03  2.2719716511704529e-03 
 2.0460828223493872e-03  1.8400011994534724e-03  1.6522670763555890e-03  1.4815018211987295e-03 
 1.3264056961985705e-03  1.1857555368477424e-03  1.0584023098909536e-03  9.4326856909154292e-04 
 8.3934582733502289e-04  7.4569186302556620e-04  6.6142797803957622e-04  5.8573622371907138e-04 
 5.1785661052927657e-04  4.5708431608216702e-04  4.0276690525323764e-04  3.5430157510450748e-04 
 3.1113243628445284e-04  2.7274784151632504e-04  2.3867777072069982e-04  2.0849128125600920e-04 
 1.8179403071135950e-04  1.5822587865750939e-04  1.3745857276203111e-04  1.1919352371012332e-04 
 1.0315967244918338e-04  8.9111452398105096e-05  7.6826848435558842e-05  6.6105553708615625e-05 
 5.6767224586580765e-05  4.8649833426633623e-05  4.1608118218925723e-05  3.5512127639580202e-05 
 3.0245859560348045e-05  2.5705990642700567e-05  2.1800694280543211e-05  1.8448543847718253e-05 
 1.5577497951803272e-05  1.3123964191835702e-05  1.1031937761629666e-05  9.2522111291899100e-06 
 7.7416509530748051e-06  6.4625383649931921e-06  5.3819687509348616e-06  4.4713071971988897e-06 
 3.7056958292762420e-06  3.0636093571957842e-06  2.5264552472774307e-06  2.0782150639948643e-06 
 1.7051236637240431e-06  1.3953830716041891e-06  1.1389080308170532e-06  9.2710037775354240e-07 
 7.5264956445423096e-07  6.0935681927248362e-07  4.9198060602939889e-07  3.9610120934492553e-07 
 3.1800243789434796e-07  2.5456859682160573e-07  2.0319503441218440e-07  1.6171071555355658e-07 
 1.2831141483647948e-07  1.0150225488979408e-07  8.0048440362154652e-08  6.2933154672425974e-08 
 4.9321695175974260e-08  3.8531022774812089e-08  3.0003994367214141e-08  2.3287631097849876e-08 
 1.8014852408994711e-08  1.3889175735793481e-08  1.0671944703149745e-08  8.1717052673422947e-09 
 6.2353998201560549e-09  4.7410942660090008e-09  3.5919929249680744e-09  2.7115312345581762e-09 
 2.0393670393149917e-09  1.5281181734778561e-09  1.1407174456750154e-09  8.4827639096703704e-10 
 6.2836660864425280e-10  4.6364247327496480e-10  3.4074178662405787e-10  2.4941179939166607e-10 
 1.8181721996473566e-10  1.3199458138029732e-10  9.5423904489608667e-11  6.8693317786000582e-11 
 4.9238396152253217e-11  3.5139934548044568e-11  2.4967834172864229e-11  1.7661133390467275e-11 
 1.2436226431996914e-11  8.7169642032902034e-12  6.0816636643364519e-12  4.2231216267305854e-12 
 2.9185829987001515e-12  2.0072923855135865e-12  1.3737947786731548e-12  9.3557340023795555e-13 
 6.3394331786972940e-13  4.2737681466017815e-13  2.8663583591066742e-13  1.9124040932834776e-13 
 1.2691961889633368e-13  8.3781406174321886e-14  5.5005459980086602e-14  3.5914704975313507e-14 
 2.3319316813591043e-14  1.5055827045264029e-14  9.6651038813477382e-15  6.1686334740682460e-15 
 3.9139829009351465e-15  2.4686694988237000e-15  1.5477013394660225e-15  9.6440001655255503e-16 
 5.9722546003265408e-16  3.6753205502072003e-16  2.2474613016046221e-16  1.3655044711402445e-16 
 8.2425439704172093e-17  4.9426461391095556e-17  2.9440843512041809e-17  1.7417884115482792e-17 
 1.0234262228145461e-17  5.9716616839312192e-18  3.4599811817873111e-18  1.9904822114178767e-18 
 1.1369150198610816e-18  6.4476970499827975e-19  3.6320296399565451e-19  2.0350820613334541e-19 
 0.0000000000000000e+00  0.0000000000000000e+00  0.0000000000000000e+00  0.0000000000000000e+00 
 0.0000000000000000e+00  0.0000000000000000e+00  0.0000000000000000e+00  0.0000000000000000e+00 
 0.0000000000000000e+00  0.0000000000000000e+00  0.0000000000000000e+00  0.0000000000000000e+00 
 0.0000000000000000e+00  0.0000000000000000e+00  0.0000000000000000e+00  0.0000000000000000e+00 
 0.0000000000000000e+00  0.0000000000000000e+00  0.0000000000000000e+00  0.0000000000000000e+00 
 0.0000000000000000e+00  0.0000000000000000e+00  0.0000000000000000e+00  0.0000000000000000e+00 
 0.0000000000000000e+00  0.0000000000000000e+00  0.0000000000000000e+00  0.0000000000000000e+00 
 0.0000000000000000e+00  0.0000000000000000e+00  0.0000000000000000e+00  0.0000000000000000e+00 
 0.0000000000000000e+00  0.0000000000000000e+00  0.0000000000000000e+00  0.0000000000000000e+00 
 0.0000000000000000e+00  0.0000000000000000e+00  0.0000000000000000e+00  0.0000000000000000e+00 
 0.0000000000000000e+00  0.0000000000000000e+00  0.0000000000000000e+00  0.0000000000000000e+00 
 0.0000000000000000e+00  0.0000000000000000e+00  0.0000000000000000e+00  0.0000000000000000e+00 
 0.0000000000000000e+00  0.0000000000000000e+00  0.0000000000000000e+00  0.0000000000000000e+00 
 0.0000000000000000e+00  0.0000000000000000e+00  0.0000000000000000e+00  0.0000000000000000e+00 
 0.0000000000000000e+00  0.0000000000000000e+00  0.0000000000000000e+00  0.0000000000000000e+00 
 0.0000000000000000e+00  0.0000000000000000e+00  0.0000000000000000e+00  0.0000000000000000e+00 
 0.0000000000000000e+00  0.0000000000000000e+00  0.0000000000000000e+00  0.0000000000000000e+00 
 0.0000000000000000e+00  0.0000000000000000e+00  0.0000000000000000e+00  0.0000000000000000e+00 
 0.0000000000000000e+00  0.0000000000000000e+00 
P    1   2.00          Wavefunction
 7.0333037055859036e-09  7.2185675957549325e-09  7.4087115124908559e-09  7.6038640003210646e-09 
 7.8041569897576614e-09  8.0097258864875205e-09  8.2207096629116761e-09  8.4372509520959660e-09 
 8.6594961441963901e-09  8.8875954854244539e-09  9.1217031796192907e-09  9.3619774924953534e-09 
 9.6085808586360450e-09  9.8616799913056632e-09  1.0121445995153952e-08  1.0388054481889305e-08 
 1.0661685688998985e-08  1.0942524601596528e-08  1.1230761077478699e-08  1.1526589975476589e-08 
 1.1830211287187616e-08  1.2141830272177427e-08  1.2461657596743169e-08  1.2789909476331959e-08 
 1.3126807821710688e-08  1.3472580388986189e-08  1.3827460933576998e-08  1.4191689368240926e-08 
 1.4565511925265204e-08  1.4949181322928831e-08  1.5342956936349808e-08  1.5747104972832536e-08 
 1.6161898651834069e-08  1.6587618389670890e-08  1.7024551989090968e-08  1.7472994833839372e-08 
 1.7933250088348914e-08  1.8405628902690814e-08  1.8890450622923988e-08  1.9388043006985125e-08 
 1.9898742446265501e-08  2.0422894193024333e-08  2.0960852593792437e-08  2.1512981328923973e-08 
 2.2079653658458140e-08  2.2661252674457165e-08  2.3258171559991091e-08  2.3870813854944459e-08 
 2.4499593728824643e-08  2.5144936260756099e-08  2.5807277726850049e-08  2.6487065895143686e-08 
 2.7184760328308406e-08  2.7900832694331540e-08  2.8635767085381925e-08  2.9390060345074522e-08 
 3.0164222404355592e-08  3.0958776626235361e-08  3.1774260159601323e-08  3.2611224302351182e-08 
 3.3470234874091246e-08  3.4351872598651932e-08  3.5256733496679110e-08  3.6185429288566632e-08 
 3.7138587808002599e-08  3.8116853426408660e-08  3.9120887488559654e-08  4.0151368759677657e-08 
 4.1208993884303062e-08  4.2294477857252682e-08  4.3408554506983430e-08  4.4551976991688043e-08 
 4.5725518308458642e-08  4.6929971815862113e-08  4.8166151770280514e-08  4.9434893876379179e-08 
 5.0737055852074878e-08  5.2073518008385499e-08  5.3445183844553704e-08  5.4852980658846594e-08 
 5.6297860175444492e-08  5.7780799187842406e-08  5.9302800219199733e-08  6.0864892200083332e-08 
 6.2468131164064021e-08  6.4113600961635002e-08  6.5802413992935681e-08  6.7535711959776554e-08 
 6.9314666637472485e-08  7.1140480667007365e-08  7.3014388368064667e-08  7.4937656573474434e-08 
 7.6911585485639866e-08  7.8937509555523562e-08  8.1016798384786592e-08  8.3150857651690896e-08 
 8.5341130061391073e-08  8.7589096321257225e-08  8.9896276141889277e-08  9.2264229264498606e-08 
 9.4694556515351911e-08  9.7188900887989921e-08  9.9748948653953480e-08  1.0237643050276620e-07 
 1.0507312271194581e-07  1.0784084834783516e-07  1.1068147849806299e-07  1.1359693353647024e-07 
 1.1658918442135452e-07  1.1966025402791262e-07  1.2281221851577967e-07  1.2604720873259155e-07 
 1.2936741165451774e-07  1.3277507186473937e-07  1.3627249307087197e-07  1.3986203966235792e-07 
 1.4354613830888309e-07  1.4732727960089572e-07  1.5120801973333982e-07  1.5519098223373818e-07 
 1.5927885973579542e-07  1.6347441579971964e-07  1.6778048678049192e-07  1.7219998374534877e-07 
 1.7673589444177246e-07  1.8139128531732010e-07  1.8616930359265640e-07  1.9107317938919295e-07 
 1.9610622791277019e-07  2.0127185169486101e-07  2.0657354289280839e-07  2.1201488565065367e-07 
 2.1759955852215232e-07  2.2333133695761210e-07  2.2921409585623898e-07  2.3525181218571229e-07 
 2.4144856767076287e-07  2.4780855155257060e-07  2.5433606342084694e-07  2.6103551612051712e-07 
 2.6791143873496588e-07  2.7496847964786725e-07  2.8221140968566175e-07  2.8964512534281398e-07 
 2.9727465209202087e-07  3.0510514778161954e-07  3.1314190612248048e-07  3.2139036026675326e-07 
 3.2985608648087596e-07  3.3854480791533698e-07  3.4746239847373534e-07  3.5661488678375408e-07 
 3.6600846027273524e-07  3.7564946935060556e-07  3.8554443170298825e-07  3.9570003669739526e-07 
 4.0612314990548301e-07  4.1682081774443242e-07  4.2780027224058122e-07  4.3906893591853738e-07 
 4.5063442681907606e-07  4.6250456364921110e-07  4.7468737106792560e-07  4.8719108511113001e-07 
 5.0002415875952306e-07  5.1319526765310857e-07  5.2671331595624386e-07  5.4058744237717322e-07 
 5.5482702634612536e-07  5.6944169435614374e-07  5.8444132647093883e-07  5.9983606300416922e-07 
 6.1563631137465240e-07  6.3185275314215210e-07  6.4849635122849096e-07  6.6557835732887894e-07 
 6.8311031951845492e-07  7.0110409005919549e-07  7.1957183341246371e-07  7.3852603446260958e-07 
 7.5797950695719601e-07  7.7794540216953920e-07  7.9843721778943054e-07  8.1946880704804464e-07 
 8.4105438808320904e-07  8.6320855355135932e-07  8.8594628049267917e-07  9.0928294045609863e-07 
 9.3323430989099085e-07  9.5781658081259594e-07  9.8304637174837682e-07  1.0089407389727146e-06 
 1.0355171880375273e-06  1.0627936856066252e-06  1.0907886716017776e-06  1.1195210716687265e-06 
 1.1490103099715597e-06  1.1792763223240949e-06  1.2103395696671612e-06  1.2422210519008727e-06 
 1.2749423220812591e-06  1.3085255009908424e-06  1.3429932920930173e-06  1.3783689968803351e-06 
 1.4146765306270720e-06  1.4519404385567344e-06  1.4901859124354191e-06  1.5294388076022671e-06 
 1.5697256604484932e-06  1.6110737063568385e-06  1.6535108981135463e-06  1.6970659248053359e-06 
 1.7417682312141209e-06  1.7876480377226025e-06  1.8347363607441847e-06  1.8830650336910238e-06 
 1.9326667284943985e-06  1.9835749776919248e-06  2.0358241970965677e-06  2.0894497090627589e-06 
 2.1444877663653772e-06  2.2009755767076817e-06  2.2589513278748220e-06  2.3184542135498986e-06 
 2.3795244598100101e-06  2.4422033523202564e-06  2.5065332642440103e-06  2.5725576848883732e-06 
 2.6403212491041591e-06  2.7098697674602944e-06  2.7812502572130134e-06  2.8545109740907979e-06 
 2.9297014449165466e-06  3.0068725010890122e-06  3.0860763129461739e-06  3.1673664250337272e-06 
 3.2507977923025732e-06  3.3364268172597356e-06  3.4243113880978922e-06  3.5145109178291844e-06 
 3.6070863844498748e-06  3.7021003721629172e-06  3.7996171136863365e-06  3.8997025336760508e-06 
 4.0024242932924228e-06  4.1078518359407114e-06  4.2160564342163300e-06  4.3271112380866607e-06 
 4.4410913243419574e-06  4.5580737473488126e-06  4.6781375911404396e-06  4.8013640228790377e-06 
 4.9278363477263565e-06  5.0576400651595315e-06  5.1908629267702749e-06  5.3275949955864917e-06 
 5.4679287069564386e-06  5.6119589310365410e-06  5.7597830369251152e-06  5.9115009584853917e-06 
 6.0672152619022607e-06  6.2270312150184857e-06  6.3910568584971767e-06  6.5594030788586608e-06 
 6.7321836834411211e-06  6.9095154773356806e-06  7.0915183423478989e-06  7.2783153180390839e-06 
 7.4700326849021714e-06  7.6668000497284429e-06  7.8687504332227189e-06  8.0760203599262967e-06 
 8.2887499505083808e-06  8.5070830164883895e-06  8.7311671574532165e-06  8.9611538608350828e-06 
 9.1971986043174267e-06  9.4394609609381083e-06  9.6881047069608932e-06  9.9432979325882236e-06 
 1.0205213155589945e-05  1.0474027437924972e-05  1.0749922505434548e-05  1.1033084870688176e-05 
 1.1323705959065057e-05  1.1621982238156383e-05  1.1928115350575884e-05  1.2242312250268404e-05 
 1.2564785342408681e-05  1.2895752626984753e-05  1.3235437846163183e-05  1.3584070635535514e-05 
 1.3941886679348452e-05  1.4309127869822330e-05  1.4686042470665815e-05  1.5072885284897236e-05 
 1.5469917827085900e-05  1.5877408500129990e-05  1.6295632776690247e-05  1.6724873385402270e-05 
 1.7165420501993102e-05  1.7617571945431480e-05  1.8081633379243966e-05  1.8557918518133333e-05 
 1.9046749340038662e-05  1.9548456303780317e-05  2.0063378572437342e-05  2.0591864242607597e-05 
 2.1134270579705978e-05  2.1690964259459623e-05  2.2262321615763228e-05  2.2848728895061809e-05 
 2.3450582517433355e-05  2.4068289344546936e-05  2.4702266954678034e-05  2.5352943924966511e-05 
 2.6020760121108114e-05  2.6706166994675173e-05  2.7409627888267300e-05  2.8131618348698453e-05 
 2.8872626448431599e-05  2.9633153115478669e-05  3.0413712471988181e-05  3.1214832181749458e-05 
 3.2037053806848244e-05  3.2880933173714642e-05  3.3747040748810468e-05  3.4635962024210270e-05 
 3.5548297913335798e-05  3.6484665157111639e-05  3.7445696740816752e-05  3.8432042321912462e-05 
 3.9444368669136849e-05  4.0483360113161450e-05  4.1549719009115238e-05  4.2644166211287613e-05 
 4.3767441560331521e-05  4.4920304383295631e-05  4.6103534006822833e-05  4.7317930283862633e-05 
 4.8564314134251703e-05  4.9843528099529022e-05  5.1156436912359376e-05  5.2503928080949997e-05 
 5.3886912488854956e-05  5.5306325010572378e-05  5.6763125143349905e-05  5.8258297655624930e-05 
 5.9792853252538034e-05  6.1367829258967860e-05  6.2984290320549426e-05  6.4643329123148586e-05 
 6.6346067131278650e-05  6.8093655345957216e-05  6.9887275082515133e-05  7.1728138768882414e-05 
 7.3617490764889295e-05  7.5556608203137043e-05  7.7546801852003910e-05  7.9589417001369782e-05 
 8.1685834371657216e-05  8.3837471046801829e-05  8.6045781431781838e-05  8.8312258235352323e-05 
 9.0638433478648262e-05  9.3025879530334764e-05  9.5476210169005875e-05  9.7991081673545278e-05 
 1.0057219394218618e-04  1.0322129164102511e-04  1.0594016538276371e-04  1.0873065293647339e-04 
 1.1159464046919886e-04  1.1453406382023814e-04  1.1755090980895618e-04  1.2064721757701788e-04 
 1.2382507996594038e-04  1.2708664493089666e-04  1.3043411699172240e-04  1.3386975872210338e-04 
 1.3739589227794793e-04  1.4101490096597440e-04  1.4472923085356892e-04  1.4854139242099956e-04 
 1.5245396225710119e-04  1.5646958479956951e-04  1.6059097412103940e-04  1.6482091576214993e-04 
 1.6916226861282964e-04  1.7361796684306935e-04  1.7819102188448241e-04  1.8288452446398645e-04 
 1.8770164669097315e-04  1.9264564419937689e-04  1.9771985834607592e-04  2.0292771846711031e-04 
 2.0827274419323301e-04  2.1375854782635232e-04  2.1938883677846306e-04  2.2516741607470669e-04 
 2.3109819092224492e-04  2.3718516934666974e-04  2.4343246489773004e-04  2.4984429942618240e-04 
 2.5642500593364064e-04  2.6317903149733577e-04  2.7011094027174843e-04  2.7722541656913544e-04 
 2.8452726802101269e-04  2.9202142882272212e-04  2.9971296306325430e-04  3.0760706814257096e-04 
 3.1570907827870904e-04  3.2402446810702570e-04  3.3255885637399792e-04  3.4131800972804906e-04 
 3.5030784660994849e-04  3.5953444124538756e-04  3.6900402774241100e-04  3.7872300429644083e-04 
 3.8869793750572043e-04  3.9893556680005606e-04  4.0944280898582553e-04  4.2022676291029613e-04 
 4.3129471424836725e-04  4.4265414041494330e-04  4.5431271560621644e-04  4.6627831597323074e-04 
 4.7855902493117993e-04  4.9116313860799235e-04  5.0409917143582955e-04  5.1737586188923526e-04 
 5.3100217837376491e-04  5.4498732526901412e-04  5.5934074913008259e-04  5.7407214505159553e-04 
 5.8919146319853192e-04  6.0470891550819055e-04  6.2063498256777216e-04  6.3698042067213481e-04 
 6.5375626906641912e-04  6.7097385737835565e-04  6.8864481324519187e-04  7.0678107014028873e-04 
 7.2539487540459015e-04  7.4449879848828375e-04  7.6410573940810284e-04  7.8422893742589113e-04 
 8.0488197995414335e-04  8.2607881169443308e-04  8.4783374401474867e-04  8.7016146457193652e-04 
 8.9307704718559879e-04  9.1659596196994996e-04  9.4073408573030982e-04  9.6550771263106494e-04 
 9.9093356514213865e-04  1.0170288052711233e-03  1.0438110460884780e-03  1.0712983635533340e-03 
 1.0995093086476569e-03  1.1284629198267120e-03  1.1581787357939602e-03  1.1886768086087412e-03 
 1.2199777171352680e-03  1.2521025808417397e-03  1.2850730739584954e-03  1.3189114400044505e-03 
 1.3536405066912267e-03  1.3892837012146365e-03  1.4258650659434229e-03  1.4634092745153817e-03 
 1.5019416483512708e-03  1.5414881735971132e-03  1.5820755185058364e-03  1.6237310512693631e-03 
 1.6664828583125991e-03  1.7103597630610278e-03  1.7553913451938850e-03  1.8016079603951803e-03 
 1.8490407606151277e-03  1.8977217148548457e-03  1.9476836304874615e-03  1.9989601751291232e-03 
 2.0515858990736613e-03  2.1055962583050166e-03  2.1610276381018507e-03  2.2179173772490990e-03 
 2.2763037928715487e-03  2.3362262059048672e-03  2.3977249672198792e-03  2.4608414844161678e-03 
 2.5256182493015819e-03  2.5920988660743821e-03  2.6603280802253242e-03  2.7303518081772263e-03 
 2.8022171676800019e-03  2.8759725089794854e-03  2.9516674467787857e-03  3.0293528930112916e-03 
 3.1090810904447850e-03  3.1909056471366853e-03  3.2748815717605502e-03  3.3610653098246749e-03 
 3.4495147808038190e-03  3.5402894162055824e-03  3.6334501985933105e-03  3.7290597015878718e-03 
 3.8271821308709926e-03  3.9278833662132065e-03  4.0312310045500744e-03  4.1372944041303790e-03 
 4.2461447297607218e-03  4.3578549991711525e-03  4.4725001305268791e-03  4.5901569911114869e-03 
 4.7109044472074552e-03  4.8348234152001150e-03  4.9619969139314641e-03  5.0925101183307720e-03 
 5.2264504143489056e-03  5.3639074552239334e-03  5.5049732191055677e-03  5.6497420680664502e-03 
 5.7983108085283624e-03  5.9507787531317509e-03  6.1072477840770816e-03  6.2678224179665860e-03 
 6.4326098721753612e-03  6.6017201327803650e-03  6.7752660240763644e-03  6.9533632797074878e-03 
 7.1361306154432268e-03  7.3236898036273734e-03  7.5161657493283711e-03  7.7136865682191740e-03 
 7.9163836662143969e-03  8.1243918208923054e-03  8.3378492647283829e-03  8.5568977701669709e-03 
 8.7816827365565942e-03  9.0123532789739644e-03  9.2490623189606502e-03  9.4919666771955472e-03 
 9.7412271681250572e-03  9.9970086965716441e-03  1.0259480356340306e-02  1.0528815530840523e-02 
 1.0805191995739880e-02  1.1088792023663696e-02  1.1379802490952764e-02  1.1678414986489244e-02 
 1.1984825922598228e-02  1.2299236648029970e-02  1.2621853563024595e-02  1.2952888236458578e-02 
 1.3292557525068256e-02  1.3641083694742396e-02  1.3998694543871948e-02  1.4365623528740854e-02 
 1.4742109890937093e-02  1.5128398786758793e-02  1.5524741418584582e-02  1.5931395168172088e-02 
 1.6348623731843072e-02  1.6776697257506235e-02  1.7215892483463738e-02  1.7666492878939025e-02 
 1.8128788786257042e-02  1.8603077564599613e-02  1.9089663735250641e-02  1.9588859128236887e-02 
 2.0100983030261116e-02  2.0626362333814634e-02  2.1165331687345912e-02  2.1718233646351746e-02 
 2.2285418825246046e-02  2.2867246049850083e-02  2.3464082510335705e-02  2.4076303914440801e-02 
 2.4704294640763364e-02  2.5348447891926969e-02  2.6009165847397427e-02  2.6686859815714992e-02 
 2.7381950385893500e-02  2.8094867577722196e-02  2.8826050990690969e-02  2.9575949951245111e-02 
 3.0345023658059345e-02  3.1133741325007173e-02  3.1942582321483205e-02  3.2772036309724792e-02 
 3.3622603378759920e-02  3.4494794174596978e-02  3.5389130026254656e-02  3.6306143067219493e-02 
 3.7246376351901908e-02  3.8210383966651919e-02  3.9198731134883188e-02  4.0211994315843623e-02 
 4.1250761296563680e-02  4.2315631276503056e-02  4.3407214944414810e-02  4.4526134546939426e-02 
 4.5673023948442103e-02  4.6848528681605967e-02  4.8053305988299856e-02  4.9288024850243327e-02 
 5.0553366009004196e-02  5.1850021974875003e-02  5.3178697024191611e-02  5.4540107184678194e-02 
 5.5934980208426424e-02  5.7364055532144159e-02  5.8828084224341409e-02  6.0327828919156536e-02 
 6.1864063736566402e-02  6.3437574188765278e-02  6.5049157072546854e-02  6.6699620347572236e-02 
 6.8389783000458657e-02  7.0120474894678722e-02  7.1892536606318821e-02  7.3706819245793712e-02 
 7.5564184265678014e-02  7.7465503254861470e-02  7.9411657719286766e-02  8.1403538849569482e-02 
 8.3442047275835596e-02  8.5528092810133086e-02  8.7662594176787872e-02  8.9846478731062523e-02 
 9.2080682166454098e-02  9.4366148210910994e-02  9.6703828312171072e-02  9.9094681312309182e-02 
 1.0153967311142756e-01  1.0403977632023008e-01  1.0659596990097207e-01  1.0920923879597695e-01 
 1.1188057354255371e-01  1.1461096987270818e-01  1.1740142829554878e-01  1.2025295365969620e-01 
 1.2316655469234362e-01  1.2614324351085004e-01  1.2918403510190241e-01  1.3228994676232975e-01 
 1.3546199749460161e-01  1.3870120734890165e-01  1.4200859670241611e-01  1.4538518546514465e-01 
 1.4883199220012044e-01  1.5235003314442877e-01  1.5594032111586656e-01  1.5960386428849352e-01 
 1.6334166481872445e-01  1.6715471730202472e-01  1.7104400703874983e-01  1.7501050808622898e-01 
 1.7905518107291662e-01  1.8317897074936346e-01  1.8738280324995166e-01  1.9166758303888459e-01 
 1.9603418951389295e-01  2.0048347324160065e-01  2.0501625179957667e-01  2.0963330520189244e-01 
 2.1433537088758781e-01  2.1912313825493601e-01  2.2399724272888366e-01  2.2895825935460140e-01 
 2.3400669591681886e-01  2.3914298559256414e-01  2.4436747915416654e-01  2.4968043674986040e-01 
 2.5508201930112162e-01  2.6057227956878004e-01  2.6615115295401132e-01  2.7181844811520295e-01 
 2.7757383749727788e-01  2.8341684788593385e-01  2.8934685111508374e-01  2.9536305507101696e-01 
 3.0146449515087215e-01  3.0765002634525435e-01  3.1391831612443949e-01  3.2026783831377847e-01 
 3.2669686814567517e-01  3.3320347867194389e-01  3.3978553871043354e-01  3.4644071248259400e-01 
 3.5316646107322130e-01  3.5996004580919061e-01  3.6681853360996886e-01  3.7373880430869810e-01 
 3.8071755987875144e-01  3.8775133542721807e-01  3.9483651173480722e-01  4.0196932903270299e-01 
 4.0914590161326242e-01  4.1636223277617340e-01  4.2361422951866967e-01  4.3089771629238188e-01 
 4.3820844707595558e-01  4.4554211495803797e-01  4.5289435839656833e-01  4.6026076332489091e-01 
 4.6763686032051993e-01  4.7501811614562328e-01  4.8239991911587382e-01  4.8977755796130057e-01 
 4.9714619411215760e-01  5.0450082767477000e-01  5.1183625775347896e-01  5.1914703821732300e-01 
 5.2642743049106822e-01  5.3367135545100020e-01  5.4087234700171782e-01  5.4802351037012209e-01 
 5.5511748854010068e-01  5.6214644052440876e-01  5.6910203528390613e-01  5.7597546501251751e-01 
 5.8275748116486847e-01  5.8943845597423805e-01  5.9600847126338807e-01  6.0245743507773231e-01 
 6.0877522507812432e-01  6.1495185575474176e-01  6.2097766443116076e-01  6.2684350882090745e-01 
 6.3254096671678217e-01  6.3806252641109029e-01  6.4340175486903395e-01  6.4855342973649899e-01 
 6.5351362119407430e-01  6.5827971069695890e-01  6.6285033595522014e-01  6.6722525523600340e-01 
 6.7140512923783302e-01  6.7539122529824025e-01  6.7918505629393888e-01  6.8278797484402620e-01 
 6.8620075171070993e-01  6.8942317481067439e-01  6.9245371105945197e-01  6.9528927634088744e-01 
 6.9792515819615197e-01  7.0035513045425424e-01  7.0257178833306633e-01  7.0456711629900182e-01 
 7.0633327953048564e-01  7.0786360423699302e-01  7.0915368418478952e-01  7.1020252321498478e-01 
 7.1101359965474809e-01  7.1159572214242528e-01  7.1196354144905505e-01  7.1213759293093581e-01 
 7.1214377184003408e-01  7.1201218973758995e-01  7.1177542329181742e-01  7.1146624259852542e-01 
 7.1111498764765402e-01  7.1074683866079158e-01  7.1037928662976813e-01  7.1002014155590942e-01 
 7.0966640570078932e-01  7.0930427896919412e-01  7.0891045041641121e-01  7.0845466877114338e-01 
 7.0790339013669190e-01  7.0722409661482444e-01  7.0638969749861302e-01  7.0538382494356311e-01 
 7.0420372956903987e-01  7.0284930470753604e-01  7.0132058530750929e-01  6.9961774805466748e-01 
 6.9774111132409533e-01  6.9569113496139223e-01  6.9346841989881547e-01  6.9107370761244424e-01 
 6.8850787942639413e-01  6.8577195567006999e-01  6.8286709469443008e-01  6.7979459175314016e-01 
 6.7655587775438919e-01  6.7315251788896613e-01  6.6958621013998609e-01  6.6585878367936646e-01 
 6.6197219715581579e-01  6.5792853687867248e-01  6.5373001490144811e-01  6.4937896700835562e-01 
 6.4487785060646063e-01  6.4022924252536262e-01  6.3543583672552240e-01  6.3050044191547616e-01 
 6.2542597907723552e-01  6.2021547889819229e-01  6.1487207910681063e-01  6.0939902170832216e-01 
 6.0379965011558512e-01  5.9807740616921423e-01  5.9223582704008437e-01  5.8627854200637541e-01 
 5.8020926909652026e-01  5.7403181158872651e-01  5.6775005435727677e-01  5.6136796005554301e-01 
 5.5488956512568188e-01  5.4831897562529497e-01  5.4166036286203101e-01  5.3491795882816273e-01 
 5.2809605142864646e-01  5.2119897949806981e-01  5.1423112760421386e-01  5.0719692063869837e-01 
 5.0010081819832208e-01  4.9294730876418436e-01  4.8574090368946810e-01  4.7848613101076137e-01 
 4.7118752910192596e-01  4.6384964019368513e-01  4.5647700378617351e-01  4.4907414998557205e-01 
 4.4164559279949406e-01  4.3419582342890273e-01  4.2672930359689476e-01  4.1925045895660329e-01 
 4.1176367262164826e-01  4.0427327886296827e-01  3.9678355701543566e-01  3.8929872563639445e-01 
 3.8182293695617525e-01  3.7436027165776942e-01  3.6691473401925329e-01  3.5949024744830194e-01 
 3.5209065043335458e-01  3.4471969293075821e-01  3.3738103320167240e-01  3.3007823510676298e-01 
 3.2281476586089003e-01  3.1559399424420603e-01  3.0841918926043643e-01  3.0129351922773207e-01 
 2.9422005128242884e-01  2.8720175127141639e-01  2.8024148400466670e-01  2.7334201383584500e-01 
 2.6650600553586651e-01  2.5973602542179564e-01  2.5303454270161641e-01  2.4640393099415037e-01 
 2.3984646998274686e-01  2.3336434716130725e-01  2.2695965963172940e-01  2.2063441591292587e-01 
 2.1439053772317324e-01  2.0822986169964811e-01  2.0215414102157536e-01  1.9616504690641173e-01 
 1.9026416995188131e-01  1.8445302130042404e-01  1.7873303360666506e-01  1.7310556179281664e-01 
 1.6757188358142636e-01  1.6213319979952504e-01  1.5679063445294214e-01  1.5154523457427740e-01 
 1.4639796985266595e-01  1.4134973205798407e-01  1.3640133427643020e-01  1.3155350997840515e-01 
 1.2680691194324537e-01  1.2216211106854793e-01  1.1761959509452216e-01  1.1317976727595033e-01 
 1.0884294503590307e-01  1.0460935863630617e-01  1.0047914990078372e-01  9.6452371024908196e-02 
 9.2528983508089455e-02  8.8708857239859953e-02  8.4991769771308998e-02  8.1377405799935063e-02 
 7.7865356893288981e-02  7.4455121473538832e-02  7.1146105081578204e-02  6.7937620935595119e-02 
 6.4828890795203001e-02  6.1819046138371553e-02  5.8907129654567153e-02  5.6092097053771564e-02 
 5.3372819187461659e-02  5.0748084474243879e-02  4.8216601619692781e-02  4.5777002617070732e-02 
 4.3427846013036293e-02  4.1167620420192529e-02  3.8994748256398815e-02  3.6907589689167838e-02 
 3.4904446762195167e-02  3.2983567680108017e-02  3.1143151226865715e-02  2.9381351292874766e-02 
 2.7696281485782528e-02  2.6086019800060315e-02  2.4548613320860686e-02  2.3082082938208185e-02 
 2.1684428048338728e-02  2.0353631219914563e-02  1.9087662803887975e-02  1.7884485466946990e-02 
 1.6742058629729158e-02  1.5658342792315968e-02  1.4631303730903820e-02  1.3658916550969669e-02 
 1.2739169583697358e-02  1.1870068113888800e-02  1.1049637929041468e-02  1.0275928680718274e-02 
 9.5470170507585116e-03  8.8610097162699648e-03  8.2160461086951547e-03  7.6103009635523043e-03 
 7.0419866587083969e-03  6.5093553402422203e-03  6.0107008360966111e-03  5.5443603587965896e-03 
 5.1087159995220682e-03  4.7021960167676876e-03  4.3232759236968444e-03  3.9704793791010533e-03 
 3.6423788876089576e-03  3.3375963154514631e-03  3.0548032286810281e-03  2.7927210612646762e-03 
 2.5501211209229499e-03  2.3258244409721132e-03  2.1187014867459909e-03  1.9276717254289233e-03 
 1.7517030683244384e-03  1.5898111947177723e-03  1.4410587665668788e-03  1.3045545432786314e-03 
 1.1794524057975944e-03  1.0649502991568098e-03  9.6028910251668342e-04  8.6475143555249227e-04 
 7.7766040984642926e-04  6.9837833369981814e-04  6.2630537850849838e-04  5.6087821454273493e-04 
 5.0156862364571708e-04  4.4788209601509337e-04  3.9935641786334973e-04  3.5556025636839894e-04 
 3.1609174792870742e-04  2.8057709533069685e-04  2.4866917902304679e-04  2.2004618727573501e-04 
 1.9441026958397879e-04  1.7148621726125816e-04  1.5102017475383459e-04  1.3277838480390774e-04 
 1.1654597019195628e-04  1.0212575440287296e-04  8.9337123187030430e-05  7.8014928628043970e-05 
 6.8008436985171535e-05  5.9180321251270187e-05  5.1405699058086198e-05  4.4571216270279718e-05 
 3.8574176338675528e-05  3.3321715232310601e-05  2.8730021538261528e-05  2.4723601108152752e-05 
 2.1234585440679720e-05  1.8202082820282705e-05  1.5571571082984769e-05  1.3294330750928392e-05 
 1.1326917166757333e-05  9.6306701670194697e-06  8.1712597594428799e-06  6.9182662113982163e-06 
 5.8447929151673256e-06  4.9271103687896424e-06  4.1443295982014569e-06  3.4781033460293910e-06 
 2.9123533636338980e-06  2.4330221646943622e-06  2.0278476296568255e-06  1.6861588896112144e-06 
 1.3986919645300867e-06  1.1574236832187598e-06  9.5542246976857829e-07  7.8671464278860704e-07 
 6.4616493828600123e-07  5.2937010157239620e-07  4.3256478983414625e-07  3.5253635297992522e-07 
 2.8655146167172756e-07  2.3229086224259633e-07  1.8779196300420053e-07  1.5139852878637856e-07 
 1.2171673178595754e-07  9.7576868358143581e-08  7.8000110281311512e-08  6.2169715059575922e-08 
 4.9406172844939202e-08  3.9145817459443981e-08  3.0922475720300480e-08  2.4351772801074292e-08 
 1.9117751719843389e-08  1.4961502282842494e-08  1.1671529009050549e-08  9.0756188200773698e-09 
 7.0339977220955050e-09  5.4335914688865878e-09  4.1832284249776832e-09  3.2096437007686043e-09 
 2.4541622676207503e-09  1.8699553421374036e-09  1.4197790168511182e-09  1.0741170681809432e-09 
 8.0966124640018634e-10  6.0807229522126703e-10  4.5497360225366722e-10  3.3913687998798865e-10 
 2.5182574561859406e-10  1.8626862361691544e-10  1.3723714516047938e-10  1.0071026192587182e-10 
 7.3607718083709340e-11  5.3579414665116248e-11  3.8839627592660720e-11  2.8037069523250508e-11 
 2.0153473812364316e-11  1.4424777117479802e-11  1.0280129863414829e-11  7.2949097095153885e-12 
 5.1546858239233890e-12  3.6277100824615053e-12  2.5440200598982378e-12  1.7796490655196645e-12 
 0.0000000000000000e+00  0.0000000000000000e+00  0.0000000000000000e+00  0.0000000000000000e+00 
 0.0000000000000000e+00  0.0000000000000000e+00  0.0000000000000000e+00  0.0000000000000000e+00 
 0.0000000000000000e+00  0.0000000000000000e+00  0.0000000000000000e+00  0.0000000000000000e+00 
 0.0000000000000000e+00  0.0000000000000000e+00  0.0000000000000000e+00  0.0000000000000000e+00 
 0.0000000000000000e+00  0.0000000000000000e+00  0.0000000000000000e+00  0.0000000000000000e+00 
 0.0000000000000000e+00  0.0000000000000000e+00  0.0000000000000000e+00  0.0000000000000000e+00 
 0.0000000000000000e+00  0.0000000000000000e+00  0.0000000000000000e+00  0.0000000000000000e+00 
 0.0000000000000000e+00  0.0000000000000000e+00  0.0000000000000000e+00  0.0000000000000000e+00 
 0.0000000000000000e+00  0.0000000000000000e+00  0.0000000000000000e+00  0.0000000000000000e+00 
 0.0000000000000000e+00  0.0000000000000000e+00  0.0000000000000000e+00  0.0000000000000000e+00 
 0.0000000000000000e+00  0.0000000000000000e+00  0.0000000000000000e+00  0.0000000000000000e+00 
 0.0000000000000000e+00  0.0000000000000000e+00  0.0000000000000000e+00  0.0000000000000000e+00 
 0.0000000000000000e+00  0.0000000000000000e+00  0.0000000000000000e+00  0.0000000000000000e+00 
 0.0000000000000000e+00  0.0000000000000000e+00  0.0000000000000000e+00  0.0000000000000000e+00 
 0.0000000000000000e+00  0.0000000000000000e+00  0.0000000000000000e+00  0.0000000000000000e+00 
 0.0000000000000000e+00  0.0000000000000000e+00  0.0000000000000000e+00  0.0000000000000000e+00 
 0.0000000000000000e+00  0.0000000000000000e+00  0.0000000000000000e+00  0.0000000000000000e+00 
 0.0000000000000000e+00  0.0000000000000000e+00  0.0000000000000000e+00  0.0000000000000000e+00 
 0.0000000000000000e+00  0.0000000000000000e+00 
</PP_PSWFC>


<PP_RHOATOM>
 1.2753629606506187e-09  1.3089572346643508e-09  1.3434364139314395e-09  1.3788238077069141e-09 
 1.4151433392342914e-09  1.4524195619186553e-09  1.4906776759257369e-09  1.5299435452182425e-09 
 1.5702437150409337e-09  1.6116054298662832e-09  1.6540566518128343e-09  1.6976260795487260e-09 
 1.7423431676931544e-09  1.7882381467288910e-09  1.8353420434393098e-09  1.8836867018837660e-09 
 1.9333048049254674e-09  1.9842298963264295e-09  2.0364964034244308e-09  2.0901396604072956e-09 
 2.1451959322002668e-09  2.2017024389825770e-09  2.2596973813498263e-09  2.3192199661391654e-09 
 2.3803104329347302e-09  2.4430100812712759e-09  2.5073612985543748e-09  2.5734075887160671e-09 
 2.6411936016253458e-09  2.7107651632733018e-09  2.7821693067534598e-09  2.8554543040580908e-09 
 2.9306696987121250e-09  3.0078663392666627e-09  3.0870964136747657e-09  3.1684134845726950e-09 
 3.2518725254905655e-09  3.3375299580167708e-09  3.4254436899414176e-09  3.5156731544044633e-09 
 3.6082793500750684e-09  3.7033248823893639e-09  3.8008740058743877e-09  3.9009926675869937e-09 
 4.0037485516968906e-09  4.1092111252441288e-09  4.2174516851018567e-09  4.3285434061761468e-09 
 4.4425613908754745e-09  4.5595827198832772e-09  4.6796865042679150e-09  4.8029539389653108e-09 
 4.9294683576703476e-09  5.0593152891742229e-09  5.1925825151857595e-09  5.3293601296758373e-09 
 5.4697405997850393e-09  5.6138188283356592e-09  5.7616922179903669e-09  5.9134607371009408e-09 
 6.0692269872914998e-09  6.2290962728219817e-09  6.3931766717787827e-09  6.5615791091406156e-09 
 6.7344174317690419e-09  6.9118084853743990e-09  7.0938721935090818e-09  7.2807316386416212e-09 
 7.4725131453663886e-09  7.6693463658051760e-09  7.8713643672583734e-09  8.0787037221650264e-09 
 8.2915046004325129e-09  8.5099108641984298e-09  8.7340701650886155e-09  8.9641340440370591e-09 
 9.2002580337352783e-09  9.4426017637803560e-09  9.6913290685928054e-09  9.9466080981770367e-09 
 1.0208611431799613e-08  1.0477516194661832e-08  1.0753504177645779e-08  1.1036761960214626e-08 
 1.1327481036550374e-08  1.1625857945014278e-08  1.1932094401017461e-08  1.2246397433391715e-08 
 1.2568979524352295e-08  1.2900058753147961e-08  1.3239858943494671e-08  1.3588609814893205e-08 
 1.3946547137932712e-08  1.4313912893685168e-08  1.4690955437298887e-08  1.5077929665900945e-08 
 1.5475097190923049e-08  1.5882726514966342e-08  1.6301093213325554e-08  1.6730480120294665e-08 
 1.7171177520380394e-08  1.7623483344552582e-08  1.8087703371664363e-08  1.8564151435178094e-08 
 1.9053149635336931e-08  1.9555028556925603e-08  2.0070127492767433e-08  2.0598794673108805e-08 
 2.1141387501046168e-08  2.1698272794155057e-08  2.2269827032483652e-08  2.2856436613079750e-08 
 2.3458498111222289e-08  2.4076418548534385e-08  2.4710615668159542e-08  2.5361518217186230e-08 
 2.6029566236512857e-08  2.6715211358348262e-08  2.7418917111549338e-08  2.8141159235002176e-08 
 2.8882425999258585e-08  2.9643218536645591e-08  3.0424051180070908e-08  3.1225451810753651e-08 
 3.2047962215115516e-08  3.2892138451073650e-08  3.3758551223982574e-08  3.4647786272480353e-08 
 3.5560444764498538e-08  3.6497143703705147e-08  3.7458516346654159e-08  3.8445212630924818e-08 
 3.9457899614539469e-08  4.0497261926957284e-08  4.1564002231949267e-08  4.2658841702666734e-08 
 4.3782520509225529e-08  4.4935798319134990e-08  4.6119454810910211e-08  4.7334290201215613e-08 
 4.8581125785894970e-08  4.9860804495255515e-08  5.1174191463979923e-08  5.2522174616053331e-08 
 5.3905665265099285e-08  5.5325598730532366e-08  5.6782934969942370e-08  5.8278659228139618e-08 
 5.9813782703299065e-08  6.1389343230654253e-08  6.3006405984203450e-08  6.4666064196902906e-08 
 6.6369439899833799e-08  6.8117684680843118e-08  6.9911980463172073e-08  7.1753540304597899e-08 
 7.3643609217630033e-08  7.5583465011315859e-08  7.7574419155224586e-08  7.9617817666194685e-08 
 8.1715042018443832e-08  8.3867510077657651e-08  8.6076677059689383e-08  8.8344036514517695e-08 
 9.0671121336130646e-08  9.3059504799016067e-08  9.5510801621962522e-08  9.8026669059888629e-08 
 1.0060880802444016e-07  1.0325896423411314e-07  1.0597892939468026e-07  1.0877054241072135e-07 
 1.1163569062907548e-07  1.1457631111505697e-07  1.1759439196229909e-07  1.2069197363711170e-07 
 1.2387115035826230e-07  1.2713407151311424e-07  1.3048294311108093e-07  1.3392002927537896e-07 
 1.3744765377409014e-07  1.4106820159156926e-07  1.4478412054125931e-07  1.4859792292100778e-07 
 1.5251218721200382e-07  1.5652955982248482e-07  1.6065275687739563e-07  1.6488456605520860e-07 
 1.6922784847315026e-07  1.7368554062211053e-07  1.7826065635254219e-07  1.8295628891269944e-07 
 1.8777561304059011e-07  1.9272188711106339e-07  1.9779845533948198e-07  2.0300875004347424e-07 
 2.0835629396429756e-07  2.1384470264938114e-07  2.1947768689766882e-07  2.2525905526941024e-07 
 2.3119271666210538e-07  2.3728268295434655e-07  2.4353307171934525e-07  2.4994810900998653e-07 
 2.5653213221729581e-07  2.6328959300425092e-07  2.7022506031693382e-07  2.7734322347505691e-07 
 2.8464889534396019e-07  2.9214701559022887e-07  2.9984265402313258e-07  3.0774101402416135e-07 
 3.1584743606697169e-07  3.2416740133013392e-07  3.3270653540512940e-07  3.4147061210210950e-07 
 3.5046555735599822e-07  3.5969745323558405e-07  3.6917254205832396e-07  3.7889723061364201e-07 
 3.8887809449759649e-07  3.9912188256184382e-07  4.0963552147993036e-07  4.2042612043399382e-07 
 4.3150097592506624e-07  4.4286757671023606e-07  4.5453360887002099e-07  4.6650696100938587e-07 
 4.7879572959594225e-07  4.9140822443894660e-07  5.0435297431281941e-07  5.1763873272899671e-07 
 5.3127448386004472e-07  5.4526944862004116e-07  5.5963309090537570e-07  5.7437512400018373e-07 
 5.8950551715078206e-07  6.0503450231355776e-07  6.2097258108091677e-07  6.3733053178996423e-07 
 6.5411941681878486e-07  6.7135059007525153e-07  6.8903570468346741e-07  7.0718672087307030e-07 
 7.2581591407674957e-07  7.4493588324149502e-07  7.6455955935922276e-07  7.8470021422258873e-07 
 8.0537146941193309e-07  8.2658730551948897e-07  8.4836207161711830e-07  8.7071049497402715e-07 
 8.9364769103107330e-07  9.1718917363846102e-07  9.4135086556379684e-07  9.6614910927764883e-07 
 9.9160067802399187e-07  1.0177227871830427e-06  1.0445331059342613e-06  1.0720497692274560e-06 
 1.1002913900701504e-06  1.1292770721396190e-06  1.1590264227281567e-06  1.1895595660304526e-06 
 1.2208971567821109e-06  1.2530603942586551e-06  1.2860710366445464e-06  1.3199514157820646e-06 
 1.3547244523100946e-06  1.3904136712031943e-06  1.4270432177215594e-06  1.4646378737827755e-06 
 1.5032230747665827e-06  1.5428249267641309e-06  1.5834702242835584e-06  1.6251864684239774e-06 
 1.6680018855303588e-06  1.7119454463420607e-06  1.7570468856481562e-06  1.8033367224630151e-06 
 1.8508462807359917e-06  1.8996077106094148e-06  1.9496540102394880e-06  2.0010190481950925e-06 
 2.0537375864498280e-06  2.1078453039831775e-06  2.1633788210069461e-06  2.2203757238336762e-06 
 2.2788745904041646e-06  2.3389150164916128e-06  2.4005376426005278e-06  2.4637841815788049e-06 
 2.5286974469621768e-06  2.5953213820704526e-06  2.6637010898756822e-06  2.7338828636629032e-06 
 2.8059142185045786e-06  2.8798439235705717e-06  2.9557220352959443e-06  3.0335999314295667e-06 
 3.1135303459871040e-06  3.1955674051326324e-06  3.2797666640137271e-06  3.3661851445756101e-06 
 3.4548813743806212e-06  3.5459154264599343e-06  3.6393489602253156e-06  3.7352452634693314e-06 
 3.8336692954832445e-06  3.9346877313226868e-06  4.0383690072519924e-06  4.1447833673988170e-06 
 4.2540029116517837e-06  4.3661016448345105e-06  4.4811555271904754e-06  4.5992425262141090e-06 
 4.7204426698644338e-06  4.8448381011985113e-06  4.9725131344632133e-06  5.1035543126846102e-06 
 5.2380504667955693e-06  5.3760927763432382e-06  5.5177748318191332e-06  5.6631926986559387e-06 
 5.8124449829361251e-06  5.9656328988590013e-06  6.1228603380138780e-06  6.2842339405085101e-06 
 6.4498631680033552e-06  6.6198603787034244e-06  6.7943409043613337e-06  6.9734231293461717e-06 
 7.1572285718348275e-06  7.3458819671836085e-06  7.5395113535400093e-06  7.7382481597557175e-06 
 7.9422272956642758e-06  8.1515872447879201e-06  8.3664701595406087e-06  8.5870219589957562e-06 
 8.8133924292892682e-06  9.0457353267304262e-06  9.2842084836955322e-06  9.5289739173808708e-06 
 9.7801979414943174e-06  1.0038051280966736e-05  1.0302709189766920e-05  1.0574351571906195e-05 
 1.0853163105721423e-05  1.1139333371527313e-05  1.1433056982732130e-05  1.1734533720513379e-05 
 1.2043968672152800e-05  1.2361572373133062e-05  1.2687560953101566e-05  1.3022156285809731e-05 
 1.3365586143139496e-05  1.3718084353332189e-05  1.4079890963537694e-05  1.4451252406806554e-05 
 1.4832421673649849e-05  1.5223658488296837e-05  1.5625229489783097e-05  1.6037408418006875e-05 
 1.6460476304894545e-05  1.6894721670821109e-05  1.7340440726436100e-05  1.7797937580049012e-05 
 1.8267524450734054e-05  1.8749521887318347e-05  1.9244258993423134e-05  1.9752073658732085e-05 
 2.0273312796667430e-05  2.0808332588658641e-05  2.1357498735195333e-05  2.1921186713862378e-05 
 2.2499782044559207e-05  2.3093680562114653e-05  2.3703288696513151e-05  2.4329023760955633e-05 
 2.4971314247985779e-05  2.5630600133919570e-05  2.6307333191823216e-05  2.7001977313292676e-05 
 2.7715008839297107e-05  2.8446916900354960e-05  2.9198203766322220e-05  2.9969385206080155e-05 
 3.0760990857420063e-05  3.1573564607431708e-05  3.2407664983712311e-05  3.3263865556724171e-05 
 3.4142755353638442e-05  3.5044939284016077e-05  3.5971038577685512e-05  3.6921691235192228e-05 
 3.7897552491205339e-05  3.8899295291280707e-05  3.9927610782393465e-05  4.0983208817666172e-05 
 4.2066818475734894e-05  4.3179188595209139e-05  4.4321088324698756e-05  4.5493307688895609e-05 
 4.6696658171217127e-05  4.7931973313534166e-05  4.9200109333525520e-05  5.0501945760220461e-05 
 5.1838386088309463e-05  5.3210358451825500e-05  5.4618816317817478e-05  5.6064739200663961e-05 
 5.7549133397692002e-05  5.9073032746797517e-05  6.0637499406782119e-05  6.2243624661153079e-05 
 6.3892529746155705e-05  6.5585366703838996e-05  6.7323319260983690e-05  6.9107603734751497e-05 
 7.0939469965950250e-05  7.2820202280836433e-05  7.4751120482418587e-05  7.6733580872255486e-05 
 7.8768977303784221e-05  8.0858742268250964e-05  8.3004348014357939e-05  8.5207307702784774e-05 
 8.7469176596783257e-05  8.9791553290095795e-05  9.2176080973490831e-05  9.4624448741263123e-05 
 9.7138392939097863e-05  9.9719698554750217e-05  1.0237020065305524e-04  1.0509178585683397e-04 
 1.0788639387533240e-04  1.1075601908188818e-04  1.1370271214259387e-04  1.1672858169778927e-04 
 1.1983579609829648e-04  1.2302658519838173e-04  1.2630324220751587e-04  1.2966812560307993e-04 
 1.3312366110626098e-04  1.3667234372346414e-04  1.4031673985567144e-04  1.4405948947827268e-04 
 1.4790330839399888e-04  1.5185099056169924e-04  1.5590541050381556e-04  1.6006952579552584e-04 
 1.6434637963865640e-04  1.6873910352358754e-04  1.7325091998251699e-04  1.7788514543758358e-04 
 1.8264519314750748e-04  1.8753457625655056e-04  1.9255691094976818e-04  1.9771591971869126e-04 
 2.0301543474175214e-04  2.0845940138395711e-04  2.1405188182049408e-04  2.1979705878917531e-04 
 2.2569923947681625e-04  2.3176285954488315e-04  2.3799248729995876e-04  2.4439282801482935e-04 
 2.5096872840624294e-04  2.5772518127564948e-04  2.6466733031951334e-04  2.7180047511607527e-04 
 2.7913007629573941e-04  2.8666176090257821e-04  2.9440132795478162e-04  3.0235475421220469e-04 
 3.1052820015954857e-04  3.1892801621406807e-04  3.2756074916710619e-04  3.3643314886915032e-04 
 3.4555217516855257e-04  3.5492500511449191e-04  3.6455904043522757e-04  3.7446191530319053e-04 
 3.8464150439896885e-04  3.9510593128676730e-04  4.0586357711450534e-04  4.1692308965227988e-04 
 4.2829339268354882e-04  4.3998369576401798e-04  4.5200350436389183e-04  4.6436263040983643e-04 
 4.7707120324375703e-04  4.9013968101621955e-04  5.0357886253317202e-04  5.1739989957544938e-04 
 5.3161430971140422e-04  5.4623398962393101e-04  5.6127122897409306e-04  5.7673872482455544e-04 
 5.9264959664707072e-04  6.0901740193935387e-04  6.2585615247778468e-04  6.4318033123361479e-04 
 6.6100490998153628e-04  6.7934536763080962e-04  6.9821770931046160e-04  7.1763848624150305e-04 
 7.3762481643057883e-04  7.5819440622098807e-04  7.7936557273867427e-04  8.0115726727239143e-04 
 8.2358909962907604e-04  8.4668136350726363e-04  8.7045506293330084e-04  8.9493193980713670e-04 
 9.2013450260654663e-04  9.4608605630085987e-04  9.7281073352753120e-04  1.0003335270873217e-03 
 1.0286803238163298e-03  1.0578779398957598e-03  1.0879541576630572e-03  1.1189377639908957e-03 
 1.1508585903035097e-03  1.1837475543030344e-03  1.2176367034817757e-03  1.2525592604997865e-03 
 1.2885496705107862e-03  1.3256436505231577e-03  1.3638782408868279e-03  1.4032918590009080e-03 
 1.4439243553414209e-03  1.4858170719129562e-03  1.5290129032329567e-03  1.5735563599623744e-03 
 1.6194936353017284e-03  1.6668726742772569e-03  1.7157432460476081e-03  1.7661570193678409e-03 
 1.8181676413538748e-03  1.8718308196975430e-03  1.9272044084894667e-03  1.9843484978147347e-03 
 2.0433255072943579e-03  2.1042002837539072e-03  2.1670402032099097e-03  2.2319152773737890e-03 
 2.2988982648834157e-03  2.3680647874828038e-03  2.4394934513817753e-03  2.5132659740393051e-03 
 2.5894673166268782e-03  2.6681858224415211e-03  2.7495133615523656e-03  2.8335454819796739e-03 
 2.9203815677211128e-03  3.0101250039570649e-03  3.1028833497846880e-03  3.1987685188495938e-03 
 3.2978969682641562e-03  3.4003898962230421e-03  3.5063734487493976e-03  3.6159789360292686e-03 
 3.7293430588177584e-03  3.8466081454273941e-03  3.9679223998384718e-03  4.0934401615015424e-03 
 4.2233221774348574e-03  4.3577358872539055e-03  4.4968557218066181e-03  4.6408634161261512e-03 
 4.7899483374537781e-03  4.9443078291272948e-03  5.1041475711750099e-03  5.2696819585031059e-03 
 5.4411344976134307e-03  5.6187382228409296e-03  5.8027361331541129e-03  5.9933816506185572e-03 
 6.1909391016821812e-03  6.3956842225019886e-03  6.6079046895950897e-03  6.8279006771611150e-03 
 7.0559854424900714e-03  7.2924859409369720e-03  7.5377434720134071e-03  7.7921143582155078e-03 
 8.0559706582768991e-03  8.3297009166044527e-03  8.6137109507217584e-03  8.9084246786117951e-03 
 9.2142849879124078e-03  9.5317546489782998e-03  9.8613172738767300e-03  1.0203478323433365e-02 
 1.0558766164484472e-02  1.0927733179524243e-02  1.1310956930956798e-02  1.1709041382171100e-02 
 1.2122618177652049e-02  1.2552347984317754e-02  1.2998921896233636e-02  1.3463062904791507e-02 
 1.3945527436357411e-02  1.4447106959280557e-02  1.4968629662017667e-02  1.5510962203955651e-02 
 1.6075011540313468e-02  1.6661726822264290e-02  1.7272101373141870e-02  1.7907174741278460e-02 
 1.8568034829663065e-02  1.9255820102207156e-02  1.9971721865961512e-02  2.0716986628139623e-02 
 2.1492918526274770e-02  2.2300881829268628e-02  2.3142303506484704e-02  2.4018675861404958e-02 
 2.4931559225707542e-02  2.5882584708949913e-02  2.6873456998365575e-02  2.7905957202612217e-02 
 2.8981945732674711e-02  3.0103365212532738e-02  3.1272243411686509e-02  3.2490696191215043e-02 
 3.3760930454756706e-02  3.5085247095681726e-02  3.6466043931817634e-02  3.7905818619427878e-02 
 3.9407171538784105e-02  4.0972808644660588e-02  4.2605544276467330e-02  4.4308303924582529e-02 
 4.6084126951788790e-02  4.7936169271620893e-02  4.9867705988924212e-02  5.1882134012044848e-02 
 5.3982974650844430e-02  5.6173876220137392e-02  5.8458616674194802e-02  6.0841106304560660e-02 
 6.3325390540519250e-02  6.5915652898990845e-02  6.8616218138244117e-02  7.1431555677356678e-02 
 7.4366283350527473e-02  7.7425171571790838e-02  8.0613147990944295e-02  8.3935302725095223e-02 
 8.7396894251554502e-02  9.1003356046226697e-02  9.4760304046469693e-02  9.8673545007881697e-02 
 1.0274908580987357e-01  1.0699314374446017e-01  1.1141215779578041e-01  1.1601280088379952e-01 
 1.2080199300405506e-01  1.2578691514587792e-01  1.3097502381427917e-01  1.3637406591597168e-01 
 1.4199209369852586e-01  1.4783747935464303e-01  1.5391892882271402e-01  1.6024549423256867e-01 
 1.6682658436462666e-01  1.7367197241525145e-01  1.8079180029546105e-01  1.8819657863943198e-01 
 1.9589718166937736e-01  2.0390483606088866e-01  2.1223110298476888e-01  2.2088785257499882e-01 
 2.2988723019519447e-01  2.3924161405442948e-01  2.4896356396372341e-01  2.5906576133086684e-01 
 2.6956094086539695e-01  2.8046181490548039e-01  2.9178099177770245e-01  3.0353089014673063e-01 
 3.1572365188487544e-01  3.2837105656385990e-01  3.4148444120579136e-01  3.5507462938153445e-01 
 3.6915187405799194e-01  3.8372581871004496e-01  3.9880548106308356e-01  4.1439926335377808e-01 
 4.3051499213206212e-01  4.4715998933202422e-01  4.6434117459134072e-01  4.8206519660622460e-01 
 5.0033858871920933e-01  5.1916794104354913e-01  5.3856007837503039e-01  5.5852223012609659e-01 
 5.7906217578509511e-01  6.0018834724458991e-01  6.2190986807747906e-01  6.4423650980256730e-01 
 6.6717854669895904e-01  6.9074649409372357e-01  7.1495072048599850e-01  7.3980093150581849e-01 
 7.6530553351232444e-01  7.9147089639030366e-01  8.1830054832948385e-01  8.4579434928334429e-01 
 8.7394770326801430e-01  9.0275088117400748e-01  9.3218853348582265e-01  9.6223947416569033e-01 
 9.9287681085102908e-01  1.0240684805940470e+00  1.0557782234377313e+00  1.0879669880622482e+00 
 1.1205947159401450e+00  1.1536223961057679e+00  1.1870142268641508e+00  1.2207396702995850e+00 
 1.2547751481618619e+00  1.2891051117010948e+00  1.3237222305175327e+00  1.3586264917237842e+00 
 1.3938230829257257e+00  1.4293190492312018e+00  1.4651188600266103e+00  1.5012191855106327e+00 
 1.5376033511907332e+00  1.5742360911706188e+00  1.6110593338076913e+00  1.6479897981352409e+00 
 1.6849191271135509e+00  1.7217171090812204e+00  1.7582382283301392e+00  1.7943313474327776e+00 
 1.8298517955670925e+00  1.8646745900765875e+00  1.8987092829064809e+00  1.9319010263294647e+00 
 1.9641997755030247e+00  1.9955534748865629e+00  2.0259071748341508e+00  2.0552024400812439e+00 
 2.0833771879376721e+00  2.1103660803999160e+00  2.1361015640402741e+00  2.1605156032400203e+00 
 2.1835420868040667e+00  2.2051198083898527e+00  2.2251958335560218e+00  2.2437289796012565e+00 
 2.2606930602554907e+00  2.2760794986897928e+00  2.2898989019748468e+00  2.3021812284111061e+00 
 2.3129742718241797e+00  2.3223403331872250e+00  2.3303511413728755e+00  2.3370813053359099e+00 
 2.3426008068276705e+00  2.3469672483172088e+00  2.3502187251240825e+00  2.3523682637226244e+00 
 2.3534007320773815e+00  2.3532729607987015e+00  2.3519175045855896e+00  2.3492500280096729e+00 
 2.3451797496576159e+00  2.3396217870036642e+00  2.3325097060947666e+00  2.3238105111325780e+00 
 2.3135326868840194e+00  2.3016950379213217e+00  2.2883195540812089e+00  2.2734313413842449e+00 
 2.2570585425704945e+00  2.2392322476019229e+00  2.2199863945473788e+00  2.1993576613068493e+00 
 2.1773853486699539e+00  2.1541112552387931e+00  2.1295795447775747e+00  2.1038366065803071e+00 
 2.0769309094733432e+00  2.0489128500914884e+00  2.0198345960846953e+00  1.9897499249269637e+00 
 1.9587140590099026e+00  1.9267834977105491e+00  1.8940158471264501e+00  1.8604696481708081e+00 
 1.8262042037167134e+00  1.7912794054723378e+00  1.7557555612585007e+00  1.7196932233465394e+00 
 1.6831530184979528e+00  1.6461954803283052e+00  1.6088808845963793e+00  1.5712690879959146e+00 
 1.5334193710018211e+00  1.4953902852955814e+00  1.4572395062661041e+00  1.4190236910527414e+00 
 1.3807983425667967e+00  1.3426176798969045e+00  1.3045345154723043e+00  1.2666001393264990e+00 
 1.2288642107721950e+00  1.1913746577668456e+00  1.1541775842166824e+00  1.1173171854357342e+00 
 1.0808356719450356e+00  1.0447732017658842e+00  1.0091678213294897e+00  9.7405541509351956e-01 
 9.3946966392372300e-01  9.0544201226571719e-01  8.7200164409814129e-01  8.3917546762338313e-01 
 8.0698810861599513e-01  7.7546191231162087e-01  7.4461695368081160e-01  7.1447105589266502e-01 
 6.8503981673295788e-01  6.5633664270074310e-01  6.2837279046664896e-01  6.0115741533589573e-01 
 5.7469762631991828e-01  5.4899854738314091e-01  5.2406338439656075e-01  4.9989349729807736e-01 
 4.7648847693162771e-01  4.5384622601376712e-01  4.3196304365795413e-01  4.1083371287382420e-01 
 3.9045159045160083e-01  3.7080869864059174e-01  3.5189581803555209e-01  3.3370258109547452e-01 
 3.1621756573584625e-01  2.9942838845728359e-01  2.8332179650021294e-01  2.6788375854641938e-01 
 2.5309955352317332e-01  2.3895385710362699e-01  2.2543082553755406e-01  2.1251417648857326e-01 
 2.0018726659707753e-01  1.8843316553151412e-01  1.7723472633380749e-01  1.6657465190702742e-01 
 1.5643555753436483e-01  1.4680002935763770e-01  1.3765067878056250e-01  1.2897019279655236e-01 
 1.2074138027262793e-01  1.1294721424996287e-01  1.0557087034751994e-01  9.8595761378102553e-02 
 9.2005568305936883e-02  8.5784267691640603e-02  7.9916155784192797e-02  7.4385869430395005e-02 
 6.9178403980434178e-02  6.4279128373672251e-02  5.9673797591865405e-02  5.5348562667846296e-02 
 5.1289978436476071e-02  4.7485009211606775e-02  4.3921032568096090e-02  4.0585841401805663e-02 
 3.7467644433220378e-02  3.4555065312055273e-02  3.1837140471199024e-02  2.9303315868779982e-02 
 2.6943442747236694e-02  2.4747772528217638e-02  2.2706950952098962e-02  2.0812011561051828e-02 
 1.9054368615050422e-02  1.7425809521106367e-02  1.5918486847442220e-02  1.4524909986349864e-02 
 1.3237936522174032e-02  1.2050763354248196e-02  1.0956917618704137e-02  9.9502474478722052e-03 
 9.0249126014680832e-03  8.1753749998879389e-03  7.3963891866665491e-03  6.6829927444365311e-03 
 6.0304966865059604e-03  5.4344758443829249e-03  4.8907592701577345e-03  4.3954206715431437e-03 
 3.9447688965114081e-03  3.5353384837965691e-03  3.1638802950002768e-03  2.8273522436019641e-03 
 2.5229101357891691e-03  2.2478986376550550e-03  1.9998423829294554e-03  1.7764372349925652e-03 
 1.5755417164494436e-03  1.3951686190053117e-03  1.2334768057683603e-03  1.0887632174139802e-03 
 9.5945509287201261e-04  8.4410241434927321e-04  7.4137058557875854e-04  6.5003335120232054e-04 
 5.6896596415440372e-04  4.9713860683132732e-04  4.3361007071513738e-04  3.7752169798513661e-04 
 3.2809158750621585e-04  2.8460906644304937e-04  2.4642942762498864e-04  2.1296893168928880e-04 
 1.8370007197067694e-04  1.5814709909282653e-04  1.3588180126067665e-04  1.1651953535924362e-04 
 9.9715503140991845e-05  8.5161266035096438e-05  7.2581491442039531e-05  6.1730922788633165e-05 
 5.2391565113362125e-05  4.4370077530315444e-05  3.7495363581306012e-05  3.1616350228452918e-05 
 2.6599946061003501e-05  2.2329169187184244e-05  1.8701435250371615e-05  1.5626996044251471e-05 
 1.3027519298794290e-05  1.0834800362343487e-05  8.9895967091604256e-06  7.4405764504984902e-06 
 6.1433723147290307e-06  5.0597328822847798e-06  4.1567632084019486e-06  3.4062473351968165e-06 
 2.7840455791245556e-06  2.2695598752582028e-06  1.8452608613668222e-06  1.4962707881203946e-06 
 1.2099967429699096e-06  9.7580907083488619e-07  7.8476026159889977e-07  6.2933994991885056e-07 
 5.0326203477067646e-07  4.0128027266598462e-07  3.1902902815256486e-07  2.5288617699362659e-07 
 1.9985545058040924e-07  1.5746578425300890e-07  1.2368548714422518e-07  9.6849287024880128e-08 
 7.5596520732847802e-08  5.8818939608983909e-08  4.5616780588362797e-08  3.5261917972490059e-08 
 2.7167059298702470e-08  2.0860082056178242e-08  1.5962727248502719e-08  1.2172971970013679e-08 
 9.2504972534331079e-09  7.0047504571480585e-09  5.2851743677450681e-09  3.9732389403351443e-09 
 2.9759670880528248e-09  2.2206940174618962e-09  1.6508410906835516e-09  1.2225208246740179e-09 
 9.0182010293428439e-10  6.6263460727229374e-10  4.8494945246425086e-10  3.5347954485768486e-10 
 2.5659875407497856e-10  1.8550000155024290e-10  1.3353919989338853e-10  9.5724948297082415e-11 
 6.8323286202802171e-11  4.8552878128418488e-11  3.4350961441883646e-11  2.4194420476124965e-11 
 1.6963612547375203e-11  1.1839198378078385e-11  8.2243346206821937e-12  5.6862650411755178e-12 
 3.9126792129712565e-12  2.6792595948800459e-12  1.8256644236873099e-12  1.2378399827685026e-12 
 8.3505832105530654e-13  5.6046544372267712e-13  3.7422461301996130e-13  2.4856376978231667e-13 
 1.6422348522124638e-13  1.0791809183244772e-13  7.0531643984727524e-14  4.5843029661191064e-14 
 2.9629925902628907e-14  1.9042490629135893e-14  1.2168034481766781e-14  7.7301469768472347e-15 
 4.8819398474042688e-15  3.0647900571946637e-15  1.9123990131197696e-15  1.1860176788608785e-15 
 7.3097686244691801e-16  4.4769310148430423e-16  2.7244917898253723e-16  1.6473371400783089e-16 
 9.8954247941106684e-17  5.9047832515552850e-17  3.4998800117133742e-17  2.0603625374346897e-17 
 1.2045824872714427e-17  6.9934659636297854e-18  4.0315449135682840e-18  2.3074549523913537e-18 
 1.3111026678752450e-18  7.3950383244350807e-19  4.1400195750014710e-19  2.3002764673783495e-19 
 1.2683241231343506e-19  6.9392000288550382e-20  3.7668068023697999e-20  2.0285113714392707e-20 
 1.0836192322995250e-20  5.7415073517178343e-21  3.0170333430748776e-21  1.5721545349037717e-21 
 8.1232501341151811e-22  4.1614838977800909e-22  2.1136214001737071e-22  1.0643141533997170e-22 
 5.3141571886716076e-23  2.6320560884786554e-23  1.2944076130329532e-23  6.3343015928101128e-24 
 0.0000000000000000e+00  0.0000000000000000e+00  0.0000000000000000e+00  0.0000000000000000e+00 
 0.0000000000000000e+00  0.0000000000000000e+00  0.0000000000000000e+00  0.0000000000000000e+00 
 0.0000000000000000e+00  0.0000000000000000e+00  0.0000000000000000e+00  0.0000000000000000e+00 
 0.0000000000000000e+00  0.0000000000000000e+00  0.0000000000000000e+00  0.0000000000000000e+00 
 0.0000000000000000e+00  0.0000000000000000e+00  0.0000000000000000e+00  0.0000000000000000e+00 
 0.0000000000000000e+00  0.0000000000000000e+00  0.0000000000000000e+00  0.0000000000000000e+00 
 0.0000000000000000e+00  0.0000000000000000e+00  0.0000000000000000e+00  0.0000000000000000e+00 
 0.0000000000000000e+00  0.0000000000000000e+00  0.0000000000000000e+00  0.0000000000000000e+00 
 0.0000000000000000e+00  0.0000000000000000e+00  0.0000000000000000e+00  0.0000000000000000e+00 
 0.0000000000000000e+00  0.0000000000000000e+00  0.0000000000000000e+00  0.0000000000000000e+00 
 0.0000000000000000e+00  0.0000000000000000e+00  0.0000000000000000e+00  0.0000000000000000e+00 
 0.0000000000000000e+00  0.0000000000000000e+00  0.0000000000000000e+00  0.0000000000000000e+00 
 0.0000000000000000e+00  0.0000000000000000e+00  0.0000000000000000e+00  0.0000000000000000e+00 
 0.0000000000000000e+00  0.0000000000000000e+00  0.0000000000000000e+00  0.0000000000000000e+00 
 0.0000000000000000e+00  0.0000000000000000e+00  0.0000000000000000e+00  0.0000000000000000e+00 
 0.0000000000000000e+00  0.0000000000000000e+00  0.0000000000000000e+00  0.0000000000000000e+00 
 0.0000000000000000e+00  0.0000000000000000e+00  0.0000000000000000e+00  0.0000000000000000e+00 
 0.0000000000000000e+00  0.0000000000000000e+00  0.0000000000000000e+00  0.0000000000000000e+00 
 0.0000000000000000e+00  0.0000000000000000e+00 
</PP_RHOATOM>
