  <PP_INFO>

############################################################
#    Opium Parameter File                                  #
############################################################
#-----------------------------------------------------------
#Command line   : opium36 h h.log ae ps nl tc ke rpt upf 
 
#Opium version  : 3.6 
#Compile Host   : whoville2.chem.upenn.edu 
#Compile OS     : Linux 2.6.18-92.1.13.el5 x86_64 
#Compile Date   : Fri Aug  5 14:19:06 EDT 2011 
#-----------------------------------------------------------
#Execution Host : whoville2.chem.upenn.edu 
#Execution Date : Sat May 17 17:46:15 2014
 
#-----------------------------------------------------------
############################################################
[Atom]
H  
1
100   1.00   -

[Pseudo]
1  0.77
opt

[Optinfo]
7.07  10
conmax

[Configs]
1
#
100  1.00  -

[XC]
gga
############################################################
  </PP_INFO>



<PP_HEADER>
   0         Version Number
   H        Element
   NC        Norm - Conserving pseudopotential
    F      Nonlinear Core Correction
SLA  PW   PBE  PBE     PBE  Exchange-Correlation functional
 1          Z valence
 0          Total energy
 0.000000   0.000000     Suggested cutoff for wfc and rho
 0           Max angular momentum component
 1076           Number of points in mesh
 1  0     Number of Wavefuncitons, Number of Projectors
 Wavefunctions         nl  l   occ
                       S  0  1.000000
</PP_HEADER>
<PP_MESH>
  <PP_R>
 1.0000000000000009e-04  1.0130848673598100e-04  1.0263409484734429e-04  1.0397704836501585e-04 
 1.0533757425133653e-04  1.0671590243841930e-04  1.0811226586700835e-04  1.0952690052584657e-04 
 1.1096004549155827e-04  1.1241194296905369e-04  1.1388283833246237e-04  1.1537298016660122e-04 
 1.1688262030898709e-04  1.1841201389239710e-04  1.1996141938798698e-04  1.2153109864897323e-04 
 1.2312131695488691e-04  1.2473234305640662e-04  1.2636444922077788e-04  1.2801791127782709e-04 
 1.2969300866657728e-04  1.3139002448247399e-04  1.3310924552522923e-04  1.3485096234729113e-04 
 1.3661546930294802e-04  1.3840306459807518e-04  1.4021405034053206e-04  1.4204873259121976e-04 
 1.4390742141580487e-04  1.4579043093712282e-04  1.4769807938826447e-04  1.4963068916635846e-04 
 1.5158858688705707e-04  1.5357210343973512e-04  1.5558157404341094e-04  1.5761733830339927e-04 
 1.5967974026870541e-04  1.6176912849017017e-04  1.6388585607937596e-04  1.6603028076832334e-04 
 1.6820276496988870e-04  1.7040367583907284e-04  1.7263338533505100e-04  1.7489227028403496e-04 
 1.7718071244295745e-04  1.7949909856399002e-04  1.8184782045990543e-04  1.8422727507029366e-04 
 1.8663786452864751e-04  1.8907999623032288e-04  1.9155408290138986e-04  1.9406054266838440e-04 
 1.9659979912897279e-04  1.9917228142354049e-04  2.0177842430771809e-04  2.0441866822585585e-04 
 2.0709345938545997e-04  2.0980324983260274e-04  2.1254849752831923e-04  2.1532966642600398e-04 
 2.1814722654982016e-04  2.2100165407413477e-04  2.2389343140399325e-04  2.2682304725664740e-04 
 2.2979099674414833e-04  2.3279778145702385e-04  2.3584390954904680e-04  2.3892989582311488e-04 
 2.4205626181825334e-04  2.4522353589775638e-04  2.4843225333848190e-04  2.5168295642131441e-04 
 2.5497619452281194e-04  2.5831252420805182e-04  2.6169250932469164e-04  2.6511672109826083e-04 
 2.6858573822869904e-04  2.7210014698815797e-04  2.7566054132008256e-04  2.7926752293958902e-04 
 2.8292170143515648e-04  2.8662369437164651e-04  2.9037412739467845e-04  2.9417363433635813e-04 
 2.9802285732240231e-04  3.0192244688065725e-04  3.0587306205103967e-04  3.0987537049691617e-04 
 3.1393004861793999e-04  3.1803778166436417e-04  3.2219926385285028e-04  3.2641519848379292e-04 
 3.3068629806017909e-04  3.3501328440800284e-04  3.3939688879825554e-04  3.4383785207051256e-04 
 3.4833692475813718e-04  3.5289486721512119e-04  3.5751244974458851e-04  3.6219045272897684e-04 
 3.6692966676192469e-04  3.7173089278188344e-04  3.7659494220747774e-04  3.8152263707463791e-04 
 3.8651481017552413e-04  3.9157230519927262e-04  3.9669597687457979e-04  4.0188669111415354e-04 
 4.0714532516105480e-04  4.1247276773695354e-04  4.1786991919232487e-04  4.2333769165861057e-04 
 4.2887700920237127e-04  4.3448880798145590e-04  4.4017403640321518e-04  4.4593365528478301e-04 
 4.5176863801545922e-04  4.5767997072121305e-04  4.6366865243134146e-04  4.6973569524730692e-04 
 4.7588212451378563e-04  4.8210897899195312e-04  4.8841731103503583e-04  4.9480818676616385e-04 
 5.0128268625854676e-04  5.0784190371800861e-04  5.1448694766791168e-04  5.2121894113649930e-04 
 5.2803902184669048e-04  5.3494834240835779e-04  5.4194807051312084e-04  5.4903938913168952e-04 
 5.5622349671378870e-04  5.6350160739069785e-04  5.7087495118044427e-04  5.7834477419567789e-04 
 5.8591233885426708e-04  5.9357892409265070e-04  6.0134582558198113e-04  6.0921435594709673e-04 
 6.1718584498835600e-04  6.2526163990638038e-04  6.3344310552973201e-04  6.4173162454557410e-04 
 6.5012859773334777e-04  6.5863544420150725e-04  6.6725360162735289e-04  6.7598452650000172e-04 
 6.8482969436653755e-04  6.9379060008138227e-04  7.0286875805893013e-04  7.1206570252948490e-04 
 7.2138298779855249e-04  7.3082218850951930e-04  7.4038489990977177e-04  7.5007273812029726e-04 
 7.5988734040881019e-04  7.6983036546645755e-04  7.7990349368813939e-04  7.9010842745650040e-04 
 8.0044689142963607e-04  8.1092063283256426e-04  8.2153142175251086e-04  8.3228105143805784e-04 
 8.4317133860220723e-04  8.5420412372940976e-04  8.6538127138661102e-04  8.7670467053836774e-04 
 8.8817623486608737e-04  8.9979790309144552e-04  9.1157163930403139e-04  9.2349943329328834e-04 
 9.3558330088478988e-04  9.4782528428092054e-04  9.6022745240600970e-04  9.7279190125598963e-04 
 9.8552075425262079e-04  9.9841616260235521e-04  1.0114803056598966e-03  1.0247153912965156e-03 
 1.0381236562731853e-03  1.0517073666185999e-03  1.0654688180121385e-03  1.0794103361718398e-03 
 1.0935342772474552e-03  1.1078430282186428e-03  1.1223390072983728e-03  1.1370246643416129e-03 
 1.1519024812593544e-03  1.1669749724380679e-03  1.1822446851646369e-03  1.1977142000568564e-03 
 1.2133861314995603e-03  1.2292631280864637e-03  1.2453478730677790e-03  1.2616430848036914e-03 
 1.2781515172237679e-03  1.2948759602923797e-03  1.3118192404802109e-03  1.3289842212419398e-03 
 1.3463738035001697e-03  1.3639909261356912e-03  1.3818385664841597e-03  1.3999197408392737e-03 
 1.4182375049625340e-03  1.4367949545996764e-03  1.4555952260038561e-03  1.4746414964656878e-03 
 1.4939369848502118e-03  1.5134849521408911e-03  1.5332887019907217e-03  1.5533515812805640e-03 
 1.5736769806847699e-03  1.5942683352442148e-03  1.6151291249468290e-03  1.6362628753157228e-03 
 1.6576731580050087e-03  1.6793635914034201e-03  1.7013378412458265e-03  1.7235996212327520e-03 
 1.7461526936579997e-03  1.7690008700444878e-03  1.7921480117884068e-03  1.8155980308118052e-03 
 1.8393548902237082e-03  1.8634226049899017e-03  1.8878052426114643e-03  1.9125069238121891e-03 
 1.9375318232349881e-03  1.9628841701474268e-03  1.9885682491564750e-03  2.0145884009326151e-03 
 2.0409490229434282e-03  2.0676545701967747e-03  2.0947095559937026e-03  2.1221185526912050e-03 
 2.1498861924749593e-03  2.1780171681421790e-03  2.2065162338947065e-03  2.2353882061424838e-03 
 2.2646379643175398e-03  2.2942704516986248e-03  2.3242906762466304e-03  2.3547037114509586e-03 
 2.3855146971869445e-03  2.4167288405845130e-03  2.4483514169081864e-03  2.4803877704486308e-03 
 2.5128433154258433e-03  2.5457235369041736e-03  2.5790339917193083e-03  2.6127803094173948e-03 
 2.6469681932064421e-03  2.6816034209201818e-03  2.7166918459945325e-03  2.7522393984568457e-03 
 2.7882520859280942e-03  2.8247359946381744e-03  2.8616972904544932e-03  2.8991422199240178e-03 
 2.9370771113289458e-03  2.9755083757562165e-03  3.0144425081809873e-03  3.0538860885643082e-03 
 3.0938457829651385e-03  3.1343283446669417e-03  3.1753406153189989e-03  3.2168895260926622e-03 
 3.2589820988527438e-03  3.3016254473442240e-03  3.3448267783944934e-03  3.3885933931313227e-03 
 3.4329326882167714e-03  3.4778521570972406e-03  3.5233593912698839e-03  3.5694620815655879e-03 
 3.6161680194487416e-03  3.6634850983340152e-03  3.7114213149203527e-03  3.7599847705424537e-03 
 3.8091836725399038e-03  3.8590263356442422e-03  3.9095211833841568e-03  3.9606767495091021e-03 
 4.0125016794315084e-03  4.0650047316878810e-03  4.1181947794190132e-03  4.1720808118695689e-03 
 4.2266719359072870e-03  4.2819773775620617e-03  4.3380064835851643e-03  4.3947687230288671e-03 
 4.4522736888467380e-03  4.5105310995148650e-03  4.5695508006743102e-03  4.6293427667950474e-03 
 4.6899171028616524e-03  4.7512840460810970e-03  4.8134539676128445e-03  4.8764373743216101e-03 
 4.9402449105530235e-03  5.0048873599325815e-03  5.0703756471880846e-03  5.1367208399959469e-03 
 5.2039341508516605e-03  5.2720269389647349e-03  5.3410107121784284e-03  5.4108971289146025e-03 
 5.4816980001440221e-03  5.5534252913824371e-03  5.6260911247127902e-03  5.6997077808338559e-03 
 5.7742877011357384e-03  5.8498434898024768e-03  5.9263879159421849e-03  6.0039339157450635e-03 
 6.0824945946696468e-03  6.1620832296576545e-03  6.2427132713778286e-03  6.3243983464991325e-03 
 6.4071522599936700e-03  6.4909889974697878e-03  6.5759227275356599e-03  6.6619678041938179e-03 
 6.7491387692670121e-03  6.8374503548558159e-03  6.9269174858283839e-03  7.0175552823427897e-03 
 7.1093790624023791e-03  7.2024043444445180e-03  7.2966468499632868e-03  7.3921225061664248e-03 
 7.4888474486670721e-03  7.5868380242107257e-03  7.6861107934378782e-03  7.7866825336828102e-03 
 7.8885702418089922e-03  7.9917911370816063e-03  8.0963626640776169e-03  8.2023024956339816e-03 
 8.3096285358343833e-03  8.4183589230350606e-03  8.5285120329302404e-03  8.6401064816576667e-03 
 8.7531611289447843e-03  8.8676950812960637e-03  8.9837276952220626e-03  9.1012785805106855e-03 
 9.2203676035413386e-03  9.3410148906423584e-03  9.4632408314924144e-03  9.5870660825664224e-03 
 9.7125115706265287e-03  9.8395984962587873e-03  9.9683483374561101e-03  1.0098782853248105e-02 
 1.0230924087378371e-02  1.0364794372029992e-02  1.0500416331599699e-02  1.0637812886521455e-02 
 1.0777007257140056e-02  1.0918022967635433e-02  1.1060883849998291e-02  1.1205614048057772e-02 
 1.1352238021561833e-02  1.1500780550310950e-02  1.1651266738346041e-02  1.1803722018191054e-02 
 1.1958172155151141e-02  1.2114643251667057e-02  1.2273161751726526e-02  1.2433754445333348e-02 
 1.2596448473034972e-02  1.2761271330509315e-02  1.2928250873211563e-02  1.3097415321081872e-02 
 1.3268793263314560e-02  1.3442413663189759e-02  1.3618305862968281e-02  1.3796499588850531e-02 
 1.3977024956000301e-02  1.4159912473634306e-02  1.4345193050178329e-02  1.4532897998490767e-02 
 1.4723059041154653e-02  1.4915708315838799e-02  1.5110878380729151e-02  1.5308602220031199e-02 
 1.5508913249544386e-02  1.5711845322309459e-02  1.5917432734329714e-02  1.6125710230367116e-02 
 1.6336713009814187e-02  1.6550476732642871e-02  1.6767037525431110e-02  1.6986431987468315e-02 
 1.7208697196940757e-02  1.7433870717197843e-02  1.7661990603100437e-02  1.7893095407452202e-02 
 1.8127224187515136e-02  1.8364416511610297e-02  1.8604712465805005e-02  1.8848152660687449e-02 
 1.9094778238229977e-02  1.9344630878742185e-02  1.9597752807914991e-02  1.9854186803956883e-02 
 2.0113976204823532e-02  2.0377164915542020e-02  2.0643797415630844e-02  2.0913918766617141e-02 
 2.1187574619652150e-02  2.1464811223226354e-02  2.1745675430985611e-02  2.2030214709649516e-02 
 2.2318477147033396e-02  2.2610511460175255e-02  2.2906367003569114e-02  2.3206093777505921e-02 
 2.3509742436523876e-02  2.3817364297969067e-02  2.4129011350668243e-02  2.4444736263715065e-02 
 2.4764592395371290e-02  2.5088633802084460e-02  2.5416915247623559e-02  2.5749492212334243e-02 
 2.6086420902515072e-02  2.6427758259916632e-02  2.6773561971364740e-02  2.7123890478509674e-02 
 2.7478802987702961e-02  2.7838359480003381e-02  2.8202620721313909e-02  2.8571648272651302e-02 
 2.8945504500550088e-02  2.9324252587602542e-02  2.9707956543136859e-02  3.0096681214034776e-02 
 3.0490492295690879e-02  3.0889456343115275e-02  3.1293640782181546e-02  3.1703113921021910e-02 
 3.2117944961571394e-02  3.2538204011263235e-02  3.2963962094877015e-02  3.3395291166542260e-02 
 3.3832264121898666e-02  3.4274954810415738e-02  3.4723438047873478e-02  3.5177789629006445e-02 
 3.5638086340313263e-02  3.6104405973033687e-02  3.6576827336295560e-02  3.7055430270433627e-02 
 3.7540295660482906e-02  3.8031505449848339e-02  3.8529142654153463e-02  3.9033291375270222e-02 
 3.9544036815532410e-02  4.0061465292135057e-02  4.0585664251722241e-02  4.1116722285165802e-02 
 4.1654729142537303e-02  4.2199775748276179e-02  4.2751954216556060e-02  4.3311357866852328e-02 
 4.3878081239713311e-02  4.4452220112737882e-02  4.5033871516762095e-02  4.5623133752257614e-02 
 4.6220106405944775e-02  4.6824890367622822e-02  4.7437587847220762e-02  4.8058302392070935e-02 
 4.8687138904408782e-02  4.9324203659101569e-02  4.9969604321609122e-02  5.0623449966179519e-02 
 5.1285851094282908e-02  5.1956919653286561e-02  5.2636769055374073e-02  5.3325514196712546e-02 
 5.4023271476870145e-02  5.4730158818487945e-02  5.5446295687209143e-02  5.6171803111869034e-02 
 5.6906803704949147e-02  5.7651421683299099e-02  5.8405782889129537e-02  5.9170014811279606e-02 
 5.9944246606763132e-02  6.0728609122596311e-02  6.1523234917911174e-02  6.2328258286358421e-02 
 6.3143815278803334e-02  6.3970043726318759e-02  6.4807083263478824e-02  6.5655075351957609e-02 
 6.6514163304436241e-02  6.7384492308823471e-02  6.8266209452792506e-02  6.9159463748639238e-02 
 7.0064406158465695e-02  7.0981189619693019e-02  7.1909969070908158e-02  7.2850901478048957e-02 
 7.3804145860931814e-02  7.4769863320126098e-02  7.5748217064181000e-02  7.6739372437207840e-02 
 7.7743496946823698e-02  7.8760760292460597e-02  7.9791334394045163e-02  8.0835393421053420e-02 
 8.1893113821945876e-02  8.2964674353987855e-02  8.4050256113459551e-02  8.5150042566262144e-02 
 8.6264219578923773e-02  8.7392975450011443e-02  8.8536500941953894e-02  8.9694989313280959e-02 
 9.0868636351284740e-02  9.2057640405108027e-02  9.3262202419265944e-02  9.4482525967605702e-02 
 9.5718817287711533e-02  9.6971285315759034e-02  9.8240141721825949e-02  9.9525600945664885e-02 
 1.0082788023294420e-01  1.0214719967196298e-01  1.0348378223084655e-01  1.0483785379522864e-01 
 1.0620964320642626e-01  1.0759938230011500e-01  1.0900730594550938e-01  1.1043365208505650e-01 
 1.1187866177464877e-01  1.1334257922436299e-01  1.1482565183973242e-01  1.1632813026355893e-01 
 1.1785026841827230e-01  1.1939232354884328e-01  1.2095455626625931e-01  1.2253723059156788e-01 
 1.2414061400049688e-01  1.2576497746865864e-01  1.2741059551734540e-01  1.2907774625992416e-01 
 1.3076671144883834e-01  1.3247777652322493e-01  1.3421123065715376e-01  1.3596736680849936e-01 
 1.3774648176845108e-01  1.3954887621167161e-01  1.4137485474711176e-01  1.4322472596948999e-01 
 1.4509880251144575e-01  1.4699740109637516e-01  1.4892084259195801e-01  1.5086945206438479e-01 
 1.5284355883329431e-01  1.5484349652742915e-01  1.5686960314101961e-01  1.5892222109090576e-01 
 1.6100169727440650e-01  1.6310838312794623e-01  1.6524263468644834e-01  1.6740481264350604e-01 
 1.6959528241234001e-01  1.7181441418755483e-01  1.7406258300770228e-01  1.7634016881866382e-01 
 1.7864755653786238e-01  1.8098513611931430e-01  1.8335330261953250e-01  1.8575245626429202e-01 
 1.8818300251626918e-01  1.9064535214356518e-01  1.9313992128912782e-01  1.9566713154108001e-01 
 1.9822741000396935e-01  2.0082118937094978e-01  2.0344890799690776e-01  2.0611100997254528e-01 
 2.0880794519943233e-01  2.1154016946604137e-01  2.1430814452477603e-01  2.1711233817000952e-01 
 2.1995322431714212e-01  2.2283128308269426e-01  2.2574700086544736e-01  2.2870087042864645e-01 
 2.3169339098327815e-01  2.3472506827243875e-01  2.3779641465680593e-01  2.4090794920122841e-01 
 2.4406019776245008e-01  2.4725369307798051e-01  2.5048897485612881e-01  2.5376658986721584e-01 
 2.5708709203597940e-01  2.6045104253518919e-01  2.6385900988048616e-01  2.6731157002646311e-01 
 2.7080930646400170e-01  2.7435281031888503e-01  2.7794268045169851e-01  2.8157952355903876e-01 
 2.8526395427604700e-01  2.8899659528028371e-01  2.9277807739696265e-01  2.9660903970556179e-01 
 3.0049012964782945e-01  3.0442200313720313e-01  3.0840532466966081e-01  3.1244076743602217e-01 
 3.1652901343571999e-01  3.2067075359205760e-01  3.2486668786897971e-01  3.2911752538936578e-01 
 3.3342398455487426e-01  3.3778679316735377e-01  3.4220668855184389e-01  3.4668441768118424e-01 
 3.5122073730225517e-01  3.5581641406386955e-01  3.6047222464633816e-01  3.6518895589273082e-01 
 3.6996740494185432e-01  3.7480837936297123e-01  3.7971269729228074e-01  3.8468118757118558e-01 
 3.8971468988636837e-01  3.9481405491170057e-01  3.9998014445200930e-01  4.0521383158872110e-01 
 4.1051600082741951e-01  4.1588754824732554e-01  4.2132938165273798e-01  4.2684242072645445e-01 
 4.3242759718519991e-01  4.3808585493708918e-01  4.4381815024114957e-01  4.4962545186893083e-01 
 4.5550874126822999e-01  4.6146901272895835e-01  4.6750727355117883e-01  4.7362454421534195e-01 
 4.7982185855474974e-01  4.8610026393027567e-01  4.9246082140737152e-01  4.9890460593538960e-01 
 5.0543270652925287e-01  5.1204622645349740e-01  5.1874628340873219e-01  5.2553400972052944e-01 
 5.3241055253079117e-01  5.3937707399161916e-01  5.4643475146172138e-01  5.5358477770538828e-01 
 5.6082836109407264e-01  5.6816672581060768e-01  5.7560111205609654e-01  5.8313277625950910e-01 
 5.9076299129002197e-01  5.9849304667213599e-01  6.0632424880360891e-01  6.1425792117624001e-01 
 6.2229540459954313e-01  6.3043805742734682e-01  6.3868725578736052e-01  6.4704439381373857e-01 
 6.5551088388269940e-01  6.6408815685121569e-01  6.7277766229883396e-01  6.8158086877265656e-01 
 6.9049926403553019e-01  6.9953435531748087e-01  7.0868766957043972e-01  7.1796075372630108e-01 
 7.2735517495835822e-01  7.3687252094615907e-01  7.4651440014382775e-01  7.5628244205189710e-01 
 7.6617829749269872e-01  7.7620363888935495e-01  7.8636016054842328e-01  7.9664957894623756e-01 
 8.0707363301899826e-01  8.1763408445665109e-01  8.2833271800062525e-01  8.3917134174545360e-01 
 8.5015178744434583e-01  8.6127591081875965e-01  8.7254559187202185e-01  8.8396273520705337e-01 
 8.9552927034825169e-01  9.0724715206758511e-01  9.1911836071495401e-01  9.3114490255287430e-01 
 9.4332881009554104e-01  9.5567214245232768e-01  9.6817698567578092e-01  9.8084545311416826e-01 
 9.9367968576863897e-01  1.0066818526550583e+00  1.0198541511705785e+00  1.0331988074649960e+00 
 1.0467180768169886e+00  1.0604142440152533e+00  1.0742896237446451e+00  1.0883465609773628e+00 
 1.1025874313692561e+00  1.1170146416613154e+00  1.1316306300864183e+00  1.1464378667813961e+00 
 1.1614388542044931e+00  1.1766361275582875e+00  1.1920322552181470e+00  1.2076298391662907e+00 
 1.2234315154315292e+00  1.2394399545347607e+00  1.2556578619402960e+00  1.2720879785130861e+00 
 1.2887330809819397e+00  1.3055959824087866e+00  1.3226795326641052e+00  1.3399866189085492e+00 
 1.3575201660808867e+00  1.3752831373923209e+00  1.3932785348272816e+00  1.4115093996507655e+00 
 1.4299788129223197e+00  1.4486898960167454e+00  1.4676458111516200e+00  1.4868497619217182e+00 
 1.5063049938404276e+00  1.5260147948882476e+00  1.5459824960684667e+00  1.5662114719701090e+00 
 1.5867051413382491e+00  1.6074669676517872e+00  1.6285004597087882e+00  1.6498091722194659e+00 
 1.6713967064069539e+00  1.6932667106159107e+00  1.7154228809291001e+00  1.7378689617920389e+00 
 1.7606087466458167e+00  1.7836460785681969e+00  1.8069848509231055e+00  1.8306290080186185e+00 
 1.8545825457735610e+00  1.8788495123928250e+00  1.9034340090515272e+00  1.9283401905881159e+00 
 1.9535722662065502e+00  1.9791345001876646e+00  2.0050312126098424e+00  2.0312667800791191e+00 
 2.0578456364688447e+00  2.0847722736690013e+00  2.1120512423453675e+00  2.1396871527085768e+00 
 2.1676846752932559e+00  2.1960485417473588e+00  2.2247835456318250e+00  2.2538945432307034e+00 
 2.2833864543718745e+00  2.3132642632585152e+00  2.3435330193114394e+00  2.3741978380224622e+00 
 2.4052639018189317e+00  2.4367364609395690e+00  2.4686208343217739e+00  2.5009224105005354e+00 
 2.5336466485191091e+00  2.5667990788516062e+00  2.6003853043376641e+00  2.6344110011293194e+00 
 2.6688819196503184e+00  2.7038038855679352e+00  2.7391828007775278e+00  2.7750246443999722e+00 
 2.8113354737921470e+00  2.8481214255706435e+00  2.8853887166488654e+00  2.9231436452877055e+00 
 2.9613925921599638e+00  3.0001420214286982e+00  3.0393984818396822e+00  3.0791686078281595e+00 
 3.1194591206400788e+00  3.1602768294680010e+00  3.2016286326018677e+00  3.2435215185948296e+00 
 3.2859625674443356e+00  3.3289589517886422e+00  3.3725179381190458e+00  3.4166468880079099e+00 
 3.4613532593527978e+00  3.5066446076368720e+00  3.5525285872057903e+00  3.5990129525613077e+00 
 3.6461055596718071e+00  3.6938143672999750e+00  3.7421474383478524e+00  3.7911129412194833e+00 
 3.8407191512013958e+00  3.8909744518611444e+00  3.9418873364641533e+00  3.9934664094090979e+00 
 4.0457203876820689e+00  4.0986581023297637e+00  4.1522884999519629e+00  4.2066206442134950e+00 
 4.2616637173760630e+00  4.3174270218500395e+00  4.3739199817666030e+00  4.4311521445704374e+00 
 4.4891331826332745e+00  4.5478728948885490e+00  4.6073812084874364e+00  4.6676681804765714e+00 
 4.7287439994977083e+00  4.7906189875096290e+00  4.8533036015325752e+00  4.9168084354155122e+00 
 4.9811442216265149e+00  5.0463218330665773e+00  5.1123522849071614e+00  5.1792467364517885e+00 
 5.2470164930219934e+00  5.3156730078679164e+00  5.3852278841039860e+00  5.4556928766698318e+00 
 5.5270798943169117e+00  5.5994010016211160e+00  5.6726684210217098e+00  5.7468945348869562e+00 
 5.8220918876067635e+00  5.8982731877127188e+00  5.9754513100258579e+00  6.0536392978325431e+00 
 6.1328503650888102e+00  6.2130978986535537e+00  6.2943954605509438e+00  6.3767567902624371e+00 
 6.4601958070487830e+00  6.5447266123024104e+00  6.6303634919306118e+00  6.7171209187698446e+00 
 6.8050135550317465e+00  6.8940562547810398e+00  6.9842640664459115e+00  7.0756522353612370e+00 
 7.1682362063450755e+00  7.2620316263088815e+00  7.3570543469018714e+00  7.4533204271899889e+00 
 7.5508461363699260e+00  7.6496479565186526e+00  7.7497425853789341e+00  7.8511469391812811e+00 
 7.9538781555028386e+00  8.0579535961636761e+00  8.1633908501609742e+00  8.2702077366416091e+00 
 8.3784223079136471e+00  8.4880528524971623e+00  8.5991178982151357e+00  8.7116362153246421e+00 
 8.8256268196890737e+00  8.9411089759918774e+00  9.0581022009923302e+00  9.1766262668239094e+00 
 9.2967012043358395e+00  9.4183473064783509e+00  9.5415851317322353e+00  9.6664355075832784e+00 
 9.7929195340421540e+00  9.9210585872103785e+00  1.0050874322892922e+01  1.0182388680258086e+01 
 1.0315623885545284e+01  1.0450602455821322e+01  1.0587347202785857e+01  1.0725881236626556e+01 
 1.0866227969924878e+01  1.1008411121612793e+01  1.1152454720981343e+01  1.1298383111741661e+01 
 1.1446220956139108e+01  1.1595993239121254e+01  1.1747725272560398e+01  1.1901442699531328e+01 
 1.2057171498645063e+01  1.2214937988439305e+01  1.2374768831826325e+01  1.2536691040599072e+01 
 1.2700731979996217e+01  1.2866919373326953e+01  1.3035281306656293e+01  1.3205846233551689e+01 
 1.3378642979891771e+01  1.3553700748737896e+01  1.3731049125269676e+01  1.3910718081784852e+01 
 1.4092737982764705e+01  1.4277139590005723e+01  1.4463954067818428e+01  1.4653212988294202e+01 
 1.4844948336641062e+01  1.5039192516589228e+01  1.5235978355867433e+01  1.5435339111750880e+01 
 1.5637308476681811e+01  1.5841920583963612e+01  1.6049210013529404e+01  1.6259211797786154e+01 
 1.6471961427535231e+01  1.6687494857970421e+01  1.6905848514754489e+01  1.7127059300175077e+01 
 1.7351164599381452e+01  1.7578202286702570e+01  1.7808210732047968e+01  1.8041228807392343e+01 
 1.8277295893345038e+01  1.8516451885805441e+01  1.8758737202705490e+01  1.9004192790840406e+01 
 1.9252860132788793e+01  1.9504781253923291e+01  1.9759998729512969e+01  2.0018555691918639e+01 
 2.0280495837882345e+01  2.0545863435912196e+01  2.0814703333763859e+01  2.1087060966019934e+01 
 2.1362982361768548e+01  2.1642514152382230e+01  2.1925703579398942e+01  2.2212598502505870e+01 
 2.2503247407627853e+01  2.2797699415121627e+01  2.3096004288077292e+01  2.3398212440728365e+01 
 2.3704374946971928e+01  2.4014543549000237e+01  2.4328770666045266e+01  2.4647109403237682e+01 
 2.4969613560581749e+01  2.5296337642047650e+01  2.5627336864782787e+01  2.5962667168443616e+01 
 2.6302385224649569e+01  2.6646548446560711e+01  2.6995214998580732e+01  2.7348443806186690e+01 
 2.7706294565887834e+01  2.8068827755314274e+01  2.8436104643437890e+01  2.8808187300926924e+01 
 2.9185138610636088e+01  2.9567022278233903e+01  2.9953902842969114e+01  3.0345845688577970e+01 
 3.0742917054334249e+01  3.1145184046243823e+01  3.1552714648385766e+01  3.1965577734401798e+01 
 3.2383843079136113e+01  3.2807581370427478e+01  3.3236864221055662e+01  3.3671764180844157e+01 
 3.4112354748921334e+01  3.4558710386141726e+01  3.5010906527670443e+01  3.5469019595731687e+01 
 3.5933127012524302e+01  3.6403307213306356e+01  3.6879639659650849e+01  3.7362204852874932e+01 
 3.7851084347644814e+01  3.8346360765758696e+01  3.8848117810110033e+01  3.9356440278833560e+01 
 3.9871414079636338e+01  4.0393126244316406e+01  4.0921664943471306e+01  4.1457119501399177e+01 
 4.1999580411194742e+01  4.2549139350042857e+01  4.3105889194712276e+01  4.3669924037251718e+01 
 4.4241339200892092e+01  4.4820231256156084e+01  4.5406698037178856e+01  4.6000838658242245e+01 
 4.6602753530525320e+01  4.7212544379074117e+01  4.7830314259993401e+01  4.8456167577863397e+01 
 4.9090210103384422e+01  4.9732548991252365e+01  5.0383292798268108e+01  5.1042551501683867e+01 
 5.1710436517789624e+01  5.2387060720742724e+01  5.3072538461643909e+01  5.3766985587862884e+01 
 5.4470519462616934e+01  5.5183258984805171e+01  5.5905324609103339e+01  5.6636838366320525e+01 
 5.7377923884022771e+01  5.8128706407426435e+01  5.8889312820564889e+01  5.9659871667732283e+01 
 6.0440513175207791e+01  6.1231369273264178e+01  6.2032573618464326e+01  6.2844261616249526e+01 
 6.3666570443823289e+01  6.4499639073334649e+01  6.5343608295364803e+01  6.6198620742720962e+01 
 6.7064820914541770e+01  6.7942355200718026e+01  6.8831371906632455e+01  6.9732021278224423e+01 
 7.0644455527381368e+01  7.1568828857663092e+01  7.2505297490362480e+01  7.3454019690907373e+01 
 7.4415155795607703e+01  7.5388868238752750e+01  7.6375321580062959e+01  7.7374682532500842e+01 
 7.8387119990445953e+01  7.9412805058238362e+01  8.0451911079095794e+01  8.1504613664408907e+01 
 8.2571090723420184e+01  8.3651522493290898e+01  8.4746091569561699e+01  8.5854982937011798e+01 
 8.6978384000921267e+01  8.8116484618743854e+01  8.9269477132192776e+01  9.0437556399747024e+01 
 9.1620919829582959e+01  9.2819767412936756e+01  9.4034301757903364e+01  9.5264728123677784e+01 
 9.6511254455244384e+01  9.7774091418520030e+01  9.9053452435957212e+01  1.0034955372261287e+02 
 1.0166261432268929e+02  1.0299285614655311e+02  1.0434050400823865e+02  1.0570578566344207e+02 
 1.0708893184801262e+02  1.0849017631694770e+02  1.0990975588389725e+02  1.1134791046118704e+02 
 1.1280488310036357e+02  1.1428092003327059e+02  1.1577627071366288e+02  1.1729118785936451e+02 
  </PP_R>
  <PP_RAB>
 1.3000000000000011e-06  1.3170103275677530e-06  1.3342432330154756e-06  1.3517016287452059e-06 
 1.3693884652673748e-06  1.3873067316994508e-06  1.4054594562711086e-06  1.4238497068360053e-06 
 1.4424805913902575e-06  1.4613552585976978e-06  1.4804768983220107e-06  1.4998487421658158e-06 
 1.5194740640168320e-06  1.5393561806011623e-06  1.5594984520438307e-06  1.5799042824366518e-06 
 1.6005771204135297e-06  1.6215204597332860e-06  1.6427378398701124e-06  1.6642328466117520e-06 
 1.6860091126655045e-06  1.7080703182721618e-06  1.7304201918279799e-06  1.7530625105147846e-06 
 1.7760011009383242e-06  1.7992398397749772e-06  1.8227826544269166e-06  1.8466335236858567e-06 
 1.8707964784054633e-06  1.8952756021825965e-06  1.9200750320474382e-06  1.9451989591626601e-06 
 1.9706516295317417e-06  1.9964373447165564e-06  2.0225604625643419e-06  2.0490253979441905e-06 
 2.0758366234931702e-06  2.1029986703722122e-06  2.1305161290318875e-06  2.1583936499882034e-06 
 2.1866359446085528e-06  2.2152477859079469e-06  2.2442340093556628e-06  2.2735995136924545e-06 
 2.3033492617584468e-06  2.3334882813318700e-06  2.3640216659787706e-06  2.3949545759138173e-06 
 2.4262922388724176e-06  2.4580399509941972e-06  2.4902030777180679e-06  2.5227870546889970e-06 
 2.5557973886766459e-06  2.5892396585060262e-06  2.6231195160003350e-06  2.6574426869361258e-06 
 2.6922149720109796e-06  2.7274422478238356e-06  2.7631304678681498e-06  2.7992856635380516e-06 
 2.8359139451476619e-06  2.8730215029637521e-06  2.9106146082519120e-06  2.9486996143364160e-06 
 2.9872829576739283e-06  3.0263711589413100e-06  3.0659708241376081e-06  3.1060886457004933e-06 
 3.1467314036372932e-06  3.1879059666708330e-06  3.2296192934002645e-06  3.2718784334770870e-06 
 3.3146905287965550e-06  3.3580628147046735e-06  3.4020026212209912e-06  3.4465173742773907e-06 
 3.4916145969730873e-06  3.5373019108460533e-06  3.5835870371610732e-06  3.6304777982146571e-06 
 3.6779821186570341e-06  3.7261080268314047e-06  3.7748636561308195e-06  3.8242572463726556e-06 
 3.8742971451912300e-06  3.9249918094485437e-06  3.9763498066635156e-06  4.0283798164599100e-06 
 4.0810906320332195e-06  4.1344911616367337e-06  4.1885904300870532e-06  4.2433975802893075e-06 
 4.2989218747823281e-06  4.3551726973040372e-06  4.4121595543773222e-06  4.4698920769166631e-06 
 4.5283800218557828e-06  4.5876332737965750e-06  4.6476618466796502e-06  4.7084758854766987e-06 
 4.7700856679050209e-06  4.8325016061644845e-06  4.8957342486972107e-06  4.9597942819702926e-06 
 5.0246925322818137e-06  5.0904399675905440e-06  5.1570476993695370e-06  5.2245269844839956e-06 
 5.2928892270937121e-06  5.3621459805803957e-06  5.4323089495002227e-06  5.5033899915619372e-06 
 5.5754011196308265e-06  5.6483545037589261e-06  5.7222624732417974e-06  5.7971375187021792e-06 
 5.8729922942009693e-06  5.9498396193757692e-06  6.0276924816074387e-06  6.1065640382149900e-06 
 6.1864676186792129e-06  6.2674167268953903e-06  6.3494250434554657e-06  6.4325064279601300e-06 
 6.5166749213611077e-06  6.6019447483341117e-06  6.6883303196828512e-06  6.7758462347744907e-06 
 6.8645072840069760e-06  6.9543284513086508e-06  7.0453249166705709e-06  7.1375120587119636e-06 
 7.2309054572792527e-06  7.3255208960790714e-06  7.4213743653457748e-06  7.5184820645438123e-06 
 7.6168604051054718e-06  7.7165260132044585e-06  7.8174957325657539e-06  7.9197866273122568e-06 
 8.0234159848486276e-06  8.1284013187829446e-06  8.2347603718865155e-06  8.3425111190924633e-06 
 8.4516717705335204e-06  8.5622607746195940e-06  8.6742968211555876e-06  8.7877988445000226e-06 
 8.9027860267649881e-06  9.0192778010579697e-06  9.1372938547660910e-06  9.2568541328833032e-06 
 9.3779788413811814e-06  9.5006884506237497e-06  9.6250036988270318e-06  9.7509455955638643e-06 
 9.8785354253145326e-06  1.0007794751063948e-05  1.0138745417945812e-05  1.0271409556934504e-05 
 1.0405809588585268e-05  1.0541968226823335e-05  1.0679908482782642e-05  1.0819653668694752e-05 
 1.0961227401828693e-05  1.1104653608482327e-05  1.1249956528025943e-05  1.1397160716998781e-05 
 1.1546291053259135e-05  1.1697372740188792e-05  1.1850431310952408e-05  1.2005492632812748e-05 
 1.2162582911502268e-05  1.2321728695651967e-05  1.2482956881278125e-05  1.2646294716327864e-05 
 1.2811769805284069e-05  1.2979410113830617e-05  1.3149243973578655e-05  1.3321300086854703e-05 
 1.3495607531551409e-05  1.3672195766041797e-05  1.3851094634157800e-05  1.4032334370233916e-05 
 1.4215945604216916e-05  1.4401959366842354e-05  1.4590407094878846e-05  1.4781320636440966e-05 
 1.4974732256371606e-05  1.5170674641694882e-05  1.5369180907140279e-05  1.5570284600739133e-05 
 1.5774019709494282e-05  1.5980420665124028e-05  1.6189522349881126e-05  1.6401360102447987e-05 
 1.6615969723908980e-05  1.6833387483800935e-05  1.7053650126242741e-05  1.7276794876145216e-05 
 1.7502859445502206e-05  1.7731882039763985e-05  1.7963901364294077e-05  1.8198956630910559e-05 
 1.8437087564512942e-05  1.8678334409795790e-05  1.8922737938050129e-05  1.9170339454053941e-05 
 1.9421180803052752e-05  1.9675304377831584e-05  1.9932753125879380e-05  2.0193570556647329e-05 
 2.0457800748902008e-05  2.0725488358174791e-05  2.0996678624308776e-05  2.1271417379104396e-05 
 2.1549751054065111e-05  2.1831726688244459e-05  2.2117391936195743e-05  2.2406795076025774e-05 
 2.2699985017553994e-05  2.2997011310578339e-05  2.3297924153249285e-05  2.3602774400553467e-05 
 2.3911613572908205e-05  2.4224493864868723e-05  2.4541468153949036e-05  2.4862590009558456e-05 
 2.5187913702054844e-05  2.5517494211916548e-05  2.5851387239034174e-05  2.6189649212123994e-05 
 2.6532337298264564e-05  2.6879509412558070e-05  2.7231224227918131e-05  2.7587541184985662e-05 
 2.7948520502174470e-05  2.8314223185848326e-05  2.8684711040631185e-05  2.9060046679852288e-05 
 2.9440293536128017e-05  2.9825515872082123e-05  3.0215778791206194e-05  3.0611148248862461e-05 
 3.1011691063430274e-05  3.1417474927598666e-05  3.1828568419806423e-05  3.2245041015832197e-05 
 3.2666963100535963e-05  3.3094405979754255e-05  3.3527441892351005e-05  3.3966144022426133e-05 
 3.4410586511683747e-05  3.4860844471962364e-05  3.5316993997928921e-05  3.5779112179938994e-05 
 3.6247277117065223e-05  3.6721567930296266e-05  3.7202064775908413e-05  3.7688848859012231e-05 
 3.8182002447276297e-05  3.8681608884830811e-05  3.9187752606352831e-05  3.9700519151336005e-05 
 4.0219995178546797e-05  4.0746268480670238e-05  4.1279427999146983e-05  4.1819563839204608e-05 
 4.2366767285085668e-05  4.2921130815474912e-05  4.3482748119128409e-05  4.4051714110707195e-05 
 4.4628124946818029e-05  4.5212078042264125e-05  4.5803672086508491e-05  4.6403007060352638e-05 
 4.7010184252833638e-05  4.7625306278342192e-05  4.8248477093964585e-05  4.8879802017051896e-05 
 4.9519387743018748e-05  5.0167342363375147e-05  5.0823775383994036e-05  5.1488797743618328e-05 
 5.2162521832609607e-05  5.2845061511942451e-05  5.3536532132447166e-05  5.4237050554304391e-05 
 5.4946735166794729e-05  5.5665705908306801e-05  5.6394084286607136e-05  5.7131993399375271e-05 
 5.7879557955007594e-05  5.8636904293693243e-05  5.9404160408766032e-05  6.0181455968335611e-05 
 6.0968922337201477e-05  6.1766692599054258e-05  6.2574901578966974e-05  6.3393685866180928e-05 
 6.4223183837189298e-05  6.5063535679123560e-05  6.5914883413445091e-05  6.6777370919947305e-05 
 6.7651143961071586e-05  6.8536350206541550e-05  6.9433139258319568e-05  7.0341662675889826e-05 
 7.1262074001872280e-05  7.2194528787971682e-05  7.3139184621266265e-05  7.4096201150840129e-05 
 7.5065740114764600e-05  7.6047965367432191e-05  7.7043042907248407e-05  7.8051140904685816e-05 
 7.9072429730705411e-05  8.0107081985549504e-05  8.1155272527911769e-05  8.2217178504488713e-05 
 8.3292979379917702e-05  8.4382856967107241e-05  8.5486995457963579e-05  8.6605581454519625e-05 
 8.7738804000471159e-05  8.8886854613125604e-05  9.0049927315768991e-05  9.1228218670456269e-05 
 9.2421927811230922e-05  9.3631256477778724e-05  9.4856409049522730e-05  9.6097592580163512e-05 
 9.7355016832671926e-05  9.8628894314739429e-05  9.9919440314692412e-05  1.0122687293787653e-04 
 1.0255141314351689e-04  1.0389328478206088e-04  1.0525271463300902e-04  1.0662993244324176e-04 
 1.0802517096584697e-04  1.0943866599945578e-04  1.1087065642809312e-04  1.1232138426154966e-04 
 1.1379109467628219e-04  1.1528003605684883e-04  1.1678846003788681e-04  1.1831662154663890e-04 
 1.1986477884603739e-04  1.2143319357835066e-04  1.2302213080940137e-04  1.2463185907336349e-04 
 1.2626265041814486e-04  1.2791478045136423e-04  1.2958852838692943e-04  1.3128417709222536e-04 
 1.3300201313591882e-04  1.3474232683638988e-04  1.3650541231079608e-04  1.3829156752477890e-04 
 1.4010109434282073e-04  1.4193429857926063e-04  1.4379149004997778e-04  1.4567298262475103e-04 
 1.4757909428030381e-04  1.4951014715404234e-04  1.5146646759849853e-04  1.5344838623648370e-04 
 1.5545623801696483e-04  1.5749036227167174e-04  1.5955110277244484e-04  1.6163880778933352e-04 
 1.6375383014945462e-04  1.6589652729662109e-04  1.6806726135175032e-04  1.7026639917406433e-04 
 1.7249431242308928e-04  1.7475137762146685e-04  1.7703797621858764e-04  1.7935449465505688e-04 
 1.8170132442800390e-04  1.8407886215724597e-04  1.8648750965231828e-04  1.8892767398037997e-04 
 1.9139976753501049e-04  1.9390420810590440e-04  1.9644141894947895e-04  1.9901182886040557e-04 
 2.0161587224407700e-04  2.0425398919002297e-04  2.0692662554628628e-04  2.0963423299477250e-04 
 2.1237726912758442e-04  2.1515619752435731e-04  2.1797148783060443e-04  2.2082361583708809e-04 
 2.2371306356022984e-04  2.2664031932357196e-04  2.2960587784030568e-04  2.3261024029687862e-04 
 2.3565391443769676e-04  2.3873741465093386e-04  2.4186126205546504e-04  2.4502598458893681e-04 
 2.4823211709698969e-04  2.5148020142364837e-04  2.5477078650289485e-04  2.5810442845143947e-04 
 2.6148169066270589e-04  2.6490314390204624e-04  2.6836936640320098e-04  2.7188094396602281e-04 
 2.7543847005547791e-04  2.7904254590194259e-04  2.8269378060281295e-04  2.8639279122544368e-04 
 2.9014020291143411e-04  2.9393664898227830e-04  2.9778277104639846e-04  3.0167921910757698e-04 
 3.0562665167481039e-04  3.0962573587359785e-04  3.1367714755868716e-04  3.1778157142829585e-04 
 3.2193970113982673e-04  3.2615223942709796e-04  3.3041989821910623e-04  3.3474339876034514e-04 
 3.3912347173269591e-04  3.4356085737891621e-04  3.4805630562774161e-04  3.5261057622062574e-04 
 3.5722443884013850e-04  3.6189867324004394e-04  3.6663406937708081e-04  3.7143142754446693e-04 
 3.7629155850715112e-04  3.8121528363883303e-04  3.8620343506077913e-04  3.9125685578245205e-04 
 3.9637639984398143e-04  4.0156293246049857e-04  4.0681733016836006e-04  4.1214048097328482e-04 
 4.1753328450042809e-04  4.2299665214642202e-04  4.2853150723340118e-04  4.3413878516504933e-04 
 4.3981943358468263e-04  4.4557441253540456e-04  4.5140469462235522e-04  4.5731126517708375e-04 
 4.6329512242407241e-04  4.6935727764943789e-04  4.7549875537184226e-04  4.8172059351563713e-04 
 4.8802384358627774e-04  4.9440957084802837e-04  5.0087885450399497e-04  5.0743278787851291e-04 
 5.1407247860192130e-04  5.2079904879775572e-04  5.2761363527238907e-04  5.3451738970715541e-04 
 5.4151147885298488e-04  5.4859708472759035e-04  5.5577540481522875e-04  5.6304765226908022e-04 
 5.7041505611627298e-04  5.7787886146559242e-04  5.8544032971790717e-04  5.9310073877934895e-04 
 6.0086138327728204e-04  6.0872357477909664e-04  6.1668864201386991e-04  6.2475793109692209e-04 
 6.3293280575731417e-04  6.4121464756832034e-04  6.4960485618091850e-04  6.5810484956033372e-04 
 6.6671606422567776e-04  6.7543995549272531e-04  6.8427799771986295e-04  6.9323168455726308e-04 
 7.0230252919931189e-04  7.1149206464034330e-04  7.2080184393371878e-04  7.3023344045429744e-04 
 7.3978844816433888e-04  7.4946848188288829e-04  7.5927517755868391e-04  7.6921019254663488e-04 
 7.7927520588792071e-04  7.8947191859375199e-04  7.9980205393284523e-04  8.1026735772265948e-04 
 8.2086959862444331e-04  8.3161056844214382e-04  8.4249208242522466e-04  8.5351597957544886e-04 
 8.6468412295767107e-04  8.7599840001470507e-04  8.8746072288630254e-04  8.9907302873231006e-04 
 9.1083728006005399e-04  9.2275546505600926e-04  9.3482959792180601e-04  9.4706171921463643e-04 
 9.5945389619211355e-04  9.7200822316163924e-04  9.8472682183435296e-04  9.9761184168370193e-04 
 1.0106654603087080e-03  1.0238898838019878e-03  1.0372873471225870e-03  1.0508601144736944e-03 
 1.0646104796852964e-03  1.0785407666018421e-03  1.0926533294749741e-03  1.1069505533614079e-03 
 1.1214348545260089e-03  1.1361086808501487e-03  1.1509745122454005e-03  1.1660348610726525e-03 
 1.1812922725667016e-03  1.1967493252664043e-03  1.2124086314504571e-03  1.2282728375788740e-03 
 1.2443446247402499e-03  1.2606267091048674e-03  1.2771218423837372e-03  1.2938328122936436e-03 
 1.3107624430282745e-03  1.3279135957355187e-03  1.3452891690010050e-03  1.3628920993379722e-03 
 1.3807253616835414e-03  1.3987919699014950e-03  1.4170949772916218e-03  1.4356374771057343e-03 
 1.4544226030704338e-03  1.4734535299167188e-03  1.4927334739165215e-03  1.5122656934262659e-03 
 1.5320534894375398e-03  1.5521002061349627e-03  1.5724092314613710e-03  1.5929839976903822e-03 
 1.6138279820064594e-03  1.6349447070925622e-03  1.6563377417254902e-03  1.6780107013790141e-03 
 1.6999672488348984e-03  1.7222110948019239e-03  1.7447459985429987e-03  1.7675757685104915e-03 
 1.7907042629898640e-03  1.8141353907517308e-03  1.8378731117124527e-03  1.8619214376033697e-03 
 1.8862844326487946e-03  1.9109662142528770e-03  1.9359709536954540e-03  1.9613028768370021e-03 
 1.9869662648328260e-03  2.0129654548565789e-03  2.0393048408332546e-03  2.0659888741817747e-03 
 2.0930220645672842e-03  2.1204089806633008e-03  2.1481542509238284e-03  2.1762625643655786e-03 
 2.2047386713604199e-03  2.2335873844382126e-03  2.2628135791001296e-03  2.2924221946426294e-03 
 2.3224182349922107e-03  2.3528067695510859e-03  2.3835929340539222e-03  2.4147819314357961e-03 
 2.4463790327114991e-03  2.4783895778663473e-03  2.5108189767586615e-03  2.5436727100340401e-03 
 2.5769563300516015e-03  2.6106754618223471e-03  2.6448358039598010e-03  2.6794431296430885e-03 
 2.7145032875926199e-03  2.7500222030585378e-03  2.7860058788220883e-03  2.8224603962101235e-03 
 2.8593919161228475e-03  2.8968066800750254e-03  2.9347110112508154e-03  2.9731113155724038e-03 
 3.0120140827826158e-03  3.0514258875417037e-03  3.0913533905384768e-03  3.1318033396159693e-03 
 3.1727825709118511e-03  3.2142980100137463e-03  3.2563566731296746e-03  3.2989656682738057e-03 
 3.3421321964677321e-03  3.3858635529574591e-03  3.4301671284463200e-03  3.4750504103440204e-03 
 3.5205209840320217e-03  3.5665865341455052e-03  3.6132548458720805e-03  3.6605338062675038e-03 
 3.7084314055886108e-03  3.7569557386436881e-03  3.8061150061605145e-03  3.8559175161723032e-03 
 3.9063716854217823e-03  3.9574860407836409e-03  4.0092692207055903e-03  4.0617299766682879e-03 
 4.1148771746643597e-03  4.1687197966967489e-03  4.2232669422967361e-03  4.2785278300617553e-03 
 4.3345117992133649e-03  4.3912283111755988e-03  4.4486869511739706e-03  4.5068974298553954e-03 
 4.5658695849293170e-03  4.6256133828303037e-03  4.6861389204023961e-03  4.7474564266055006e-03 
 4.8095762642441061e-03  4.8725089317186261e-03  4.9362650647996496e-03  5.0008554384254125e-03 
 5.0662909685227882e-03  5.1325827138521069e-03  5.1997418778761207e-03  5.2677798106533736e-03 
 5.3367080107564538e-03  5.4065381272152321e-03  5.4772819614855930e-03  5.5489514694439072e-03 
 5.6215587634075989e-03  5.6951161141821595e-03  5.7696359531349438e-03  5.8451308742961004e-03 
 5.9216136364869899e-03  5.9990971654764582e-03  6.0775945561653243e-03  6.1571190747994452e-03 
 6.2376841612117465e-03  6.3193034310935836e-03  6.4019906782958299e-03  6.4857598771600649e-03 
 6.5706251848802874e-03  6.6566009438954656e-03  6.7437016843135186e-03  6.8319421263668828e-03 
 6.9213371829002848e-03  7.0119019618910487e-03  7.1036517690023773e-03  7.1966021101700474e-03 
 7.2907686942229443e-03  7.3861674355378991e-03  7.4828144567292551e-03  7.5807260913736182e-03 
 7.6799188867702848e-03  7.7804096067377671e-03  7.8822152344469147e-03  7.9853529752911198e-03 
 8.0898402597940604e-03  8.1956947465555083e-03  8.3029343252356870e-03  8.4115771195786004e-03 
 8.5216414904750910e-03  8.6331460390658039e-03  8.7461096098848407e-03  8.8605512940445347e-03 
 8.9764904324618928e-03  9.0939466191272515e-03  9.2129397044157166e-03  9.3334897984419136e-03 
 9.4556172744586567e-03  9.5793427723000670e-03  9.7046872018697605e-03  9.8316717466746615e-03 
 9.9603178674050833e-03  1.0090647305561614e-02  1.0222682087129502e-02  1.0356444526301087e-02 
 1.0491957229246977e-02  1.0629243097936465e-02  1.0768325334008127e-02  1.0909227442690897e-02 
 1.1051973236776496e-02  1.1196586840643875e-02  1.1343092694336284e-02  1.1491515557691694e-02 
 1.1641880514527272e-02  1.1794212976878606e-02  1.1948538689294401e-02  1.2104883733187365e-02 
 1.2263274531242032e-02  1.2423737851880260e-02  1.2586300813785152e-02  1.2750990890484187e-02 
 1.2917835914992307e-02  1.3086864084515757e-02  1.3258103965217521e-02  1.3431584497044948e-02 
 1.3607334998620851e-02  1.3785385172198293e-02  1.3965765108680386e-02  1.4148505292705716e-02 
 1.4333636607800328e-02  1.4521190341597099e-02  1.4711198191123437e-02  1.4903692268158150e-02 
 1.5098705104658409e-02  1.5296269658257736e-02  1.5496419317835911e-02  1.5699187909161780e-02 
 1.5904609700609879e-02  1.6112719408951887e-02  1.6323552205223846e-02  1.6537143720670118e-02 
 1.6753530052765215e-02  1.6972747771314224e-02  1.7194833924633366e-02  1.7419826045811139e-02 
 1.7647762159051526e-02  1.7878680786100172e-02  1.8112620952754659e-02  1.8349622195459950e-02 
 1.8589724567990153e-02  1.8832968648217690e-02  1.9079395544971060e-02  1.9329046904982335e-02 
 1.9581964919925556e-02  1.9838192333547219e-02  2.0097772448890067e-02  2.0360749135611415e-02 
 2.0627166837397237e-02  2.0897070579473234e-02  2.1170505976214244e-02  2.1447519238853057e-02 
 2.1728157183290402e-02  2.2012467238006837e-02  2.2300497452078301e-02  2.2592296503296503e-02 
 2.2887913706395615e-02  2.3187399021386560e-02  2.3490803062000371e-02  2.3798177104242039e-02 
 2.4109573095056291e-02  2.4425043661106725e-02  2.4744642117669850e-02  2.5068422477645506e-02 
 2.5396439460685153e-02  2.5728748502439638e-02  2.6065405763927949e-02  2.6406468141028545e-02 
 2.6751993274094981e-02  2.7102039557697015e-02  2.7456666150489775e-02  2.7815932985211497e-02 
 2.8179900778812324e-02  2.8548631042715662e-02  2.8922186093213724e-02  2.9300629061999144e-02 
 2.9684023906834368e-02  3.0072435422360697e-02  3.0465929251048712e-02  3.0864571894292009e-02 
 3.1268430723646108e-02  3.1677573992214395e-02  3.2092070846183061e-02  3.2511991336506958e-02 
 3.2937406430748419e-02  3.3368388025070882e-02  3.3805008956389632e-02  3.4247343014681152e-02 
 3.4695464955454135e-02  3.5149450512383155e-02  3.5609376410107862e-02  3.6075320377199634e-02 
 3.6547361159297909e-02  3.7025578532418363e-02  3.7510053316435248e-02  3.8000867388740173e-02 
 3.8498103698079530e-02  3.9001846278573074e-02  3.9512180263915869e-02  4.0029191901766070e-02 
 4.0552968568321024e-02  4.1083598783084013e-02  4.1621172223824277e-02  4.2165779741732780e-02 
 4.2717513376776359e-02  4.3276466373252345e-02  4.3842733195547594e-02  4.4416409544102829e-02 
 4.4997592371586369e-02  4.5586379899279335e-02  4.6182871633675272e-02  4.6787168383296995e-02 
 4.7399372275733487e-02  4.8019586774899675e-02  4.8647916698522080e-02  4.9284468235853279e-02 
 4.9929348965618146e-02  5.0582667874194874e-02  5.1244535374033992e-02  5.1915063322318274e-02 
 5.2594365039866892e-02  5.3282555330286925e-02  5.3979750499375513e-02  5.4686068374775430e-02 
 5.5401628325888817e-02  5.6126551284050509e-02  5.6860959762965839e-02  5.7604977879415681e-02 
 5.8358731374232566e-02  5.9122347633551134e-02  5.9895955710336672e-02  6.0679686346195423e-02 
 6.1473671993470203e-02  6.2278046837625174e-02  6.3092946819923473e-02  6.3918509660401648e-02 
 6.4754874881144689e-02  6.5602183829865504e-02  6.6460579703793099e-02  6.7330207573873244e-02 
 6.8211214409285917e-02  6.9103749102282910e-02  7.0007962493351811e-02  7.0924007396707817e-02 
 7.1852038626119843e-02  7.2792213021074498e-02  7.3744689473282221e-02  7.4709628953530421e-02 
 7.5687194538887920e-02  7.6677551440265335e-02  7.7680867030336151e-02  7.8697310871823051e-02 
 7.9727054746154533e-02  8.0770272682496189e-02  8.1827140987162261e-02  8.2897838273411684e-02 
 8.3982545491634170e-02  8.5081445959931334e-02  8.6194725395097954e-02  8.7322571944007971e-02 
 8.8465176215412694e-02  8.9622731312153509e-02  9.0795432863796849e-02  9.1983479059696074e-02 
 9.3187070682485981e-02  9.4406411142015451e-02  9.5641706509724325e-02  9.6893165553469857e-02 
 9.8160999772809038e-02  9.9445423434742483e-02  1.0074665360992614e-01  1.0206491020935665e-01 
 1.0340041602153689e-01  1.0475339675012778e-01  1.0612408105209266e-01  1.0751270057634091e-01 
 1.0891949000287740e-01  1.1034468708246310e-01  1.1178853267679675e-01  1.1325127079922034e-01 
 1.1473314865595795e-01  1.1623441668789440e-01  1.1775532861290029e-01  1.1929614146871081e-01 
 1.2085711565636591e-01  1.2243851498421855e-01  1.2404060671251906e-01  1.2566366159858261e-01 
 1.2730795394254799e-01  1.2897376163373492e-01  1.3066136619760799e-01  1.3237105284335510e-01 
 1.3410311051208867e-01  1.3585783192567719e-01  1.3763551363621612e-01  1.3943645607614522e-01 
 1.4126096360902340e-01  1.4310934458096630e-01  1.4498191137275745e-01  1.4687898045264158e-01 
 1.4880087242980838e-01  1.5074791210857630e-01  1.5272042854328516e-01  1.5471875509390726e-01 
 1.5674322948238581e-01  1.5879419384971094e-01  1.6087199481374220e-01  1.6297698352778792e-01 
 1.6510951573995081e-01  1.6726995185325039e-01  1.6945865698653179e-01  1.7167600103617195e-01 
 1.7392235873859302e-01  1.7619810973359265e-01  1.7850363862850577e-01  1.8083933506320307e-01 
 1.8320559377594114e-01  1.8560281467007439e-01  1.8803140288163955e-01  1.9049176884782462e-01 
 1.9298432837633381e-01  1.9550950271565995e-01  1.9806771862627662e-01  2.0065940845276142e-01 
 2.0328501019686354e-01  2.0594496759152695e-01  2.0863973017588225e-01  2.1136975337121999e-01 
 2.1413549855795799e-01  2.1693743315361547e-01  2.1977603069180834e-01  2.2265177090227598e-01 
 2.2556513979195886e-01  2.2851662972713341e-01  2.3150673951662357e-01  2.3453597449610045e-01 
 2.3760484661348547e-01  2.4071387451547072e-01  2.4386358363517135e-01  2.4705450628092526e-01 
 2.5028718172625430e-01  2.5356215630100276e-01  2.5687998348366858e-01  2.6024122399494232e-01 
 2.6364644589247049e-01  2.6709622466685856e-01  2.7059114333893014e-01  2.7413179255825915e-01 
 2.7771877070299111e-01  2.8135268398096897e-01  2.8503414653218623e-01  2.8876378053257629e-01 
 2.9254221629916211e-01  2.9637009239658113e-01  3.0024805574500479e-01  3.0417676172946873e-01 
 3.0815687431063504e-01  3.1218906613700309e-01  3.1627401865858845e-01  3.2041242224208982e-01 
 3.2460497628756274e-01  3.2885238934661942e-01  3.3315537924217620e-01  3.3751467318976697e-01 
 3.4193100792044440e-01  3.4640512980528920e-01  3.5093779498154948e-01  3.5552976948042697e-01 
 3.6018182935654180e-01  3.6489476081908556e-01  3.6966936036469256e-01  3.7450643491204999e-01 
 3.7940680193826914e-01  3.8437128961704070e-01  3.8940073695859845e-01  3.9449599395151358e-01 
 3.9965792170634523e-01  4.0488739260116968e-01  4.1018529042901497e-01  4.1555251054722336e-01 
 4.2098996002876943e-01  4.2649855781555718e-01  4.3207923487372357e-01  4.3773293435097405e-01 
 4.4346061173597734e-01  4.4926323501984244e-01  4.5514178485971574e-01  4.6109725474451191e-01 
 4.6713065116281594e-01  4.7324299377298262e-01  4.7943531557546099e-01  4.8570866308737409e-01 
 4.9206409651938254e-01  4.9850268995486302e-01  5.0502553153143037e-01  5.1163372362483628e-01 
 5.1832838303527240e-01  5.2511064117611328e-01  5.3198164426512695e-01  5.3894255351818932e-01 
 5.4599454534553160e-01  5.5313881155055711e-01  5.6037655953125953e-01  5.6770901248427230e-01 
 5.7513740961159721e-01  5.8266300633002910e-01  5.9028707448332507e-01  5.9801090255714917e-01 
 6.0583579589682912e-01  6.1376307692796350e-01  6.2179408537991421e-01  6.2993017851222410e-01 
 6.3817273134399743e-01  6.4652313688628071e-01  6.5498280637748540e-01  6.6355316952189025e-01 
 6.7223567473126511e-01  6.8103178936965536e-01  6.8994300000137077e-01  6.9897081264221750e-01 
 7.0811675301402011e-01  7.1738236680246714e-01  7.2676921991834342e-01  7.3627889876216679e-01 
 7.4591301049229597e-01  7.5567318329654365e-01  7.6556106666734347e-01  7.7557833168051959e-01 
 7.8572667127770124e-01  7.9600780055243425e-01  8.0642345704003615e-01  8.1697540101124377e-01 
 8.2766541576970276e-01  8.3849530795335037e-01  8.4946690783974244e-01  8.6058206965537243e-01 
 8.7184267188904296e-01  8.8325061760933432e-01  8.9480783478622183e-01  9.0651627661691747e-01 
 9.1837792185595779e-01  9.3039477514962021e-01  9.4256886737471224e-01  9.5490225598179579e-01 
 9.6739702534290006e-01  9.8005528710378564e-01  9.9287918054081847e-01  1.0058708729225110e+00 
 1.0190325598757974e+00  1.0323664657570986e+00  1.0458748440282453e+00  1.0595599776373157e+00 
 1.0734241794044623e+00  1.0874697924127816e+00  1.1016991904043021e+00  1.1161147781811533e+00 
 1.1307189920119765e+00  1.1455143000436701e+00  1.1605032027185060e+00  1.1756882331967113e+00 
 1.1910719577845785e+00  1.2066569763681778e+00  1.2224459228527438e+00  1.2384414656078111e+00 
 1.2546463079181769e+00  1.2710631884407604e+00  1.2876948816674436e+00  1.3045441983939672e+00 
 1.3216139861949607e+00  1.3389071299051905e+00  1.3564265521071024e+00  1.3741752136247469e+00 
 1.3921561140241641e+00  1.4103722921203199e+00  1.4288268264906641e+00  1.4475228359954315e+00 
 1.4664634803047263e+00  1.4856519604325176e+00  1.5050915192776173e+00  1.5247854421717386e+00 
  </PP_RAB>
</PP_MESH>


<PP_LOCAL>
-2.5331495964350781e+00 -2.5331500143478132e+00 -2.5331504432687475e+00 -2.5331508834878478e+00 
-2.5331513353027182e+00 -2.5331517990187975e+00 -2.5331522749495745e+00 -2.5331527634167914e+00 
-2.5331532647506743e+00 -2.5331537792901471e+00 -2.5331543073830356e+00 -2.5331548493863703e+00 
-2.5331554056665557e+00 -2.5331559765996547e+00 -2.5331565625716372e+00 -2.5331571639786414e+00 
-2.5331577812272372e+00 -2.5331584147347077e+00 -2.5331590649293201e+00 -2.5331597322506254e+00 
-2.5331604171497664e+00 -2.5331611200897486e+00 -2.5331618415457835e+00 -2.5331625820055934e+00 
-2.5331633419697637e+00 -2.5331641219520447e+00 -2.5331649224797377e+00 -2.5331657440940156e+00 
-2.5331665873503204e+00 -2.5331674528187240e+00 -2.5331683410843016e+00 -2.5331692527475540e+00 
-2.5331701884247924e+00 -2.5331711487485631e+00 -2.5331721343680722e+00 -2.5331731459496312e+00 
-2.5331741841770969e+00 -2.5331752497523405e+00 -2.5331763433957244e+00 -2.5331774658465869e+00 
-2.5331786178637317e+00 -2.5331798002259593e+00 -2.5331810137325772e+00 -2.5331822592039575e+00 
-2.5331835374820608e+00 -2.5331848494310498e+00 -2.5331861959378266e+00 -2.5331875779126816e+00 
-2.5331889962898622e+00 -2.5331904520282214e+00 -2.5331919461118848e+00 -2.5331934795508864e+00 
-2.5331950533818746e+00 -2.5331966686687943e+00 -2.5331983265036282e+00 -2.5332000280071036e+00 
-2.5332017743294819e+00 -2.5332035666513235e+00 -2.5332054061842797e+00 -2.5332072941719090e+00 
-2.5332092318905368e+00 -2.5332112206501112e+00 -2.5332132617950771e+00 -2.5332153567052802e+00 
-2.5332175067969378e+00 -2.5332197135235539e+00 -2.5332219783769148e+00 -2.5332243028881085e+00 
-2.5332266886285546e+00 -2.5332291372110491e+00 -2.5332316502908911e+00 -2.5332342295669537e+00 
-2.5332368767828815e+00 -2.5332395937282368e+00 -2.5332423822397105e+00 -2.5332452442023836e+00 
-2.5332481815509929e+00 -2.5332511962712196e+00 -2.5332542904010609e+00 -2.5332574660321820e+00 
-2.5332607253113513e+00 -2.5332640704418923e+00 -2.5332675036851362e+00 -2.5332710273619941e+00 
-2.5332746438545124e+00 -2.5332783556074596e+00 -2.5332821651300259e+00 -2.5332860749974637e+00 
-2.5332900878528752e+00 -2.5332942064089714e+00 -2.5332984334499202e+00 -2.5333027718332168e+00 
-2.5333072244916162e+00 -2.5333117944351251e+00 -2.5333164847530432e+00 -2.5333212986160105e+00 
-2.5333262392781992e+00 -2.5333313100794967e+00 -2.5333365144477433e+00 -2.5333418559010705e+00 
-2.5333473380502731e+00 -2.5333529646012551e+00 -2.5333587393575145e+00 -2.5333646662227434e+00 
-2.5333707492034394e+00 -2.5333769924116383e+00 -2.5333834000676578e+00 -2.5333899765029924e+00 
-2.5333967261632004e+00 -2.5334036536109528e+00 -2.5334107635290666e+00 -2.5334180607237031e+00 
-2.5334255501276139e+00 -2.5334332368034507e+00 -2.5334411259472223e+00 -2.5334492228917687e+00 
-2.5334575331103917e+00 -2.5334660622205414e+00 -2.5334748159876068e+00 -2.5334838003288311e+00 
-2.5334930213172773e+00 -2.5335024851859580e+00 -2.5335121983320490e+00 -2.5335221673211894e+00 
-2.5335323988919218e+00 -2.5335428999602563e+00 -2.5335536776243268e+00 -2.5335647391691944e+00 
-2.5335760920717592e+00 -2.5335877440058221e+00 -2.5335997028472561e+00 -2.5336119766793082e+00 
-2.5336245737980843e+00 -2.5336375027181344e+00 -2.5336507721781909e+00 -2.5336643911470880e+00 
-2.5336783688297850e+00 -2.5336927146736010e+00 -2.5337074383745581e+00 -2.5337225498839611e+00 
-2.5337380594150800e+00 -2.5337539774500399e+00 -2.5337703147468935e+00 -2.5337870823468829e+00 
-2.5338042915818804e+00 -2.5338219540820353e+00 -2.5338400817836053e+00 -2.5338586869370343e+00 
-2.5338777821152041e+00 -2.5338973802219318e+00 -2.5339174945006855e+00 -2.5339381385435482e+00 
-2.5339593263003990e+00 -2.5339810720883698e+00 -2.5340033906015464e+00 -2.5340262969209997e+00 
-2.5340498065249011e+00 -2.5340739352991712e+00 -2.5340986995482919e+00 -2.5341241160063581e+00 
-2.5341502018486337e+00 -2.5341769747031333e+00 -2.5342044526627765e+00 -2.5342326542978348e+00 
-2.5342615986685901e+00 -2.5342913053383640e+00 -2.5343217943869192e+00 -2.5343530864242156e+00 
-2.5343852026044518e+00 -2.5344181646404893e+00 -2.5344519948185158e+00 -2.5344867160130349e+00 
-2.5345223517023410e+00 -2.5345589259841477e+00 -2.5345964635916838e+00 -2.5346349899098510e+00 
-2.5346745309920293e+00 -2.5347151135771191e+00 -2.5347567650512790e+00 -2.5347995134789856e+00 
-2.5348433877439982e+00 -2.5348884174914073e+00 -2.5349346331466776e+00 -2.5349820659360698e+00 
-2.5350307479077765e+00 -2.5350807119535208e+00 -2.5351319918306943e+00 -2.5351846221852030e+00 
-2.5352386385747994e+00 -2.5352940774930635e+00 -2.5353509763939241e+00 -2.5354093737170142e+00 
-2.5354693089136715e+00 -2.5355308224733109e+00 -2.5355939559508118e+00 -2.5356587519946077e+00 
-2.5357252543753668e+00 -2.5357935080155003e+00 -2.5358635590193961e+00 -2.5359354547045010e+00 
-2.5360092436333539e+00 -2.5360849756460131e+00 -2.5361627018937516e+00 -2.5362424748737853e+00 
-2.5363243484642175e+00 -2.5364083779604680e+00 -2.5364946201126264e+00 -2.5365831331635502e+00 
-2.5366739768881064e+00 -2.5367672126334231e+00 -2.5368629033601158e+00 -2.5369611136847183e+00 
-2.5370619099232328e+00 -2.5371653601355719e+00 -2.5372715341715217e+00 -2.5373805037177157e+00 
-2.5374923423455797e+00 -2.5376071255612409e+00 -2.5377249308560588e+00 -2.5378458377585620e+00 
-2.5379699278883838e+00 -2.5380972850106738e+00 -2.5382279950924485e+00 -2.5383621463606447e+00 
-2.5384998293610956e+00 -2.5386411370195159e+00 -2.5387861647038217e+00 -2.5389350102881245e+00 
-2.5390877742186291e+00 -2.5392445595808817e+00 -2.5394054721689590e+00 -2.5395706205565376e+00 
-2.5397401161696846e+00 -2.5399140733615413e+00 -2.5400926094891338e+00 -2.5402758449919416e+00 
-2.5404639034725425e+00 -2.5406569117796871e+00 -2.5408550000931154e+00 -2.5410583020106410e+00 
-2.5412669546378304e+00 -2.5414810986798231e+00 -2.5417008785352082e+00 -2.5419264423927626e+00 
-2.5421579423307890e+00 -2.5423955344186515e+00 -2.5426393788209825e+00 -2.5428896399048440e+00 
-2.5431464863497468e+00 -2.5434100912600730e+00 -2.5436806322804912e+00 -2.5439582917149592e+00 
-2.5442432566482109e+00 -2.5445357190703808e+00 -2.5448358760052519e+00 -2.5451439296413447e+00 
-2.5454600874667550e+00 -2.5457845624075430e+00 -2.5461175729692482e+00 -2.5464593433822178e+00 
-2.5468101037511173e+00 -2.5471700902076400e+00 -2.5475395450675715e+00 -2.5479187169918212e+00 
-2.5483078611513839e+00 -2.5487072393969652e+00 -2.5491171204323182e+00 -2.5495377799926899e+00 
-2.5499695010276606e+00 -2.5504125738882450e+00 -2.5508672965192130e+00 -2.5513339746563726e+00 
-2.5518129220285872e+00 -2.5523044605652072e+00 -2.5528089206085620e+00 -2.5533266411320970e+00 
-2.5538579699640658e+00 -2.5544032640166576e+00 -2.5549628895211507e+00 -2.5555372222689843e+00 
-2.5561266478590912e+00 -2.5567315619513105e+00 -2.5573523705261798e+00 -2.5579894901514031e+00 
-2.5586433482552580e+00 -2.5593143834065795e+00 -2.5600030456017295e+00 -2.5607097965590895e+00 
-2.5614351100209554e+00 -2.5621794720629065e+00 -2.5629433814106313e+00 -2.5637273497651654e+00 
-2.5645319021362192e+00 -2.5653575771834292e+00 -2.5662049275664329e+00 -2.5670745203037351e+00 
-2.5679669371401896e+00 -2.5688827749237628e+00 -2.5698226459918128e+00 -2.5707871785664991e+00 
-2.5717770171602981e+00 -2.5727928229914605e+00 -2.5738352744094461e+00 -2.5749050673311453e+00 
-2.5760029156874720e+00 -2.5771295518811246e+00 -2.5782857272554289e+00 -2.5794722125741791e+00 
-2.5806897985140469e+00 -2.5819392961681045e+00 -2.5832215375615522e+00 -2.5845373761805157e+00 
-2.5858876875128898e+00 -2.5872733696024555e+00 -2.5886953436160036e+00 -2.5901545544243492e+00 
-2.5916519711969990e+00 -2.5931885880105705e+00 -2.5947654244720337e+00 -2.5963835263565036e+00 
-2.5980439662597616e+00 -2.5997478442661852e+00 -2.6014962886325299e+00 -2.6032904564869819e+00 
-2.6051315345447281e+00 -2.6070207398401095e+00 -2.6089593204749968e+00 -2.6109485563850581e+00 
-2.6129897601228498e+00 -2.6150842776584846e+00 -2.6172334891990223e+00 -2.6194388100255228e+00 
-2.6217016913489135e+00 -2.6240236211851617e+00 -2.6264061252492388e+00 -2.6288507678689048e+00 
-2.6313591529185381e+00 -2.6339329247725387e+00 -2.6365737692800626e+00 -2.6392834147601953e+00 
-2.6420636330176515e+00 -2.6449162403807374e+00 -2.6478430987605996e+00 -2.6508461167322017e+00 
-2.6539272506375924e+00 -2.6570885057119509e+00 -2.6603319372318621e+00 -2.6636596516867059e+00 
-2.6670738079732974e+00 -2.6705766186137438e+00 -2.6741703509968757e+00 -2.6778573286434728e+00 
-2.6816399324953220e+00 -2.6855206022282188e+00 -2.6895018375893360e+00 -2.6935861997586064e+00 
-2.6977763127345806e+00 -2.7020748647443757e+00 -2.7064846096783537e+00 -2.7110083685489892e+00 
-2.7156490309736281e+00 -2.7204095566823150e+00 -2.7252929770488650e+00 -2.7303023966460587e+00 
-2.7354409948250109e+00 -2.7407120273173118e+00 -2.7461188278605611e+00 -2.7516648098466368e+00 
-2.7573534679922433e+00 -2.7631883800314427e+00 -2.7691732084289185e+00 -2.7753117021146103e+00 
-2.7816076982378655e+00 -2.7880651239403877e+00 -2.7946879981481647e+00 -2.8014804333803416e+00 
-2.8084466375742383e+00 -2.8155909159255499e+00 -2.8229176727422751e+00 -2.8304314133114907e+00 
-2.8381367457765152e+00 -2.8460383830235267e+00 -2.8541411445757632e+00 -2.8624499584933139e+00 
-2.8709698632765992e+00 -2.8797060097706417e+00 -2.8886636630687978e+00 -2.8978482044127083e+00 
-2.9072651330854047e+00 -2.9169200682955894e+00 -2.9268187510489669e+00 -2.9369670460034820e+00 
-2.9473709433054629e+00 -2.9580365604018621e+00 -2.9689701438248908e+00 -2.9801780709448025e+00 
-2.9916668516857929e+00 -3.0034431302003557e+00 -3.0155136864964827e+00 -3.0278854380123690e+00 
-3.0405654411321885e+00 -3.0535608926372428e+00 -3.0668791310852130e+00 -3.0805276381105422e+00 
-3.0945140396387210e+00 -3.1088461070057432e+00 -3.1235317579751145e+00 -3.1385790576430401e+00 
-3.1539962192226159e+00 -3.1697916046968340e+00 -3.1859737253296556e+00 -3.2025512420249789e+00 
-3.2195329655214309e+00 -3.2369278564103539e+00 -3.2547450249640111e+00 -3.2729937307611832e+00 
-3.2916833820957256e+00 -3.3108235351523154e+00 -3.3304238929343803e+00 -3.3504943039271464e+00 
-3.3710447604792457e+00 -3.3920853968840832e+00 -3.4136264871413928e+00 -3.4356784423806337e+00 
-3.4582518079236855e+00 -3.4813572599658449e+00 -3.5050056018525702e+00 -3.5292077599273042e+00 
-3.5539747789258622e+00 -3.5793178168915172e+00 -3.6052481395837330e+00 -3.6317771143525244e+00 
-3.6589162034482792e+00 -3.6866769567368491e+00 -3.7150710037892605e+00 -3.7441100453112814e+00 
-3.7738058438796198e+00 -3.8041702139492379e+00 -3.8352150110945225e+00 -3.8669521204468165e+00 
-3.8993934442885299e+00 -3.9325508887632767e+00 -3.9664363496599195e+00 -4.0010616972274402e+00 
-4.0364387599761713e+00 -4.0725793074191010e+00 -4.1094950317065599e+00 -4.1471975281064282e+00 
-4.1856982742790700e+00 -4.2250086082980980e+00 -4.2651397053647226e+00 -4.3061025531625203e+00 
-4.3479079258006648e+00 -4.3905663562896642e+00 -4.4340881074967946e+00 -4.4784831415242623e+00 
-4.5237610874546181e+00 -4.5699312074089251e+00 -4.6170023608596482e+00 -4.6649829671447050e+00 
-4.7138809661260801e+00 -4.7637037769378363e+00 -4.8144582547734887e+00 -4.8661506456573989e+00 
-4.9187865391494254e+00 -4.9723708189376703e+00 -5.0269076112728959e+00 -5.0824002311996077e+00 
-5.1388511265456893e+00 -5.1962618196383872e+00 -5.2546328467148653e+00 -5.3139636950004183e+00 
-5.3742527374374953e+00 -5.4354971650563098e+00 -5.4976929169791893e+00 -5.5608346080651456e+00 
-5.6249154542109823e+00 -5.6899271953293349e+00 -5.7558600160448874e+00 -5.8227024641586427e+00 
-5.8904413669405580e+00 -5.9590617453329688e+00 -6.0285467261635377e+00 -6.0988774524777583e+00 
-6.1700329921297330e+00 -6.2419902447899940e+00 -6.3147238475444549e+00 -6.3882060792976505e+00 
-6.4624067642091063e+00 -6.5372931744241702e+00 -6.6128299323960604e+00 -6.6889789131234023e+00 
-6.7656991466659155e+00 -6.8429467213351449e+00 -6.9206746880052838e+00 -6.9988329660224951e+00 
-7.0773682512341054e+00 -7.1562239267152954e+00 -7.2353399768169524e+00 -7.3146529051962750e+00 
-7.3940956575575365e+00 -7.4735975498897398e+00 -7.5530842030256018e+00 -7.6324774844173131e+00 
-7.7116954580835753e+00 -7.7906523437371034e+00 -7.8692584861612742e+00 -7.9474203359749316e+00 
-8.0250404429785736e+00 -8.1020174633273800e+00 -8.1782461818485714e+00 -8.2536175508757879e+00 
-8.3280187470210123e+00 -8.4013332473506495e+00 -8.4734409264958099e+00 -8.5442181762612979e+00 
-8.6135380493220417e+00 -8.6812704286395999e+00 -8.7472822242501476e+00 -8.8114375990812999e+00 
-8.8735982254503654e+00 -8.9336235739037306e+00 -8.9913712360289306e+00 -9.0466972828029011e+00 
-9.0994566600299791e+00 -9.1495036223355495e+00 -9.1966922070610604e+00 -9.2408767493357846e+00 
-9.2819124394574004e+00 -9.3196559235294778e+00 -9.3539659481429176e+00 -9.3847040496766301e+00 
-9.4117352885407062e+00 -9.4349290284095062e+00 -9.4541597601848739e+00 -9.4693079700960752e+00 
-9.4802610509327430e+00 -9.4869142549907650e+00 -9.4891716868512468e+00 -9.4869473335719654e+00 
-9.4801661293017574e+00 -9.4687650507277734e+00 -9.4526942390576174e+00 -9.4319181435081880e+00 
-9.4064166805003691e+00 -9.3761864018627499e+00 -9.3412416644475638e+00 -9.3016157925759977e+00 
-9.2573622236780597e+00 -9.2085556263884758e+00 -9.1552929791911613e+00 -9.0976945965150868e+00 
-9.0359050879135268e+00 -8.9700942346637778e+00 -8.9004577668511260e+00 -8.8272180226996912e+00 
-8.7506244706053540e+00 -8.6709540731181516e+00 -8.5885114709600749e+00 -8.5036289640987412e+00 
-8.4166662660194902e+00 -8.3280100066008984e+00 -8.2380729585325234e+00 -8.1472929620336316e+00 
-8.0561315227860479e+00 -7.9650720585808363e+00 -7.8746177712254450e+00 -7.7852891218555600e+00 
-7.6976208900276797e+00 -7.6121587998795697e+00 -7.5294557003165377e+00 -7.4500672907228092e+00 
-7.3745473891106874e+00 -7.3034427460039657e+00 -7.2372874147931965e+00 -7.1765966977292379e+00 
-7.1218606962533357e+00 -7.0735375049966018e+00 -7.0320461003743944e+00 -6.9977589872997683e+00 
-6.9709946810079799e+00 -6.9520101151444988e+00 -6.9409930819269645e+00 -6.9380548251109841e+00 
-6.9432229213387409e+00 -6.9564345998270758e+00 -6.9775306638539520e+00 -7.0062501895915261e+00 
-7.0422261879309387e+00 -7.0849830481445562e+00 -7.1339322766635522e+00 -7.1883757582651997e+00 
-7.2475049426422515e+00 -7.3104047924120961e+00 -7.3760592788686514e+00 -7.4433591250481346e+00 
-7.5111119112777445e+00 -7.5780546325001490e+00 -7.6428687471566947e+00 -7.7041977090978424e+00 
-7.7606669298451942e+00 -7.8109060353844981e+00 -7.8535732423290243e+00 -7.8873815806644396e+00 
-7.9111266376199145e+00 -7.9237153970297109e+00 -7.9241956857480869e+00 -7.9117856400239202e+00 
-7.8859025289411084e+00 -7.8461901855260203e+00 -7.7925442152398467e+00 -7.7251340757299536e+00 
-7.6444210641350434e+00 -7.5511711869153144e+00 -7.4464618762980974e+00 -7.3316815055133944e+00 
-7.2085207047049380e+00 -7.0789545633459685e+00 -6.9452149415689117e+00 -6.8097523201914596e+00 
-6.6751868802161551e+00 -6.5442488417803206e+00 -6.4197084955647803e+00 -6.3042968267148316e+00 
-6.2006181536554896e+00 -6.1110567697060505e+00 -6.0376801613850573e+00 -5.9821419581878974e+00 
-5.9455883317415452e+00 -5.9285720300038109e+00 -5.9309786266994191e+00 -5.9519697719606164e+00 
-5.9899482643545641e+00 -6.0425495419802822e+00 -6.1066636961958283e+00 -6.1784913171870706e+00 
-6.2536353785833745e+00 -6.3272299725367702e+00 -6.3941050522962710e+00 -6.4489844668918579e+00 
-6.4867125531436338e+00 -6.5025024268092961e+00 -6.4921969718979033e+00 -6.4525314031075229e+00 
-6.3813842776430425e+00 -6.2780020410292821e+00 -6.1431808020457233e+00 -5.9793882394518612e+00 
-5.7908086602734210e+00 -5.5832955577491798e+00 -5.3642188632358616e+00 -5.1421986750422031e+00 
-4.9267236360213778e+00 -4.7276602042489735e+00 -4.5546684290116470e+00 -4.4165499275509390e+00 
-4.3205637486612432e+00 -4.2717547940417280e+00 -4.2723464512369071e+00 -4.3212530782050900e+00 
-4.4137680382057329e+00 -4.5414783046147837e+00 -4.6924467336680644e+00 -4.8516878695586128e+00 
-5.0019431979782656e+00 -5.1247383163896520e+00 -5.2016791473322197e+00 -5.2159185973713171e+00 
-5.1537000041783774e+00 -5.0058600418850290e+00 -4.7691527228419242e+00 -4.4472406843312253e+00 
-4.0511954281947160e+00 -3.5993616713131247e+00 -3.1164791952986897e+00 -2.6320219964094105e+00 
-2.1778067268983086e+00 -1.7850307724214263e+00 -1.4810084777173473e+00 -1.2859616433241625e+00 
-1.2102680928986882e+00 -1.2525674851091364e+00 -1.3990648137888098e+00 -1.6242659162075859e+00 
-1.8932332550254432e+00 -2.1652814926138237e+00 -2.3987501809701617e+00 -2.5570959541027758e+00 
-2.6081839809610163e+00 -2.5771171111494335e+00 -2.5433238100289359e+00 -2.5105127648009806e+00 
-2.4780836020201273e+00 -2.4460774289728096e+00 -2.4144842338973787e+00 -2.3832991322297157e+00 
-2.3525168086537693e+00 -2.3221320653540105e+00 -2.2921397667707066e+00 -2.2625348441993891e+00 
-2.2333122942942589e+00 -2.2044671784194962e+00 -2.1759946216361294e+00 -2.1478898120464796e+00 
-2.1201479998355506e+00 -2.0927644966007479e+00 -2.0657346744240703e+00 -2.0390539652397015e+00 
-2.0127178599094604e+00 -1.9867219075656029e+00 -1.9610617148532190e+00 -1.9357329450989731e+00 
-1.9107313177013794e+00 -1.8860526073097723e+00 -1.8616926431657499e+00 -1.8376473083597911e+00 
-1.8139125391881046e+00 -1.7904843243887905e+00 -1.7673587045589843e+00 -1.7445317713946964e+00 
-1.7219996670824083e+00 -1.6997585836442495e+00 -1.6778047622828467e+00 -1.6561344927446795e+00 
-1.6347441126968167e+00 -1.6136300071163088e+00 -1.5927886076656175e+00 -1.5722163920985339e+00 
-1.5519098836655467e+00 -1.5318656505118244e+00 -1.5120803051287395e+00 -1.4925505037499696e+00 
-1.4732729457857829e+00 -1.4542443733134554e+00 -1.4354615704485447e+00 -1.4169213628866399e+00 
-1.3986206172822637e+00 -1.3805562408065586e+00 -1.3627251805431677e+00 -1.3451243753100786e+00 
-1.3277509477712064e+00 -1.3106019124530690e+00 -1.2936743711543348e+00 -1.2769654631086584e+00 
-1.2604723645011393e+00 -1.2441922879911067e+00 -1.2281224822408880e+00 -1.2122602314506934e+00 
-1.1966028548995202e+00 -1.1811477064918210e+00 -1.1658921743100701e+00 -1.1508336801730963e+00 
-1.1359696792000082e+00 -1.1212976593798114e+00 -1.1068151411466673e+00 -1.0925196766527248e+00 
-1.0784088503837328e+00 -1.0644802780969345e+00 -1.0507316051545554e+00 -1.0371605079187103e+00 
-1.0237646932820739e+00 -1.0105418995397986e+00 -9.9748988688327800e-01 -9.8460645208888631e-01 
-9.7188941799952089e-01 -9.5933663543209546e-01 -9.4694598294916432e-01 -9.3471536650999620e-01 
-9.2264271911674656e-01 -9.1072600046520014e-01 -8.9896319660006319e-01 -8.8735231957475658e-01 
-8.7589140711568192e-01 -8.6457852229081567e-01 -8.5341175318264362e-01 -8.4238921256534882e-01 
-8.3150903758619188e-01 -8.2076938945099609e-01 -8.1016845311370045e-01 -7.9970443696997362e-01 
-7.8937557255471380e-01 -7.7918011424348721e-01 -7.6911633895779230e-01 -7.5918254587409595e-01 
-7.4937705613666472e-01 -7.3969821257404611e-01 -7.3014437941919563e-01 -7.2071394203323758e-01 
-7.1140530663273682e-01 -7.0221690002035131e-01 -6.9314716931436438e-01 -6.8419458171972136e-01 
-6.7535762478401540e-01 -6.6663480323991708e-01 -6.5802464545887540e-01 -6.4952569420892070e-01 
-6.4113651386046466e-01 -6.3285568664795833e-01 -6.2468181308594239e-01 -6.1661351177411583e-01 
-6.0864941915636794e-01 -6.0078818928666700e-01 -5.9302849356722176e-01 -5.8536902045156625e-01 
-5.7780847690965664e-01 -5.7034558272300306e-01 -5.6297907815159909e-01 -5.5570771805038821e-01 
-5.4853027373674323e-01 -5.4144553085118141e-01 -5.3445229435074215e-01 -5.2754938093868997e-01 
-5.2073562425525133e-01 -5.1400987248463070e-01 -5.0737099052305434e-01 -5.0081785401616952e-01 
-4.9434935701939220e-01 -4.8796440610006897e-01 -4.8166192218694098e-01 -4.7544083990853819e-01 
-4.6930010787150550e-01 -4.6323868843100380e-01 -4.5725555722885353e-01 -4.5134970311451783e-01 
-4.4552012783428691e-01 -4.3976584621635073e-01 -4.3408588617268473e-01 -4.2847928781525702e-01 
-4.2294510344969305e-01 -4.1748239781442875e-01 -4.1209024773650021e-01 -4.0676774196501531e-01 
-4.0151398101837182e-01 -3.9632807703169104e-01 -3.9120915360620073e-01 -3.8615634566062162e-01 
-3.8116879928454728e-01 -3.7624567159379407e-01 -3.7138613058770542e-01 -3.6658935500838258e-01 
-3.6185453420182612e-01 -3.5718086798093890e-01 -3.5256756649037690e-01 -3.4801385007320701e-01 
-3.4351894913933467e-01 -3.3908210403567868e-01 -3.3470256491805384e-01 -3.3037959162472708e-01 
-3.2611245355162738e-01 -3.2190042952916564e-01 -3.1774280770065366e-01 -3.1363888540228219e-01 
-3.0958796904463887e-01 -3.0558937399574831e-01 -3.0164242446559847e-01 -2.9774645339214928e-01 
-2.9390080232878829e-01 -2.9010482133322191e-01 -2.8635786885778924e-01 -2.8265931164116365e-01 
-2.7900852460144204e-01 -2.7540489073059915e-01 -2.7184780099028372e-01 -2.6833665420895236e-01 
-2.6487085698031371e-01 -2.6144982356307589e-01 -2.5807297578197624e-01 -2.5473974293007995e-01 
-2.5144956167233379e-01 -2.4820187595035473e-01 -2.4499613688844721e-01 -2.4183180270082394e-01 
-2.3870833860001955e-01 -2.3562521670649214e-01 -2.3258191595937566e-01 -2.2957792202839342e-01 
-2.2661272722690276e-01 -2.2368583042606116e-01 -2.2079673697009919e-01 -2.1794495859268895e-01 
-2.1513001333438886e-01 -2.1235142546116062e-01 -2.0960872538392913e-01 -2.0690144957918916e-01 
-2.0422914051063715e-01 -2.0159134655180985e-01 -1.9898762190972927e-01 -1.9641752654953090e-01 
-1.9388062612006765e-01 -1.9137649188047440e-01 -1.8890470062768283e-01 -1.8646483462487487e-01 
-1.8405648153085366e-01 -1.8167923433034197e-01 -1.7933269126516585e-01 -1.7701645576634092e-01 
-1.7473013638702678e-01 -1.7247334673635792e-01 -1.7024570541412185e-01 -1.6804683594628669e-01 
-1.6587636672136127e-01 -1.6373393092757771e-01 -1.6161916649088562e-01 -1.5953171601374863e-01 
-1.5747122622870402e-01 -1.5543734991563862e-01 -1.5342974282749366e-01 -1.5144806567647259e-01 
-1.4949198355696183e-01 -1.4756116588892490e-01 -1.4565528636202388e-01 -1.4377402288046984e-01 
-1.4191705750858349e-01 -1.4008407641705772e-01 -1.3827476982991738e-01 -1.3648883197216202e-01 
-1.3472596101808793e-01 -1.3298585884620531e-01 -1.3126823178065491e-01 -1.2957278932978450e-01 
-1.2789924496156388e-01 -1.2624731584471921e-01 -1.2461672280092845e-01 -1.2300719025764317e-01 
-1.2141844620151653e-01 -1.1985022202853803e-01 -1.1830225292338790e-01 -1.1677427716319259e-01 
-1.1526603651764791e-01 -1.1377727609166524e-01 -1.1230774428229444e-01 -1.1085719273620293e-01 
-1.0942537630770628e-01 -1.0801205301734167e-01 -1.0661698401097354e-01 -1.0523993351943078e-01 
-1.0388066881865880e-01 -1.0253896019039645e-01 -1.0121458088335057e-01 -9.9907307074882268e-02 
-9.8616917833176249e-02 -9.7343195079906422e-02 -9.6085923553384411e-02 -9.4844890772181528e-02 
-9.3619886999220941e-02 -9.2410705206332766e-02 -9.1217141060483189e-02 -9.0038992951426866e-02 
-8.8876061475556947e-02 -8.7728150265610150e-02 -8.6595065321859677e-02 -8.5476615150253066e-02 
-8.4372610730049674e-02 -8.3282865481874246e-02 -8.2207195236186970e-02 -8.1145418202155581e-02 
-8.0097354936934123e-02 -7.9062828315336273e-02 -7.8041663499901423e-02 -7.7033687911344656e-02 
-7.6038731199392334e-02 -7.5056625213992548e-02 -7.4087203976895624e-02 -7.3130303653605622e-02 
-7.2185762525690297e-02 -7.1253420963450803e-02 -7.0333121398944265e-02 -6.9424708299353793e-02 
-6.8528028140703426e-02 -6.7642929381912173e-02 -6.6769262439183380e-02 -6.5906879660723519e-02 
-6.5055635301791467e-02 -6.4215385500064115e-02 -6.3385988251325492e-02 -6.2567303385465373e-02 
-6.1759192542793995e-02 -6.0961519150655216e-02 -6.0174148400347210e-02 -5.9396947224339504e-02 
-5.8629784273782390e-02 -5.7872529896312891e-02 -5.7125056114137755e-02 -5.6387236602408720e-02 
-5.5658946667872924e-02 -5.4940063227797986e-02 -5.4230464789170575e-02 -5.3530031428166924e-02 
-5.2838644769880962e-02 -5.2156187968322193e-02 -5.1482545686666541e-02 -5.0817604077765685e-02 
-5.0161250764904942e-02 -4.9513374822811936e-02 -4.8873866758910610e-02 -4.8242618494816071e-02 
-4.7619523348069251e-02 -4.7004476014107337e-02 -4.6397372548466917e-02 -4.5798110349217498e-02 
-4.5206588139621043e-02 -4.4622705951016237e-02 -4.4046365105923503e-02 -4.3477468201368281e-02 
-4.2915919092419673e-02 -4.2361622875941723e-02 -4.1814485874554566e-02 -4.1274415620802737e-02 
-4.0741320841527914e-02 -4.0215111442443600e-02 -3.9695698492908917e-02 -3.9182994210899137e-02 
-3.8676911948170314e-02 -3.8177366175615526e-02 -3.7684272468810238e-02 -3.7197547493744397e-02 
-3.6717108992738688e-02 -3.6242875770543095e-02 -3.5774767680614272e-02 -3.5312705611570884e-02 
-3.4856611473823511e-02 -3.4406408186377309e-02 -3.3962019663805194e-02 -3.3523370803389151e-02 
-3.3090387472427749e-02 -3.2662996495707503e-02 -3.2241125643136130e-02 -3.1824703617535442e-02 
-3.1413660042591995e-02 -3.1007925450963293e-02 -3.0607431272537660e-02 -3.0212109822845744e-02 
-2.9821894291621628e-02 -2.9436718731511734e-02 -2.9056518046929759e-02 -2.8681227983055044e-02 
-2.8310785114973560e-02 -2.7945126836958909e-02 -2.7584191351891815e-02 -2.7227917660816229e-02 
-2.6876245552630403e-02 -2.6529115593911037e-02 -2.6186469118868898e-02 -2.5848248219434183e-02 
-2.5514395735469882e-02 -2.5184855245111607e-02 -2.4859571055232142e-02 -2.4538488192029202e-02 
-2.4221552391734687e-02 -2.3908710091444015e-02 -2.3599908420063837e-02 -2.3295095189376676e-02 
-2.2994218885221140e-02 -2.2697228658785675e-02 -2.2404074318015142e-02 -2.2114706319128218e-02 
-2.1829075758244366e-02 -2.1547134363118971e-02 -2.1268834484985205e-02 -2.0994129090501287e-02 
-2.0722971753801722e-02 -2.0455316648651228e-02 -2.0191118540699989e-02 -1.9930332779838942e-02 
-1.9672915292653807e-02 -1.9418822574976572e-02 -1.9168011684533182e-02 -1.8920440233686206e-02 
-1.8676066382271199e-02 -1.8434848830525607e-02 -1.8196746812109130e-02 -1.7961720087213917e-02 
-1.7729728935764077e-02 -1.7500734150702850e-02 -1.7274697031366529e-02 -1.7051579376943963e-02 
</PP_LOCAL>


<PP_NONLOCAL>
  <PP_DIJ>
 0   Number of nonzero Dij
  </PP_DIJ>
</PP_NONLOCAL>
<PP_PSWFC>
S    0   1.00          Wavefunction
 1.5410124758975758e-04  1.5611764196451453e-04  1.5816042059181511e-04  1.6022992870608847e-04 
 1.6232651605910993e-04  1.6445053697910968e-04  1.6660235043065527e-04  1.6878232007531713e-04 
 1.7099081433312848e-04  1.7322820644484886e-04  1.7549487453504320e-04  1.7779120167598511e-04 
 1.8011757595239730e-04  1.8247439052703873e-04  1.8486204370715012e-04  1.8728093901176833e-04 
 1.8973148523992257e-04  1.9221409653972184e-04  1.9472919247834762e-04  1.9727719811296051e-04 
 1.9985854406253696e-04  2.0247366658064444e-04  2.0512300762916876e-04  2.0780701495300781e-04 
 2.1052614215573995e-04  2.1328084877628528e-04  2.1607160036656806e-04  2.1889886857019608e-04 
 2.2176313120217010e-04  2.2466487232963427e-04  2.2760458235368615e-04  2.3058275809225459e-04 
 2.3359990286406321e-04  2.3665652657369219e-04  2.3975314579775418e-04  2.4289028387219553e-04 
 2.4606847098074220e-04  2.4928824424450143e-04  2.5255014781273665e-04  2.5585473295482983e-04 
 2.5920255815344706e-04  2.6259418919892335e-04  2.6603019928488254e-04  2.6951116910510817e-04 
 2.7303768695168175e-04  2.7661034881440590e-04  2.8022975848152710e-04  2.8389652764177793e-04 
 2.8761127598775317e-04  2.9137463132063987e-04  2.9518722965631602e-04  2.9904971533283937e-04 
 3.0296274111934161e-04  3.0692696832634777e-04  3.1094306691753872e-04  3.1501171562297697e-04 
 3.1913360205381309e-04  3.2330942281849319e-04  3.2753988364048767e-04  3.3182569947755921e-04 
 3.3616759464259277e-04  3.4056630292600551e-04  3.4502256771975874e-04  3.4953714214299266e-04 
 3.5411078916930535e-04  3.5874428175569617e-04  3.6343840297319756e-04  3.6819394613921483e-04 
 3.7301171495159925e-04  3.7789252362447376e-04  3.8283719702583648e-04  3.8784657081696614e-04 
 3.9292149159364910e-04  3.9806281702925596e-04  4.0327141601969062e-04  4.0854816883023382e-04 
 4.1389396724431121e-04  4.1930971471420474e-04  4.2479632651373935e-04  4.3035472989296403e-04 
 4.3598586423486001e-04  4.4169068121409735e-04  4.4747014495787047e-04  4.5332523220883558e-04 
 4.5925693249018409e-04  4.6526624827287138e-04  4.7135419514503761e-04  4.7752180198364281e-04 
 4.8377011112834894e-04  4.9010017855767737e-04  4.9651307406747011e-04  5.0300988145168769e-04 
 5.0959169868557087e-04  5.1625963811120106e-04  5.2301482662548738e-04  5.2985840587061372e-04 
 5.3679153242697838e-04  5.4381537800865596e-04  5.5093112966142141e-04  5.5813998996335947e-04 
 5.6544317722810426e-04  5.7284192571073413e-04  5.8033748581636272e-04  5.8793112431145965e-04 
 5.9562412453793411e-04  6.0341778663002259e-04  6.1131342773401134e-04  6.1931238223083738e-04 
 6.2741600196159820e-04  6.3562565645601597e-04  6.4394273316388821e-04  6.5236863768956799e-04 
 6.6090479402951382e-04  6.6955264481294405e-04  6.7831365154564398e-04  6.8718929485695997e-04 
 6.9618107475002944e-04  7.0529051085527835e-04  7.1451914268724380e-04  7.2386852990474933e-04 
 7.3334025257449080e-04  7.4293591143806707e-04  7.5265712818250628e-04  7.6250554571432986e-04 
 7.7248282843720806e-04  7.8259066253324094e-04  7.9283075624792508e-04  8.0320484017884670e-04 
 8.1371466756815353e-04  8.2436201459885265e-04  8.3514868069498429e-04  8.4607648882572531e-04 
 8.5714728581346995e-04  8.6836294264594342e-04  8.7972535479239743e-04  8.9123644252394284e-04 
 9.0289815123807790e-04  9.1471245178745394e-04  9.2668134081295484e-04  9.3880684108112243e-04 
 9.5109100182600435e-04  9.6353589909547478e-04  9.7614363610208079e-04  9.8891634357848798e-04 
 1.0018561801375659e-03  1.0149653326371965e-03  1.0282460165498468e-03  1.0417004763369829e-03 
 1.0553309858283783e-03  1.0691398486063891e-03  1.0831293983952558e-03  1.0973019994554964e-03 
 1.1116600469834640e-03  1.1262059675161290e-03  1.1409422193411590e-03  1.1558712929123629e-03 
 1.1709957112705730e-03  1.1863180304700323e-03  1.2018408400103590e-03  1.2175667632741683e-03 
 1.2334984579704111e-03  1.2496386165835242e-03  1.2659899668284488e-03  1.2825552721116044e-03 
 1.2993373319978966e-03  1.3163389826838312e-03  1.3335630974768238e-03  1.3510125872807737e-03 
 1.3686904010879962e-03  1.3865995264775914e-03  1.4047429901203250e-03  1.4231238582901318e-03 
 1.4417452373822908e-03  1.4606102744383989e-03  1.4797221576781940e-03  1.4990841170383585e-03 
 1.5186994247183528e-03  1.5385713957333975e-03  1.5587033884746978e-03  1.5790988052769776e-03 
 1.5997610929934659e-03  1.6206937435783813e-03  1.6419002946770542e-03  1.6633843302237554e-03 
 1.6851494810473644e-03  1.7071994254849404e-03  1.7295378900033405e-03  1.7521686498289542e-03 
 1.7750955295856886e-03  1.7983224039412925e-03  1.8218531982621435e-03  1.8456918892765949e-03 
 1.8698425057469999e-03  1.8943091291505395e-03  1.9190958943689431e-03  1.9442069903872403e-03 
 1.9696466610016530e-03  1.9954192055367448e-03  2.0215289795719599e-03  2.0479803956776608e-03 
 2.0747779241607946e-03  2.1019260938203162e-03  2.1294294927125001e-03  2.1572927689262472e-03 
 2.1855206313685558e-03  2.2141178505602505e-03  2.2430892594421268e-03  2.2724397541916469e-03 
 2.3021742950503094e-03  2.3322979071618505e-03  2.3628156814214014e-03  2.3937327753357687e-03 
 2.4250544138949455e-03  2.4567858904550495e-03  2.4889325676327877e-03  2.5214998782116327e-03 
 2.5544933260598585e-03  2.5879184870605688e-03  2.6217810100539018e-03  2.6560866177915616e-03 
 2.6908411079038224e-03  2.7260503538791975e-03  2.7617203060569134e-03  2.7978569926323635e-03 
 2.8344665206757155e-03  2.8715550771638500e-03  2.9091289300257803e-03  2.9471944292017668e-03 
 2.9857580077162528e-03  3.0248261827648748e-03  3.0644055568156497e-03  3.1045028187245941e-03 
 3.1451247448659155e-03  3.1862782002769919e-03  3.2279701398183307e-03  3.2702076093486863e-03 
 3.3129977469155635e-03  3.3563477839612592e-03  3.4002650465447177e-03  3.4447569565793307e-03 
 3.4898310330869400e-03  3.5354948934682344e-03  3.5817562547897585e-03  3.6286229350877626e-03 
 3.6761028546890805e-03  3.7242040375492971e-03  3.7729346126084101e-03  3.8223028151642118e-03 
 3.8723169882636365e-03  3.9229855841122893e-03  3.9743171655024258e-03  4.0263204072595645e-03 
 4.0790040977080515e-03  4.1323771401557694e-03  4.1864485543982510e-03  4.2412274782424632e-03 
 4.2967231690505181e-03  4.3529450053035506e-03  4.4099024881860465e-03  4.4676052431908949e-03 
 4.5260630217453801e-03  4.5852857028584873e-03  4.6452832947896858e-03  4.7060659367395520e-03 
 4.7676439005624877e-03  4.8300275925018069e-03  4.8932275549475324e-03  4.9572544682171182e-03 
 5.0221191523594872e-03  5.0878325689826037e-03  5.1544058231049817e-03  5.2218501650313151e-03 
 5.2901769922526912e-03  5.3593978513715593e-03  5.4295244400519157e-03  5.5005686089949265e-03 
 5.5725423639403620e-03  5.6454578676942077e-03  5.7193274421827164e-03  5.7941635705333399e-03 
 5.8699788991827982e-03  5.9467862400127136e-03  6.0245985725131098e-03  6.1034290459742067e-03 
 6.1832909817067802e-03  6.2641978752915675e-03  6.3461633988580205e-03  6.4292014033928042e-03 
 6.5133259210784595e-03  6.5985511676625655e-03  6.6848915448578690e-03  6.7723616427736869e-03 
 6.8609762423791042e-03  6.9507503179982773e-03  7.0416990398383221e-03  7.1338377765501754e-03 
 7.2271820978228726e-03  7.3217477770116937e-03  7.4175507938005602e-03  7.5146073368991904e-03 
 7.6129338067754170e-03  7.7125468184231520e-03  7.8134632041664369e-03  7.9157000165000664e-03 
 8.0192745309672370e-03  8.1242042490747169e-03  8.2305069012460035e-03  8.3382004498130154e-03 
 8.4473030920466895e-03  8.5578332632271371e-03  8.6698096397537974e-03  8.7832511422960193e-03 
 8.8981769389848194e-03  9.0146064486460783e-03  9.1325593440759207e-03  9.2520555553586726e-03 
 9.3731152732280543e-03  9.4957589524721029e-03  9.6200073153823919e-03  9.7458813552481396e-03 
 9.8734023398957278e-03  1.0002591815274331e-02  1.0133471609088071e-02  1.0266063834475458e-02 
 1.0400390893736618e-02  1.0536475482108947e-02  1.0674340591591853e-02  1.0814009514821111e-02 
 1.0955505848993574e-02  1.1098853499842793e-02  1.1244076685666264e-02  1.1391199941404896e-02 
 1.1540248122775400e-02  1.1691246410456243e-02  1.1844220314327870e-02  1.1999195677767879e-02 
 1.2156198682001785e-02  1.2315255850510215e-02  1.2476394053492979e-02  1.2639640512391102e-02 
 1.2805022804467183e-02  1.2972568867445045e-02  1.3142307004209297e-02  1.3314265887565636e-02 
 1.3488474565062584e-02  1.3664962463875425e-02  1.3843759395753186e-02  1.4024895562029301e-02 
 1.4208401558696930e-02  1.4394308381549557e-02  1.4582647431387742e-02  1.4773450519292857e-02 
 1.4966749871968566e-02  1.5162578137150967e-02  1.5360968389088058e-02  1.5561954134089605e-02 
 1.5765569316147955e-02  1.5971848322631054e-02  1.6180825990048046e-02  1.6392537609888735e-02 
 1.6607018934537563e-02  1.6824306183263006e-02  1.7044436048283356e-02  1.7267445700909753e-02 
 1.7493372797767224e-02  1.7722255487094853e-02  1.7954132415125907e-02  1.8189042732548736e-02 
 1.8427026101049480e-02  1.8668122699937447e-02  1.8912373232854177e-02  1.9159818934566936e-02 
 1.9410501577847777e-02  1.9664463480439046e-02  1.9921747512106045e-02  2.0182397101778281e-02 
 2.0446456244779660e-02  2.0713969510149012e-02  2.0984982048051673e-02  2.1259539597283040e-02 
 2.1537688492865196e-02  2.1819475673737376e-02  2.2104948690541294e-02  2.2394155713502104e-02 
 2.2687145540406187e-02  2.2983967604676418e-02  2.3284671983545849e-02  2.3589309406330774e-02 
 2.3897931262804123e-02  2.4210589611669747e-02  2.4527337189138819e-02  2.4848227417608920e-02 
 2.5173314414446611e-02  2.5502653000874634e-02  2.5836298710964010e-02  2.6174307800732117e-02 
 2.6516737257347420e-02  2.6863644808441414e-02  2.7215088931528623e-02  2.7571128863535070e-02 
 2.7931824610436057e-02  2.8297236957003417e-02  2.8667427476663315e-02  2.9042458541464426e-02 
 2.9422393332157282e-02  2.9807295848385078e-02  3.0197230918986070e-02  3.0592264212407974e-02 
 3.0992462247234395e-02  3.1397892402823417e-02  3.1808622930058254e-02  3.2224722962210142e-02 
 3.2646262525912927e-02  3.3073312552249268e-02  3.3505944887948183e-02  3.3944232306693238e-02 
 3.4388248520540808e-02  3.4838068191447802e-02  3.5293766942907888e-02  3.5755421371695052e-02 
 3.6223109059713841e-02  3.6696908585954133e-02  3.7176899538549850e-02  3.7663162526939069e-02 
 3.8155779194124405e-02  3.8654832229030975e-02  3.9160405378960046e-02  3.9672583462135542e-02 
 4.0191452380340872e-02  4.0717099131642905e-02  4.1249611823199750e-02  4.1789079684148696e-02 
 4.2335593078570537e-02  4.2889243518526084e-02  4.3450123677159801e-02  4.4018327401866349e-02 
 4.4593949727514064e-02  4.5177086889719893e-02  4.5767836338169846e-02  4.6366296749977887e-02 
 4.6972568043076500e-02  4.7586751389631296e-02  4.8208949229471561e-02  4.8839265283528145e-02 
 4.9477804567269308e-02  5.0124673404125061e-02  5.0779979438889018e-02  5.1443831651087381e-02 
 5.2116340368302608e-02  5.2797617279439706e-02  5.3487775447921417e-02  5.4186929324799009e-02 
 5.4895194761762897e-02  5.5612689024038223e-02  5.6339530803148144e-02  5.7075840229527525e-02 
 5.7821738884969054e-02  5.8577349814881365e-02  5.9342797540339394e-02  6.0118208069905248e-02 
 6.0903708911196661e-02  6.1699429082179950e-02  6.2505499122161454e-02  6.3322051102452453e-02 
 6.4149218636679231e-02  6.4987136890710867e-02  6.5835942592173194e-02  6.6695774039519373e-02 
 6.7566771110623744e-02  6.8449075270865162e-02  6.9342829580664608e-02  7.0248178702440961e-02 
 7.1165268906946605e-02  7.2094248078943310e-02  7.3035265722178944e-02  7.3988472963621793e-02 
 7.4954022556909722e-02  7.5932068884970408e-02  7.6922767961765739e-02  7.7926277433114588e-02 
 7.8942756576545328e-02  7.9972366300130063e-02  8.1015269140249410e-02  8.2071629258239340e-02 
 8.3141612435866971e-02  8.4225386069584740e-02  8.5323119163511318e-02  8.6434982321086373e-02 
 8.7561147735348510e-02  8.8701789177784304e-02  8.9857081985698112e-02  9.1027203048052716e-02 
 9.2212330789733399e-02  9.3412645154188179e-02  9.4628327584400068e-02  9.5859561002149929e-02 
 9.7106529785531831e-02  9.8369419744685258e-02  9.9648418095714272e-02  1.0094371343276783e-01 
 1.0225549569826152e-01  1.0358395615122654e-01  1.0492928733377949e-01  1.0629168303571396e-01 
 1.0767133825722454e-01  1.0906844916978133e-01  1.1048321307518703e-01  1.1191582836285635e-01 
 1.1336649446537314e-01  1.1483541181239201e-01  1.1632278178296884e-01  1.1782880665641535e-01 
 1.1935368956179504e-01  1.2089763442619260e-01  1.2246084592190862e-01  1.2404352941275114e-01 
 1.2564589089961722e-01  1.2726813696557943e-01  1.2891047472071279e-01  1.3057311174692657e-01 
 1.3225625604308100e-01  1.3396011597070187e-01  1.3568490020062338e-01  1.3743081766091994e-01 
 1.3919807748650595e-01  1.4098688897081030e-01  1.4279746151995229e-01  1.4463000460986603e-01 
 1.4648472774683996e-01  1.4836184043195236e-01  1.5026155212989739e-01  1.5218407224270319e-01 
 1.5412961008884790e-01  1.5609837488827649e-01  1.5809057575381313e-01  1.6010642168944481e-01 
 1.6214612159592851e-01  1.6420988428413882e-01  1.6629791849652148e-01  1.6841043293696359e-01 
 1.7054763630931430e-01  1.7270973736470058e-01  1.7489694495767533e-01  1.7710946811111178e-01 
 1.7934751608960814e-01  1.8161129848100335e-01  1.8390102528541166e-01  1.8621690701096771e-01 
 1.8855915477523413e-01  1.9092798041095457e-01  1.9332359657453968e-01  1.9574621685534779e-01 
 1.9819605588347131e-01  2.0067332943335847e-01  2.0317825452019100e-01  2.0571104948550703e-01 
 2.0827193406809855e-01  2.1086112945573901e-01  2.1347885831279936e-01  2.1612534477831191e-01 
 2.1880081442852614e-01  2.2150549419750273e-01  2.2423961224879452e-01  2.2700339779079784e-01 
 2.2979708082792696e-01  2.3262089183938006e-01  2.3547506137695806e-01  2.3835981957316676e-01 
 2.4127539555071614e-01  2.4422201672453606e-01  2.4719990798759250e-01  2.5020929077212589e-01 
 2.5325038197847721e-01  2.5632339276445254e-01  2.5942852718920628e-01  2.6256598070696202e-01 
 2.6573593850753752e-01  2.6893857370262364e-01  2.7217404535913331e-01  2.7544249638367169e-01 
 2.7874405126532253e-01  2.8207881368748183e-01  2.8544686402342290e-01  2.8884825673459302e-01 
 2.9228301769533832e-01  2.9575114147275061e-01  2.9925258859558335e-01  3.0278728285161477e-01 
 3.0635510865832505e-01  3.0995590855719723e-01  3.1358948088715560e-01  3.1725557769748830e-01 
 3.2095390296479376e-01  3.2468411118185064e-01  3.2844580638853837e-01  3.3223854171575978e-01 
 3.3606181951239744e-01  3.3991509212237436e-01  3.4379776337351997e-01  3.4770919083185126e-01 
 3.5164868886374701e-01  3.5561553253400774e-01  3.5960896234977685e-01  3.6362818983851947e-01 
 3.6767240392271144e-01  3.7174077802458372e-01  3.7583247780147161e-01  3.7994666937635907e-01 
 3.8408252788975683e-01  3.8823924615891781e-01  3.9241604318970474e-01  3.9661217224660122e-01 
 4.0082692814908855e-01  4.0505965342990197e-01  4.0930974296486239e-01  4.1357664666754818e-01 
 4.1785986983784945e-01  4.2215897076426739e-01  4.2647355520861574e-01  4.3080326745132413e-01 
 4.3514777764832263e-01  4.3950676534850208e-01  4.4387989914526993e-01  4.4826681258697465e-01 
 4.5266707664801253e-01  4.5708016926259593e-01  4.6150544264206744e-01  4.6594208932770664e-01 
 4.7038910816538715e-01  4.7484527161484580e-01  4.7930909601114380e-01  4.8377881656304145e-01 
 4.8825236898471674e-01  4.9272737969429364e-01  4.9720116645533879e-01  5.0167075116688475e-01 
 5.0613288620669716e-01  5.1058409528837811e-01  5.1502072919818476e-01  5.1943903603277630e-01 
 5.2383524467528153e-01  5.2820565924709506e-01  5.3254676119386868e-01  5.3685531455866464e-01 
 5.4112846893165567e-01  5.4536385362751971e-01  5.4955965592552924e-01  5.5371467581901634e-01 
 5.5782834976966478e-01  5.6190073655252015e-01  5.6593245949965265e-01  5.6992460136743017e-01 
 5.7387855068789495e-01  5.7779580178877910e-01  5.8167771458259776e-01  5.8552524455894117e-01 
 5.8933865790724549e-01  5.9311725100695034e-01  5.9685909722803021e-01  6.0056084660850961e-01 
 6.0421760500913224e-01  6.0782291829482538e-01  6.1136888353276742e-01  6.1484640283556846e-01 
 6.1824558622725134e-01  6.2155629795496514e-01  6.2476882653093879e-01  6.2787464336267629e-01 
 6.3086719939451530e-01  6.3374269536907557e-01  6.3650075101048376e-01  6.3914489362750104e-01 
 6.4168278922209121e-01  6.4412615068012002e-01  6.4649027884809762e-01  6.4879322310520438e-01 
 6.5105458700394125e-01  6.5329404881487307e-01  6.5552971204027066e-01  6.5777644153508308e-01 
 6.6004437030623075e-01  6.6233777370386426e-01  6.6465449570730484e-01  6.6698607239226460e-01 
 6.6931862958207922e-01  6.7163453840191278e-01  6.7391470204548942e-01  6.7614123247315461e-01 
 6.7830017403025722e-01  6.8038390113342395e-01  6.8239000057873789e-01  6.8431677071109187e-01 
 6.8616251568304976e-01  6.8792554676769524e-01  6.8960418370652965e-01  6.9119675608914077e-01 
 6.9270160476424369e-01  6.9411708328163502e-01  6.9544155936454666e-01  6.9667341641185732e-01 
 6.9781105502954266e-01  6.9885289459072097e-01  6.9979737482357329e-01  7.0064295742638694e-01 
 7.0138812770889958e-01  7.0203139625907995e-01  7.0257130063441020e-01  7.0300640707669670e-01 
 7.0333531224935353e-01  7.0355664499606896e-01  7.0366906811968122e-01  7.0367128018003211e-01 
 7.0356201730951884e-01  7.0334005504496155e-01  7.0300421017436754e-01  7.0255334259707647e-01 
 7.0198635719570801e-01  7.0130220571824109e-01  7.0049988866847857e-01  6.9957845720305634e-01 
 6.9853701503306376e-01  6.9737472032824444e-01  6.9609078762162957e-01  6.9468448971236374e-01 
 6.9315515956434071e-01  6.9150219219815556e-01  6.8972504657373568e-01  6.8782324746086787e-01 
 6.8579638729468972e-01  6.8364412801303731e-01  6.8136620287238492e-01  6.7896241823889658e-01 
 6.7643265535094577e-01  6.7377687204922343e-01  6.7099510447034527e-01  6.6808746869964020e-01 
 6.6505416237855119e-01  6.6189546626183826e-01  6.5861174571950087e-01  6.5520345217808418e-01 
 6.5167112449574627e-01  6.4801539026519828e-01  6.4423696703835132e-01  6.4033666346622975e-01 
 6.3631538034745327e-01  6.3217411157833003e-01  6.2791394499737962e-01  6.2353606311688281e-01 
 6.1904174373389020e-01  6.1443236041296034e-01  6.0970938283281251e-01  6.0487437698902635e-01 
 5.9992900524493409e-01  5.9487502622293065e-01  5.8971429452858892e-01  5.8444876030020132e-01 
 5.7908046857673134e-01  5.7361155845353107e-01  5.6804426213913251e-01  5.6238090366978233e-01 
 5.5662389751423147e-01  5.5077574694639231e-01  5.4483904220604340e-01  5.3881645845050030e-01 
 5.3271075348878871e-01  5.2652476530398518e-01  5.2026140936503940e-01  5.1392367573134612e-01 
 5.0751462595504648e-01  5.0103738978757462e-01  4.9449516169852120e-01  4.8789119721644852e-01 
 4.8122880910282223e-01  4.7451136337171712e-01  4.6774227516938038e-01  4.6092500452906593e-01 
 4.5406305201777253e-01  4.4715995429259886e-01  4.4021927958535323e-01  4.3324462313480244e-01 
 4.2623960258649091e-01  4.1920785338041239e-01  4.1215302414692745e-01  4.0507877213121285e-01 
 3.9798875866618616e-01  3.9088664471324602e-01  3.8377608648934669e-01  3.7666073119785698e-01 
 3.6954421287934353e-01  3.6243014839690385e-01  3.5532213356893549e-01  3.4822373946030200e-01 
 3.4113850884069041e-01  3.3406995281660767e-01  3.2702154764298264e-01  3.1999673171137866e-01 
 3.1299890272064423e-01  3.0603141502137848e-01  2.9909757713037671e-01  2.9220064940638801e-01 
 2.8534384187621725e-01  2.7853031219801050e-01  2.7176316374646753e-01  2.6504544380288586e-01 
 2.5838014183125402e-01  2.5177018781951427e-01  2.4521845066917558e-01  2.3872773660600843e-01 
 2.3230078759463252e-01  2.2594027973515390e-01  2.1964882162300958e-01  2.1342895264988287e-01 
 2.0728314123485170e-01  2.0121378296789680e-01  1.9522319865572885e-01  1.8931363226071554e-01 
 1.8348724873262892e-01  1.7774613172676776e-01  1.7209228121588918e-01  1.6652761100224212e-01 
 1.6105394614133298e-01  1.5567302029248392e-01  1.5038647301530877e-01  1.4519584703481894e-01 
 1.4010258550063384e-01  1.3510802926843804e-01  1.3021341423352814e-01  1.2541986874795227e-01 
 1.2072841115422604e-01  1.1613994746828959e-01  1.1165526924385608e-01  1.0727505164980064e-01 
 1.0299985179070124e-01  9.8830107298665357e-02  9.4766135222175363e-02  9.0808131234890510e-02 
 8.6956169184233698e-02  8.3210200996227945e-02  7.9570056949510179e-02  7.6035446327797448e-02 
 7.2605958456394129e-02  6.9281064124655067e-02  6.6060117392728740e-02  6.2942357777436897e-02 
 5.9926912808852525e-02  5.7012800946051115e-02  5.4198934837658815e-02  5.1484124910230078e-02 
 4.8867083265173451e-02  4.6346427862914458e-02  4.3920686971247958e-02  4.1588303853386445e-02 
 3.9347641670052114e-02  3.7196988569083232e-02  3.5134562935415600e-02  3.3158518773949361e-02 
 3.1266951197702182e-02  2.9457901993765981e-02  2.7729365239912856e-02  2.6079292945213252e-02 
 2.4505600688723827e-02  2.3006173231151675e-02  2.1578870075390999e-02  2.0221530952938993e-02 
 1.8931981214414025e-02  1.7708037103704357e-02  1.6547510896654998e-02  1.5448215886638519e-02 
 1.4407971200839436e-02  1.3424606432597824e-02  1.2495966076693831e-02  1.1619913755999784e-02 
 1.0794336229469039e-02  1.0017147172961973e-02  9.2862907259194365e-03  8.5997447983747026e-03 
 7.9555241342391288e-03  7.3516831281967114e-03  6.7863183948931810e-03  6.2575710903998716e-03 
 5.7636289871671421e-03  5.3027283048516982e-03  4.8731553005036104e-03  4.4732476226288283e-03 
 4.1013954345989661e-03  3.7560423137603981e-03  3.4356859333975168e-03  3.1388785354296406e-03 
 2.8642272023670793e-03  2.6103939376191164e-03  2.3760955637359333e-03  2.1601034485784231e-03 
 1.9612430697459413e-03  1.7783934278538332e-03  1.6104863194423371e-03  1.4565054804183534e-03 
 1.3154856109844619e-03  1.1865112929983473e-03  1.0687158106337019e-03  9.6127988508419723e-04 
 8.6343033386885497e-04  7.7443866506396182e-04  6.9361961650748832e-04  6.2032964970087109e-04 
 5.5396540777537034e-04  4.9396214650381746e-04  4.3979214686776214e-04  3.9096311735303628e-04 
 3.4701659356548443e-04  3.0752634232775411e-04  2.7209677691328142e-04  2.4036138956583605e-04 
 2.1198120694164199e-04  1.8664327359834264e-04  1.6405916814443794e-04  1.4396355615757045e-04 
 1.2611278348325790e-04  1.1028351304036311e-04  9.6271407788776515e-05  8.3889862054167453e-05 
 7.2968782980371819e-05  6.3353423450800074e-05  5.4903267432058316e-05  4.7490968321074197e-05 
 4.1001340530198064e-05  3.5330404223351279e-05  3.0384482820815022e-05  2.6079352619615977e-05 
 2.2339443635865471e-05  1.9097090555550546e-05  1.6291832490287850e-05  1.3869760068318958e-05 
 1.1782908249506286e-05  9.9886931353048793e-06  8.4493909495912832e-06  7.1316572926936526e-06 
 6.0060847177475349e-06  5.0467966442722887e-06  4.2310756072305337e-06  3.5390238393524497e-06 
 2.9532541987045131e-06  2.4586094808690576e-06  2.0419081941917091e-06  1.6917149258803655e-06 
 1.3981334848667761e-06  1.1526210728794387e-06  9.4782180679041130e-07  7.7741808034410365e-07 
 6.3599876305019114e-07  5.1893972475883111e-07  4.2230054786555495e-07  3.4273253115295887e-07 
 2.7739756455861435e-07  2.2389689302776470e-07  1.8020874839089648e-07  1.4463390784447155e-07 
 1.1574831446411120e-07  9.2361968864762081e-08  7.3483371341524696e-08  5.8288860350942977e-08 
 4.6096255866851483e-08  3.6342274870917572e-08  2.8563240975711148e-08  2.2378660937548286e-08 
 1.7477287651486984e-08  1.3605332223463051e-08  1.0556527008195212e-08  8.1637772357278179e-09 
 6.2921711944953779e-09  4.8331480802920979e-09  3.6996487551100048e-09  2.8220979907514129e-09 
 2.1450875056433166e-09  1.6246474452598227e-09  1.2260101097152417e-09  9.2178389362597543e-10 
 6.9046776300267270e-10  5.1524733249575720e-10  3.8302289441861234e-10  2.8362774831796678e-10 
 2.0920203471553189e-10  1.5369312560241439e-10  1.1245859224969709e-10  8.1951971350008945e-11 
 5.9475085751784157e-11  4.2983637783528672e-11  3.0935263037010275e-11  2.2171282747936625e-11 
 1.5825087170788407e-11  1.1251476259051300e-11  7.9724260529076117e-12  5.6356816104948445e-12 
 0.0000000000000000e+00  0.0000000000000000e+00  0.0000000000000000e+00  0.0000000000000000e+00 
 0.0000000000000000e+00  0.0000000000000000e+00  0.0000000000000000e+00  0.0000000000000000e+00 
 0.0000000000000000e+00  0.0000000000000000e+00  0.0000000000000000e+00  0.0000000000000000e+00 
 0.0000000000000000e+00  0.0000000000000000e+00  0.0000000000000000e+00  0.0000000000000000e+00 
 0.0000000000000000e+00  0.0000000000000000e+00  0.0000000000000000e+00  0.0000000000000000e+00 
 0.0000000000000000e+00  0.0000000000000000e+00  0.0000000000000000e+00  0.0000000000000000e+00 
 0.0000000000000000e+00  0.0000000000000000e+00  0.0000000000000000e+00  0.0000000000000000e+00 
 0.0000000000000000e+00  0.0000000000000000e+00  0.0000000000000000e+00  0.0000000000000000e+00 
 0.0000000000000000e+00  0.0000000000000000e+00  0.0000000000000000e+00  0.0000000000000000e+00 
 0.0000000000000000e+00  0.0000000000000000e+00  0.0000000000000000e+00  0.0000000000000000e+00 
 0.0000000000000000e+00  0.0000000000000000e+00  0.0000000000000000e+00  0.0000000000000000e+00 
 0.0000000000000000e+00  0.0000000000000000e+00  0.0000000000000000e+00  0.0000000000000000e+00 
 0.0000000000000000e+00  0.0000000000000000e+00  0.0000000000000000e+00  0.0000000000000000e+00 
 0.0000000000000000e+00  0.0000000000000000e+00  0.0000000000000000e+00  0.0000000000000000e+00 
 0.0000000000000000e+00  0.0000000000000000e+00  0.0000000000000000e+00  0.0000000000000000e+00 
 0.0000000000000000e+00  0.0000000000000000e+00  0.0000000000000000e+00  0.0000000000000000e+00 
 0.0000000000000000e+00  0.0000000000000000e+00  0.0000000000000000e+00  0.0000000000000000e+00 
 0.0000000000000000e+00  0.0000000000000000e+00  0.0000000000000000e+00  0.0000000000000000e+00 
 0.0000000000000000e+00  0.0000000000000000e+00  0.0000000000000000e+00  0.0000000000000000e+00 
 0.0000000000000000e+00  0.0000000000000000e+00  0.0000000000000000e+00  0.0000000000000000e+00 
 0.0000000000000000e+00  0.0000000000000000e+00  0.0000000000000000e+00  0.0000000000000000e+00 
</PP_PSWFC>


<PP_RHOATOM>
 2.3747194508719766e-08  2.4372718132560347e-08  2.5014718641779853e-08  2.5673630053158196e-08 
 2.6349897815888474e-08  2.7043979112717520e-08  2.7756343169018857e-08  2.8487471570006802e-08 
 2.9237858586306417e-08  3.0008011508099179e-08  3.0798450988070557e-08  3.1609711393390808e-08 
 3.2442341166967611e-08  3.3296903198214242e-08  3.4173975203584277e-08  3.5074150117129690e-08 
 3.5998036491346959e-08  3.6946258908581506e-08  3.7919458403269353e-08  3.8918292895300271e-08 
 3.9943437634797030e-08  4.0995585658609974e-08  4.2075448258836025e-08  4.3183755463679609e-08 
 4.4321256530978828e-08  4.5488720454732670e-08  4.6686936484969898e-08  4.7916714661311974e-08 
 4.9178886360590909e-08  5.0474304858890869e-08  5.1803845908395897e-08  5.3168408329431198e-08 
 5.4568914618099770e-08  5.6006311569924678e-08  5.7481570919919173e-08  5.8995689999515724e-08 
 6.0549692410800369e-08  6.2144628718506198e-08  6.3781577160235124e-08  6.5461644375387281e-08 
 6.7185966153291112e-08  6.8955708201039947e-08  7.0772066931554323e-08  7.2636270272402212e-08 
 7.4549578495924563e-08  7.6513285071227311e-08  7.8528717538615010e-08  8.0597238407058776e-08 
 8.2720246075303526e-08  8.4899175777238806e-08  8.7135500552170660e-08  8.9430732240652260e-08 
 9.1786422506545205e-08  9.4204163886002892e-08  9.6685590864084969e-08  9.9232380979731313e-08 
 1.0184625595984153e-07  1.0452898288322720e-07  1.0728237537522420e-07  1.1010829483377143e-07 
 1.1300865168778657e-07  1.1598540668868774e-07  1.1904057223593550e-07  1.2217621373749065e-07 
 1.2539445100610823e-07  1.2869745969241031e-07  1.3208747275570834e-07  1.3556678197356703e-07 
 1.3913773949113312e-07  1.4280275941127344e-07  1.4656431942659912e-07  1.5042496249447993e-07 
 1.5438729855617807e-07  1.5845400630126690e-07  1.6262783497852639e-07  1.6691160625453724e-07 
 1.7130821612123496e-07  1.7582063685370775e-07  1.8045191901956744e-07  1.8520519354124601e-07 
 1.9008367381261779e-07  1.9509065787137337e-07  2.0022953062861762e-07  2.0550376615719469e-07 
 2.1091693004029351e-07  2.1647268178191318e-07  2.2217477728082620e-07  2.2802707136970537e-07 
 2.3403352042113509e-07  2.4019818502226725e-07  2.4652523271992908e-07  2.5301894083804089e-07 
 2.5968369936924567e-07  2.6652401394270826e-07  2.7354450887008865e-07  2.8074993027174800e-07 
 2.8814514928530375e-07  2.9573516535869739e-07  3.0352510963000994e-07  3.1152024839629900e-07 
 3.1972598667381335e-07  3.2814787185198226e-07  3.3679159744365702e-07  3.4566300693413704e-07 
 3.5476809773158042e-07  3.6411302522147546e-07  3.7370410692790631e-07  3.8354782678443480e-07 
 3.9365083951747620e-07  4.0401997514514122e-07  4.1466224359457855e-07  4.2558483944094281e-07 
 4.3679514677119408e-07  4.4830074417600843e-07  4.6010940987318534e-07  4.7222912696600586e-07 
 4.8466808884010608e-07  4.9743470470249947e-07  5.1053760526651390e-07  5.2398564858646297e-07 
 5.3778792604601792e-07  5.5195376850431143e-07  5.6649275260393774e-07  5.8141470724510798e-07 
 5.9672972023034898e-07  6.1244814508421699e-07  6.2858060805265683e-07  6.4513801528672671e-07 
 6.6213156021555062e-07  6.7957273111347891e-07  6.9747331886657281e-07  7.1584542494366767e-07 
 7.3470146957739829e-07  7.5405420016072206e-07  7.7391669986460954e-07  7.9430239648273326e-07 
 8.1522507150913895e-07  8.3669886945501529e-07  8.5873830741089576e-07  8.8135828486071583e-07 
 9.0457409375439256e-07  9.2840142884572499e-07  9.5285639830259154e-07  9.7795553459664604e-07 
 1.0037158056798349e-06  1.0301546264553349e-06  1.0572898705506279e-06  1.0851398824006970e-06 
 1.1137234896494968e-06  1.1430600158780926e-06  1.1731692936680686e-06  1.2040716780090302e-06 
 1.2357880600592773e-06  1.2683398812689401e-06  1.3017491478751293e-06  1.3360384457788974e-06 
 1.3712309558140752e-06  1.4073504694182965e-06  1.4444214047168055e-06  1.4824688230299344e-06 
 1.5215184458153821e-06  1.5615966720567842e-06  1.6027305961102970e-06  1.6449480260212716e-06 
 1.6882775023234123e-06  1.7327483173331037e-06  1.7783905349519805e-06  1.8252350109910900e-06 
 1.8733134140304200e-06  1.9226582468278809e-06  1.9733028682921913e-06  2.0252815160345909e-06 
 2.0786293295145182e-06  2.1333823737950146e-06  2.1895776639238099e-06  2.2472531899566750e-06 
 2.3064479426398556e-06  2.3672019397690148e-06  2.4295562532425047e-06  2.4935530368271781e-06 
 2.5592355546556488e-06  2.6266482104741078e-06  2.6958365776605973e-06  2.7668474300339315e-06 
 2.8397287734742014e-06  2.9145298783761105e-06  2.9913013129572071e-06  3.0700949774434204e-06 
 3.1509641391550964e-06  3.2339634685171893e-06  3.3191490760180010e-06  3.4065785501414063e-06 
 3.4963109962982191e-06  3.5884070767830753e-06  3.6829290517837333e-06  3.7799408214706108e-06 
 3.8795079691949602e-06  3.9816978058248940e-06  4.0865794152492491e-06  4.1942237010800284e-06 
 4.3047034345849762e-06  4.4180933038827329e-06  4.5344699644338158e-06  4.6539120908614749e-06 
 4.7765004301376107e-06  4.9023178561695438e-06  5.0314494258246288e-06  5.1639824364305920e-06 
 5.3000064847903888e-06  5.4396135277515478e-06  5.5828979443708815e-06  5.7299565997166813e-06 
 5.8808889103513574e-06  6.0357969115390105e-06  6.1947853262231414e-06  6.3579616358212787e-06 
 6.5254361528843584e-06  6.6973220956698629e-06  6.8737356646792575e-06  7.0547961212114173e-06 
 7.2406258679850702e-06  7.4313505318848978e-06  7.6270990488870910e-06  7.8280037512218134e-06 
 8.0342004568314959e-06  8.2458285611854838e-06  8.4630311315129408e-06  8.6859550035179275e-06 
 8.9147508806417269e-06  9.1495734359399236e-06  9.3905814166426310e-06  9.6379377514689495e-06 
 9.8918096607678902e-06  1.0152368769560387e-05  1.0419791223558773e-05  1.0694257808242049e-05 
 1.0975954071067600e-05  1.1265070446901655e-05  1.1561802386753752e-05  1.1866350489901694e-05 
 1.2178920639496659e-05  1.2499724141739963e-05  1.2828977868725557e-05  1.3166904405044930e-05 
 1.3513732198253206e-05  1.3869695713298486e-05  1.4235035591018573e-05  1.4609998810812258e-05 
 1.4994838857595160e-05  1.5389815893152838e-05  1.5795196932007235e-05  1.6211256021914824e-05 
 1.6638274429119077e-05  1.7076540828481975e-05  1.7526351498623205e-05  1.7988010522198924e-05 
 1.8461829991455527e-05  1.8948130219197129e-05  1.9447239955309483e-05  1.9959496608986775e-05 
 2.0485246476810920e-05  2.1024844976838452e-05  2.1578656888852119e-05  2.2147056600940318e-05 
 2.2730428362570693e-05  2.3329166544328800e-05  2.3943675904497804e-05  2.4574371862658585e-05 
 2.5221680780495973e-05  2.5886040250000120e-05  2.6567899389258542e-05  2.7267719146037572e-05 
 2.7985972609359730e-05  2.8723145329286087e-05  2.9479735645121069e-05  3.0256255022260379e-05 
 3.1053228397910037e-05  3.1871194535910432e-05  3.2710706390904290e-05  3.3572331482095661e-05 
 3.4456652276851296e-05  3.5364266584404551e-05  3.6295787959927000e-05  3.7251846119241613e-05 
 3.8233087364456399e-05  3.9240175020807387e-05  4.0273789885005181e-05  4.1334630685388003e-05 
 4.2423414554192566e-05  4.3540877512261009e-05  4.4687774966512228e-05  4.5864882220512308e-05 
 4.7072994998490494e-05  4.8312929983153157e-05  4.9585525367659946e-05  5.0891641422134351e-05 
 5.2232161075091420e-05  5.3607990510175681e-05  5.5020059778611320e-05  5.6469323427779144e-05 
 5.7956761146344044e-05  5.9483378426369084e-05  6.1050207242862838e-05  6.2658306751219148e-05 
 6.4308764003019806e-05  6.6002694680683687e-05  6.7741243851458083e-05  6.9525586741261977e-05 
 7.1356929528901562e-05  7.3236510161196831e-05  7.5165599189567866e-05  7.7145500628644328e-05 
 7.9177552837481256e-05  8.1263129423971456e-05  8.3403640173068406e-05  8.5600531999443271e-05 
 8.7855289925221029e-05  9.0169438083454085e-05  9.2544540748010741e-05  9.4982203390573311e-05 
 9.7484073765458426e-05  1.0005184302299303e-04  1.0268724685219399e-04  1.0539206665352494e-04 
 1.0816813074251958e-04  1.1101731558508295e-04  1.1394154706530550e-04  1.1694280178664151e-04 
 1.2002310840733241e-04  1.2318454901097262e-04  1.2642926051314364e-04  1.2975943610506291e-04 
 1.3317732673522116e-04  1.3668524263000598e-04  1.4028555485433699e-04  1.4398069691336335e-04 
 1.4777316639630193e-04  1.5166552666352607e-04  1.5566040857803497e-04  1.5976051228247840e-04 
 1.6396860902292461e-04  1.6828754302060440e-04  1.7272023339288874e-04  1.7726967612479396e-04 
 1.8193894609234027e-04  1.8673119913912434e-04  1.9164967420750461e-04  1.9669769552582917e-04 
 2.0187867485318135e-04  2.0719611378314785e-04  2.1265360610815952e-04  2.1825484024599439e-04 
 2.2400360173007109e-04  2.2990377576520850e-04  2.3595934985056255e-04  2.4217441647150854e-04 
 2.4855317586226593e-04  2.5509993884113239e-04  2.6181912972021433e-04  2.6871528929161669e-04 
 2.7579307789208913e-04  2.8305727854818183e-04  2.9051280020402114e-04  2.9816468103386674e-04 
 3.0601809184166228e-04  3.1407833954986362e-04  3.2235087077987486e-04  3.3084127552648397e-04 
 3.3955529092875880e-04  3.4849880513991978e-04  3.5767786129877914e-04  3.6709866160538967e-04 
 3.7676757150363101e-04  3.8669112397352094e-04  3.9687602393610342e-04  4.0732915277386837e-04 
 4.1805757296968916e-04  4.2906853286738293e-04  4.4036947155705097e-04  4.5196802388844550e-04 
 4.6387202561569787e-04  4.7608951867681711e-04  4.8862875661146322e-04  5.0149821012057888e-04 
 5.1470657277157233e-04  5.2826276685281502e-04  5.4217594938132496e-04  5.5645551826760556e-04 
 5.7111111864171062e-04  5.8615264934469113e-04  6.0159026958971214e-04  6.1743440579721163e-04 
 6.3369575860858555e-04  6.5038531008301999e-04  6.6751433108216062e-04  6.8509438884746619e-04 
 7.0313735477519680e-04  7.2165541239410126e-04  7.4066106555101176e-04  7.6016714680965662e-04 
 7.8018682606816134e-04  8.0073361940080005e-04  8.2182139812975077e-04  8.4346439813267997e-04 
 8.6567722939217336e-04  8.8847488579315431e-04  9.1187275517456826e-04  9.3588662964177766e-04 
 9.6053271614624923e-04  9.8582764733927647e-04  1.0117884927066277e-03  1.0384327699911936e-03 
 1.0657784569108267e-03  1.0938440031787689e-03  1.1226483428342210e-03  1.1522109068907570e-03 
 1.1825516363104772e-03  1.2136909953119671e-03  1.2456499850202977e-03  1.2784501574674672e-03 
 1.3121136299519230e-03  1.3466630997658741e-03  1.3821218592994281e-03  1.4185138115306274e-03 
 1.4558634859107768e-03  1.4941960546545317e-03  1.5335373494444829e-03  1.5739138785601106e-03 
 1.6153528444412080e-03  1.6578821616960353e-03  1.7015304755646605e-03  1.7463271808481292e-03 
 1.7923024413143095e-03  1.8394872095914318e-03  1.8879132475604827e-03  1.9376131472578979e-03 
 1.9886203523000515e-03  2.0409691798413013e-03  2.0946948430775000e-03  2.1498334743070098e-03 
 2.2064221485614518e-03  2.2644989078185762e-03  2.3241027858097664e-03  2.3852738334348375e-03 
 2.4480531447968958e-03  2.5124828838702022e-03  2.5786063118139915e-03  2.6464678149454197e-03 
 2.7161129333847680e-03  2.7875883903861901e-03  2.8609421223672652e-03  2.9362233096507629e-03 
 3.0134824079318806e-03  3.0927711804843816e-03  3.1741427311188786e-03  3.2576515379065525e-03 
 3.3433534876815421e-03  3.4313059113349818e-03  3.5215676199137113e-03  3.6141989415364203e-03 
 3.7092617591397755e-03  3.8068195490669528e-03  3.9069374205105267e-03  4.0096821558216001e-03 
 4.1151222516964741e-03  4.2233279612519936e-03  4.3343713369999246e-03  4.4483262747306261e-03 
 4.5652685583154190e-03  4.6852759054365643e-03  4.8084280142530944e-03  4.9348066110100801e-03 
 5.0644954985980210e-03  5.1975806060682210e-03  5.3341500391092863e-03  5.4742941314885928e-03 
 5.6181054974617315e-03  5.7656790851518909e-03  5.9171122308996540e-03  6.0725047145827439e-03 
 6.2319588159036911e-03  6.3955793716421782e-03  6.5634738338670486e-03  6.7357523291018875e-03 
 6.9125277184359096e-03  7.0939156585705992e-03  7.2800346637907527e-03  7.4710061688465137e-03 
 7.6669545927315272e-03  7.8680074033400920e-03  8.0742951829844718e-03  8.2859516947514176e-03 
 8.5031139496752148e-03  8.7259222747022754e-03  8.9545203814205311e-03  9.1890554355249041e-03 
 9.4296781269883802e-03  9.6765427409060741e-03  9.9298072289782761e-03  1.0189633281596751e-02 
 1.0456186400497180e-02  1.0729635971939221e-02  1.1010155340374856e-02  1.1297921882564682e-02 
 1.1593117082101664e-02  1.1895926604301173e-02  1.2206540371417178e-02  1.2525152638144322e-02 
 1.2851962067367479e-02  1.3187171806121663e-02  1.3530989561728188e-02  1.3883627678074910e-02 
 1.4245303212013342e-02  1.4616238009849309e-02  1.4996658783909442e-02  1.5386797189172057e-02 
 1.5786889899958516e-02  1.6197178686689483e-02  1.6617910492719531e-02  1.7049337511275374e-02 
 1.7491717262532999e-02  1.7945312670883895e-02  1.8410392142453127e-02  1.8887229642949026e-02 
 1.9376104775939314e-02  1.9877302861667591e-02  2.0391115016542255e-02  2.0917838233449868e-02 
 2.1457775463065824e-02  2.2011235696356095e-02  2.2578534048485872e-02  2.3159991844372306e-02 
 2.3755936706140283e-02  2.4366702642760907e-02  2.4992630142172130e-02  2.5634066266198321e-02 
 2.6291364748601633e-02  2.6964886096610262e-02  2.7654997696275701e-02  2.8362073922015511e-02 
 2.9086496250694142e-02  2.9828653380583849e-02  3.0588941355528112e-02  3.1367763694600918e-02 
 3.2165531527512253e-02  3.2982663735956090e-02  3.3819587101025617e-02  3.4676736456731395e-02 
 3.5554554849550703e-02  3.6453493703805850e-02  3.7374012992515374e-02  3.8316581413180846e-02 
 3.9281676567764080e-02  4.0269785145869215e-02  4.1281403109871516e-02  4.2317035880428719e-02 
 4.3377198520466391e-02  4.4462415915349926e-02  4.5573222946536263e-02  4.6710164655544194e-02 
 4.7873796394586332e-02  4.9064683959679917e-02  5.0283403701489718e-02  5.1530542608567202e-02 
 5.2806698357036795e-02  5.4112479320148558e-02  5.5448504530482168e-02  5.6815403586952612e-02 
 5.8213816498154533e-02  5.9644393452999572e-02  6.1107794509074199e-02  6.2604689188690249e-02 
 6.4135755972244621e-02  6.5701681678279805e-02  6.7303160719560745e-02  6.8940894224608751e-02 
 7.0615589014481756e-02  7.2327956425201526e-02  7.4078710967155556e-02  7.5868568814068990e-02 
 7.7698246115804753e-02  7.9568457131337089e-02  8.1479912180806482e-02  8.3433315418613360e-02 
 8.5429362433093459e-02  8.7468737682434947e-02  8.9552111781157462e-02  9.1680138656663773e-02 
 9.3853452601054141e-02  9.6072665249517616e-02  9.8338362523075734e-02  1.0065110158016703e-01 
 1.0301140782833425e-01  1.0541977205394835e-01  1.0787664773421723e-01  1.1038244860141465e-01 
 1.1293754653398319e-01  1.1554226985256225e-01  1.1819690210063483e-01  1.2090168138894075e-01 
 1.2365680037959234e-01  1.2646240697944591e-01  1.2931860580228322e-01  1.3222546044523836e-01 
 1.3518299660630548e-01  1.3819120604632282e-01  1.4125005137039365e-01  1.4435947157018830e-01 
 1.4751938823018584e-01  1.5072971225804477e-01  1.5399035095266422e-01  1.5730121517416767e-01 
 1.6066222632943458e-01  1.6407332283675230e-01  1.6753446568596173e-01  1.7104564266877398e-01 
 1.7460687082090448e-01  1.7821819659674557e-01  1.8187969329227621e-01  1.8559145524673712e-01 
 1.8935358839227404e-01  1.9316619678710328e-01  1.9702936486521500e-01  2.0094313526688584e-01 
 2.0490748228105765e-01  2.0892228113312333e-01  2.1298727358825059e-01  2.1710203060706856e-01 
 2.2126591308062829e-01  2.2547803197497668e-01  2.2973720951901985e-01  2.3404194335513689e-01 
 2.3839037581918798e-01  2.4278027070040462e-01  2.4720899992454951e-01  2.5167354257634639e-01 
 2.5617049849992146e-01  2.6069611836145157e-01  2.6524635150382997e-01  2.6981691215465986e-01 
 2.7440336356401207e-01  2.7900121846065828e-01  2.8360605285807938e-01  2.8821362876988277e-01 
 2.9282001988831785e-01  2.9742173284345874e-01  3.0201581542098610e-01  3.0659994221735837e-01 
 3.1117246780674745e-01  3.1573243773826465e-01  3.2027954871532599e-01  3.2481405124382418e-01 
 3.2933659093963880e-01  3.3384798856473807e-01  3.3834896364203404e-01  3.4283981201580788e-01 
 3.4732005370391333e-01  3.5178807344204172e-01  3.5624078194385922e-01  3.6067333047912981e-01 
 3.6507891420297173e-01  3.6944870000443797e-01  3.7377191175210250e-01  3.7803609907983815e-01 
 3.8222760488947766e-01  3.8633223152748142e-01  3.9033608660484631e-01  3.9422656777780796e-01 
 3.9799342327187914e-01  4.0162980393366093e-01  4.0513320603690983e-01  4.0850619505010960e-01 
 4.1175680198384274e-01  4.1489849798998868e-01  4.1794968064509103e-01  4.2093264634723948e-01 
 4.2387207525887249e-01  4.2679311421692978e-01  4.2971920336760017e-01  4.3266984703855654e-01 
 4.3565857077294867e-01  4.3869132647499132e-01  4.4176559866393172e-01  4.4487042076525923e-01 
 4.4798742790563256e-01  4.5109295317435044e-01  4.5416102563306077e-01  4.5716696625031650e-01 
 4.6009112608947722e-01  4.6292225292153683e-01  4.6565611288984987e-01  4.6828944267645706e-01 
 4.7081899792849152e-01  4.7324155789563244e-01  4.7555393018554909e-01  4.7775295562815118e-01 
 4.7983551324295848e-01  4.8179852530340422e-01  4.8363896249139227e-01  4.8535384913496915e-01 
 4.8694026852144340e-01  4.8839536827782937e-01  4.8971636580996475e-01  4.9090055379119385e-01 
 4.9194530569099565e-01  4.9284808133347335e-01  4.9360643247512681e-01  4.9421800839088620e-01 
 4.9468056145689565e-01  4.9499195271812463e-01  4.9515015742842056e-01  4.9515327055020525e-01 
 4.9499951220063970e-01  4.9468723303064954e-01  4.9421491952288632e-01  4.9358119919432508e-01 
 4.9278484568890013e-01  4.9182478374527017e-01  4.9070009402455084e-01  4.8941001778260851e-01 
 4.8795396137130276e-01  4.8633150055289714e-01  4.8454238461170063e-01  4.8258654024692721e-01 
 4.8046407523066664e-01  4.7817528181485486e-01  4.7572063987114183e-01  4.7310081974761425e-01 
 4.7031668482644806e-01  4.6736929376670616e-01  4.6425990241673198e-01  4.6098996538081033e-01 
 4.5756113722513136e-01  4.5397527330843562e-01  4.5023443022316956e-01  4.4634086583349269e-01 
 4.4229703889703637e-01  4.3810560825797629e-01  4.3376943159968850e-01  4.2929156374607902e-01 
 4.2467525450155041e-01  4.1992394602055721e-01  4.1504126969877375e-01  4.1003104257906359e-01 
 4.0489726326672415e-01  3.9964410734985090e-01  3.9427592232217229e-01  3.8879722200730127e-01 
 3.8321268048509538e-01  3.7752712552264200e-01  3.7174553151436912e-01  3.6587301193786276e-01 
 3.5991481133417613e-01  3.5387629682373245e-01  3.4776294917135131e-01  3.4158035341644216e-01 
 3.3533418908704676e-01  3.2903021999148868e-01  3.2267428374919149e-01  3.1627228081244096e-01 
 3.0983016328393365e-01  3.0335392342435635e-01  2.9684958191199873e-01  2.9032317589713974e-01 
 2.8378074688259303e-01  2.7722832847841666e-01  2.7067193407449708e-01  2.6411754447721780e-01 
 2.5757109555829072e-01  2.5103846596514601e-01  2.4452546494324662e-01  2.3803782032129947e-01 
 2.3158116671052051e-01  2.2516103396888576e-01  2.1878283598062837e-01  2.1245185980011944e-01 
 2.0617325520769439e-01  1.9995202472295912e-01  1.9379301411864738e-01  1.8770090347521701e-01 
 1.8168019881308969e-01  1.7573522433581332e-01  1.6987011531345775e-01  1.6408881163133107e-01 
 1.5839505202465176e-01  1.5279236901517942e-01  1.4728408456107850e-01  1.4187330642650428e-01 
 1.3656292527261357e-01  1.3135561246700175e-01  1.2625381860398044e-01  1.2125977272371628e-01 
 1.1637548221404981e-01  1.1160273337489048e-01  1.0694309262281156e-01  1.0239790830596406e-01 
 9.7968313104327312e-02  9.3655226979987197e-02  8.9459360645261651e-02  8.5381219513514878e-02 
 8.1421108096679670e-02  7.7579134813121189e-02  7.3855217169489326e-02  7.0249087280668726e-02 
 6.6760297692738946e-02  6.3388227474673486e-02  6.0132088548590895e-02  5.6990932225027741e-02 
 5.3963655917086573e-02  5.1049010006799594e-02  4.8245604840376682e-02  4.5551917829225949e-02 
 4.2966300640187478e-02  4.0486986456251872e-02  3.8112097293374170e-02  3.5839651359745435e-02 
 3.3667570447469632e-02  3.1593687343829474e-02  2.9615753254088686e-02  2.7731445226114069e-02 
 2.5938373567695384e-02  2.4234089246984111e-02  2.2616091265984194e-02  2.1081833996158542e-02 
 1.9628734463962415e-02  1.8254179572801111e-02  1.6955533246352388e-02  1.5730143476753576e-02 
 1.4575349259823851e-02  1.3488487397937067e-02  1.2466899149917993e-02  1.1507936706467395e-02 
 1.0608969468906422e-02  9.7673901086657074e-03  8.9806203849476258e-03  8.2461166983730967e-03 
 7.5613753591970744e-03  6.9239375498326540e-03  6.3313939629482934e-03  5.7813890982673661e-03 
 5.2716252033716306e-03  4.7998658462445670e-03  4.3639391099411021e-03  3.9617404025828707e-03 
 3.5912348787998129e-03  3.2504594717140470e-03  2.9375245375367863e-03  2.6506151177721734e-03 
 2.3879918268453950e-03  2.1479913756523336e-03  1.9290267440263500e-03  1.7295870174015978e-03 
 1.5482369049948214e-03  1.3836159586085087e-03  1.2344375126626798e-03  1.0994873672823522e-03 
 9.7762223719948991e-04  8.6776798987432170e-04  7.6891769660848740e-04  6.8012952052224967e-04 
 6.0052446511518168e-04  5.2928400674175991e-04  4.6564763373060513e-04  4.0891031408066980e-04 
 3.5841991270292556e-04  3.1357457806617018e-04  2.7382011687491592e-04  2.3864737408019071e-04 
 2.0758963412421857e-04  1.8022005787014689e-04  1.5614916818988301e-04  1.3502239569687302e-04 
 1.1651769463482787e-04  1.0034323748478006e-04  8.6235195446297334e-05  7.3955610597172751e-05 
 6.3290364250461240e-05  5.4047244817412185e-05  4.6054117356865562e-05  3.9157195951408235e-05 
 3.3219419101713337e-05  2.8118927475075366e-05  2.3747642582826435e-05  2.0009944293354466e-05 
 1.6821444510949242e-05  1.4107853862758565e-05  1.1803937832945566e-05  9.8525584601809262e-06 
 8.2037974667795448e-06  6.8141565095586356e-06  5.6458301280055830e-06  4.6660469085603964e-06 
 3.8464743786264829e-06  3.1626831842337068e-06  2.5936661851109256e-06  2.1214082144886983e-06 
 1.7305023927071632e-06  1.4078090484126100e-06  1.1421534838984506e-06  9.2405901746748739e-07 
 7.4551194144488236e-07  5.9975524594605123e-07  4.8110817240399515e-07  3.8480887429800547e-07 
 3.0687767301173234e-07  2.4399860217865881e-07  1.9341713244655526e-07  1.5285215913040402e-07 
 1.2042051620979260e-07  9.4572451225487016e-08  7.4036656006596043e-08  5.7773597594019599e-08 
 4.4936032096435247e-08  3.4835711579505789e-08  2.6915410652244961e-08  2.0725505501533943e-08 
 1.5904434157895088e-08  1.2162453248523941e-08  9.2681839576328990e-09  7.0375089554672442e-09 
 5.3244432896366000e-09  4.0136562629363852e-09  3.0143687747161156e-09  2.2553920720732731e-09 
 1.6811099252732624e-09  1.2482374625853980e-09  9.2321679628840322e-10  6.8013263305827071e-10 
 4.9905074196001029e-10  3.6469886768689785e-10  2.6542380589159879e-10  1.9237024435273511e-10 
 1.3883692681628329e-10  9.9773990551286821e-11  7.1392207419035093e-11  5.0860535740430561e-11 
 3.6073053636760485e-11  2.5470156368638035e-11  1.7902000794101229e-11  1.2524689735504954e-11 
 8.7217103621658366e-12  6.0447605794192174e-12  4.1693890735072465e-12  2.8618993904464103e-12 
 1.9547772415057157e-12  1.3285353376457484e-12  8.9836617742743971e-13  6.0437887164591121e-13 
 4.0449442660137315e-13  2.6929843793277140e-13  1.7833775272754786e-13  1.1746558791051393e-13 
 7.6949408823050612e-14  5.0129818707486310e-14  3.2475192996613431e-14  2.0918967298363089e-14 
 1.3397672301282774e-14  8.5307332925752805e-15  5.3998058637164133e-15  3.3975912410117321e-15 
 2.1248648049422399e-15  1.3207609427933269e-15  8.1585873503654432e-16  5.0080446535774956e-16 
 3.0545558365281943e-16  1.8510506491080203e-16  1.1144026247475497e-16  6.6647258754587728e-17 
 3.9591418340837388e-17  2.3359320366031190e-17  1.3687400911187008e-17  7.9642370694031612e-18 
 4.6014004068670659e-18  2.6394793213892686e-18  1.5031007891239789e-18  8.4968554654826357e-19 
 4.7674573174591498e-19  2.6547981364399337e-19  1.4670653764881145e-19  8.0444699615919912e-20 
 4.3765491329118613e-20  2.3621576857439526e-20  1.2646934970783630e-20  6.7161256081526867e-21 
 3.5372858251820789e-21  1.8475931171055936e-21  9.5699049916901424e-22  4.9156577868895224e-22 
 2.5043338396305184e-22  1.2659571800799504e-22  6.3559577169080036e-23  3.1760907214869762e-23 
 0.0000000000000000e+00  0.0000000000000000e+00  0.0000000000000000e+00  0.0000000000000000e+00 
 0.0000000000000000e+00  0.0000000000000000e+00  0.0000000000000000e+00  0.0000000000000000e+00 
 0.0000000000000000e+00  0.0000000000000000e+00  0.0000000000000000e+00  0.0000000000000000e+00 
 0.0000000000000000e+00  0.0000000000000000e+00  0.0000000000000000e+00  0.0000000000000000e+00 
 0.0000000000000000e+00  0.0000000000000000e+00  0.0000000000000000e+00  0.0000000000000000e+00 
 0.0000000000000000e+00  0.0000000000000000e+00  0.0000000000000000e+00  0.0000000000000000e+00 
 0.0000000000000000e+00  0.0000000000000000e+00  0.0000000000000000e+00  0.0000000000000000e+00 
 0.0000000000000000e+00  0.0000000000000000e+00  0.0000000000000000e+00  0.0000000000000000e+00 
 0.0000000000000000e+00  0.0000000000000000e+00  0.0000000000000000e+00  0.0000000000000000e+00 
 0.0000000000000000e+00  0.0000000000000000e+00  0.0000000000000000e+00  0.0000000000000000e+00 
 0.0000000000000000e+00  0.0000000000000000e+00  0.0000000000000000e+00  0.0000000000000000e+00 
 0.0000000000000000e+00  0.0000000000000000e+00  0.0000000000000000e+00  0.0000000000000000e+00 
 0.0000000000000000e+00  0.0000000000000000e+00  0.0000000000000000e+00  0.0000000000000000e+00 
 0.0000000000000000e+00  0.0000000000000000e+00  0.0000000000000000e+00  0.0000000000000000e+00 
 0.0000000000000000e+00  0.0000000000000000e+00  0.0000000000000000e+00  0.0000000000000000e+00 
 0.0000000000000000e+00  0.0000000000000000e+00  0.0000000000000000e+00  0.0000000000000000e+00 
 0.0000000000000000e+00  0.0000000000000000e+00  0.0000000000000000e+00  0.0000000000000000e+00 
 0.0000000000000000e+00  0.0000000000000000e+00  0.0000000000000000e+00  0.0000000000000000e+00 
 0.0000000000000000e+00  0.0000000000000000e+00  0.0000000000000000e+00  0.0000000000000000e+00 
 0.0000000000000000e+00  0.0000000000000000e+00  0.0000000000000000e+00  0.0000000000000000e+00 
 0.0000000000000000e+00  0.0000000000000000e+00  0.0000000000000000e+00  0.0000000000000000e+00 
</PP_RHOATOM>
