  <PP_INFO>

############################################################
#    Opium Parameter File                                  #
############################################################
#-----------------------------------------------------------
#Command line   : opium i_frl_gga log all rpt upf 
 
#Opium version  : 3.6 
#Compile Host   : whoville2.chem.upenn.edu 
#Compile OS     : Linux 2.6.18-92.1.13.el5 x86_64 
#Compile Date   : Wed Jan 19 10:47:14 EST 2011 
#-----------------------------------------------------------
#Execution Host : whoville2.chem.upenn.edu 
#Execution Date : Fri Mar 23 13:41:33 2012
 
#-----------------------------------------------------------
############################################################

############################################################
#    Opium Parameter File                                  #
############################################################
#-----------------------------------------------------------
#Command line   : /home/sugata/Desktop/Pseudo_Potential/opium_pclinux_static36.exe te_srl_gga te_srl_gga.log all upf rpt

#Opium version  : 3.6
#Compile Host   : pzt.wm.edu
#Compile OS     : Linux 2.6.9-42.ELsmp x86_64
#Compile Date   : Mon Apr 27 12:45:31 EDT 2009
#-----------------------------------------------------------
#Execution Host : Southzax
#Execution Date : Sun Jan 23 11:22:09 2011

#-----------------------------------------------------------
############################################################
[Atom]
I              #chemical symbol (max. 2 characters)
11              # norb: number of orbitals
# reference configuration
100 2.00 - # nlm occ eigen(- means auto-generate)
200 2.00 -
210 6.00 -
300 2.00 -
310 6.00  -
320 10.0  -
400 2.00  -
410 6.00  -
500 2.00  -
510 5.00  -
420 10.0  -

[Pseudo]
3 2.07 2.18 2.07
opt

[Optinfo]
7.07 10    # rc[a.u.] qc[sqrt(Ry)] Nb
7.07 10
7.07 10

[XC]
gga

[Configs]
5
#
  500 0.00   -0.4   # test configuration
  510 0.00   -0.4   # test configuration
  420 10.0   -0.4   # test configuration
#
  500 0.50   -0.4   # test configuration
  510 0.00   -0.4   # test configuration
  420 9.50   -0.4   # test configuration
#
  500 1.50   -0.4   # test configuration
  510 0.00   -0.4   # test configuration
  420 10.0   -0.4   # test configuration
#
  500 2.00   -0.4   # test configuration
  510 0.00   -0.4   # test configuration
  420 10.0   -0.4   # test configuration#
#
  500 0.00   -0.4   # test configuration
  510 0.00   -0.4   # test configuration
  420 9.00   -0.4   # test configuration

[Relativity]
frl              # nrl / srl / frl


############################################################

############################################################
  </PP_INFO>



<PP_HEADER>
   0         Version Number
   I        Element
   NC        Norm - Conserving pseudopotential
    F      Nonlinear Core Correction
SLA  PW   PBE  PBE     PBE  Exchange-Correlation functional
 17          Z valence
 0          Total energy
 0.000000   0.000000     Suggested cutoff for wfc and rho
 2           Max angular momentum component
 1178           Number of points in mesh
 5  4     Number of Wavefuncitons, Number of Projectors
 Wavefunctions         nl  l   occ
                       S  0  2.000000
                       P  1  1.666667
                       P  1  3.333333
                       D  2  4.000000
                       D  2  6.000000
</PP_HEADER>
<PP_MESH>
  <PP_R>
 2.6622042768611623e-05  2.6970388667086069e-05  2.7323292625437386e-05  2.7680814285274489e-05 
 2.8043014068608812e-05  2.8409953188065840e-05  2.8781693657230065e-05  2.9158298301125579e-05 
 2.9539830766833554e-05  2.9926355534248781e-05  3.0317937926976917e-05  3.0714644123374333e-05 
 3.1116541167732417e-05  3.1523696981608234e-05  3.1936180375303426e-05  3.2354061059493211e-05 
 3.2777409657007841e-05  3.3206297714767912e-05  3.3640797715875977e-05  3.4080983091866383e-05 
 3.4526928235115346e-05  3.4978708511413475e-05  3.5436400272702750e-05  3.5900080869980199e-05 
 3.6369828666370308e-05  3.6845723050368741e-05  3.7327844449259071e-05  3.7816274342705209e-05 
 3.8311095276521664e-05  3.8812390876623963e-05  3.9320245863161654e-05  3.9834746064836197e-05 
 4.0355978433406286e-05  4.0884031058382730e-05  4.1418993181915977e-05  4.1960955213878188e-05 
 4.2510008747142670e-05  4.3066246573063363e-05  4.3629762697156718e-05  4.4200652354988961e-05 
 4.4779012028271025e-05  4.5364939461164286e-05  4.5958533676799390e-05  4.6559894994011627e-05 
 4.7169125044294907e-05  4.7786326788977754e-05  4.8411604536624022e-05  4.9045063960661273e-05 
 4.9686812117239876e-05  5.0336957463325747e-05  5.0995609875029725e-05  5.1662880666177056e-05 
 5.2338882607119639e-05  5.3023729943794411e-05  5.3717538417031290e-05  5.4420425282113600e-05 
 5.5132509328594450e-05  5.5853910900372541e-05  5.6584751916030510e-05  5.7325155889439525e-05 
 5.8075247950633220e-05  5.8835154866955280e-05  5.9605005064483212e-05  6.0384928649732724e-05 
 6.1175057431645997e-05  6.1975524943867782e-05  6.2786466467312834e-05  6.3608019053028786e-05 
 6.4440321545357871e-05  6.5283514605402323e-05  6.6137740734796167e-05  6.7003144299788449e-05 
 6.7879871555641302e-05  6.8768070671347751e-05  6.9667891754672312e-05  7.0579486877519736e-05 
 7.1503010101635453e-05  7.2438617504642431e-05  7.3386467206418700e-05  7.4346719395819658e-05 
 7.5319536357750912e-05  7.6305082500594391e-05  7.7303524383993938e-05  7.8315030747004292e-05 
 7.9339772536608219e-05  8.0377922936607219e-05  8.1429657396889674e-05  8.2495153663082681e-05 
 8.3574591806591169e-05  8.4668154255030593e-05  8.5776025823057532e-05  8.6898393743603796e-05 
 8.8035447699519296e-05  8.9187379855628938e-05  9.0354384891208744e-05  9.1536660032887353e-05 
 9.2734405087977698e-05  9.3947822478244677e-05  9.5177117274115400e-05  9.6422497229336202e-05 
 9.7684172816083596e-05  9.8962357260534719e-05  1.0025726657890286e-04  1.0156911961394492e-04 
 1.0289813807194597e-04  1.0424454656018872e-04  1.0560857262491220e-04  1.0699044678976796e-04 
 1.0839040259477879e-04  1.0980867663580774e-04  1.1124550860454347e-04  1.1270114132900840e-04 
 1.1417582081459759e-04  1.1566979628565393e-04  1.1718332022758794e-04  1.1871664842954794e-04 
 1.2027004002764966e-04  1.2184375754877038e-04  1.2343806695491676e-04  1.2505323768817312e-04 
 1.2668954271623752e-04  1.2834725857855447e-04  1.3002666543304999e-04  1.3172804710347968e-04 
 1.3345169112739542e-04  1.3519788880473959e-04  1.3696693524707580e-04  1.3875912942746339e-04 
 1.4057477423098428e-04  1.4241417650593180e-04  1.4427764711566837e-04  1.4616550099116223e-04 
 1.4807805718421179e-04  1.5001563892136539e-04  1.5197857365854847e-04  1.5396719313640352e-04 
 1.5598183343635552e-04  1.5802283503741005e-04  1.6009054287369553e-04  1.6218530639275778e-04 
 1.6430747961461702e-04  1.6645742119159886e-04  1.6863549446894679e-04  1.7084206754622877e-04 
 1.7307751333954668e-04  1.7534220964456022e-04  1.7763653920033518e-04  1.7996088975402705e-04 
 1.8231565412641173e-04  1.8470123027827264e-04  1.8711802137765754e-04  1.8956643586801413e-04 
 1.9204688753721882e-04  1.9455979558750754e-04  1.9710558470632163e-04  1.9968468513808163e-04 
 2.0229753275689867e-04  2.0494456914023931e-04  2.0762624164355259e-04  2.1034300347587412e-04 
 2.1309531377641978e-04  2.1588363769218114e-04  2.1870844645653642e-04  2.2157021746889010e-04 
 2.2446943437535454e-04  2.2740658715048737e-04  2.3038217218009836e-04  2.3339669234513966e-04 
 2.3645065710669398e-04  2.3954458259207499e-04  2.4267899168205309e-04  2.4585441409922501e-04 
 2.4907138649753690e-04  2.5233045255298114e-04  2.5563216305547748e-04  2.5897707600195947e-04 
 2.6236575669067634e-04  2.6579877781672973e-04  2.6927671956886108e-04  2.7280016972750404e-04 
 2.7636972376412193e-04  2.7998598494184251e-04  2.8364956441741197e-04  2.8736108134448142e-04 
 2.9112116297824525e-04  2.9493044478144892e-04  2.9878957053178370e-04  3.0269919243068664e-04 
 3.0665997121356354e-04  3.1067257626145594e-04  3.1473768571416719e-04  3.1885598658487065e-04 
 3.2302817487621469e-04  3.2725495569795114e-04  3.3153704338609904e-04  3.3587516162366938e-04 
 3.4027004356296958e-04  3.4472243194950746e-04  3.4923307924751757e-04  3.5380274776712904e-04 
 3.5843220979319811e-04  3.6312224771582529e-04  3.6787365416258262e-04  3.7268723213246827e-04 
 3.7756379513161602e-04  3.8250416731077947e-04  3.8750918360461520e-04  3.9257968987278953e-04 
 3.9771654304292996e-04  4.0292061125544863e-04  4.0819277401025941e-04  4.1353392231541610e-04 
 4.1894495883769498e-04  4.2442679805514686e-04  4.2998036641164717e-04  4.3560660247346560e-04 
 4.4130645708788797e-04  4.4708089354391023e-04  4.5293088773503743e-04  4.5885742832421097e-04 
 4.6486151691089636e-04  4.7094416820035517e-04  4.7710641017513218e-04  4.8334928426878884e-04 
 4.8967384554190454e-04  4.9608116286038793e-04  5.0257231907611607e-04  5.0914841120993889e-04 
 5.1581055063707837e-04  5.2255986327495458e-04  5.2939748977346747e-04  5.3632458570776909e-04 
 5.4334232177355999e-04  5.5045188398493785e-04  5.5765447387483768e-04  5.6495130869809417e-04 
 5.7234362163715929e-04  5.7983266201051429e-04  5.8741969548380699e-04  5.9510600428375193e-04 
 6.0289288741483069e-04  6.1078166087882651e-04  6.1877365789722973e-04  6.2687022913655898e-04 
 6.3507274293662388e-04  6.4338258554178006e-04  6.5180116133520510e-04  6.6032989307624585e-04 
 6.6897022214086545e-04  6.7772360876524067e-04  6.8659153229254518e-04  6.9557549142296117e-04 
 7.0467700446696479e-04  7.1389760960192266e-04  7.2323886513204886e-04  7.3270234975176033e-04 
 7.4228966281248256e-04  7.5200242459294131e-04  7.6184227657299485e-04  7.7181088171104787e-04 
 7.8190992472509414e-04  7.9214111237744026e-04  8.0250617376315071e-04  8.1300686060226991e-04 
 8.2364494753586520e-04  8.3442223242594874e-04  8.4534053665931809e-04  8.5640170545537523e-04 
 8.6760760817797343e-04  8.7896013865134347e-04  8.9046121548015580e-04  9.0211278237376771e-04 
 9.1391680847471716e-04  9.2587528869150901e-04  9.3799024403576228e-04  9.5026372196376516e-04 
 9.6269779672249959e-04  9.7529456970019406e-04  9.8805616978146315e-04  1.0009847537070947e-03 
 1.0140825064385431e-03  1.0273516415271948e-03  1.0407944014884602e-03  1.0544130581807685e-03 
 1.0682099131895148e-03  1.0821872982160327e-03  1.0963475754716598e-03  1.1106931380769549e-03 
 1.1252264104661418e-03  1.1399498487968454e-03  1.1548659413651869e-03  1.1699772090263114e-03 
 1.1852862056204202e-03  1.2007955184043747e-03  1.2165077684889495e-03  1.2324256112818048e-03 
 1.2485517369362591e-03  1.2648888708059294e-03  1.2814397739053236e-03  1.2982072433764587e-03 
 1.3151941129615828e-03  1.3324032534820873e-03  1.3498375733236782e-03  1.3675000189279055e-03 
 1.3853935752901137e-03  1.4035212664639167e-03  1.4218861560722684e-03  1.4404913478252227e-03 
 1.4593399860444683e-03  1.4784352561947258e-03  1.4977803854221007e-03  1.5173786430994723e-03 
 1.5372333413790362e-03  1.5573478357520567e-03  1.5777255256159582e-03  1.5983698548488277e-03 
 1.6192843123914421e-03  1.6404724328369037e-03  1.6619377970279979e-03  1.6836840326623639e-03 
 1.7057148149055795e-03  1.7280338670122802e-03  1.7506449609553940e-03  1.7735519180636134e-03 
 1.7967586096672109e-03  1.8202689577523005e-03  1.8440869356236675e-03  1.8682165685762603e-03 
 1.8926619345754798e-03  1.9174271649463599e-03  1.9425164450717774e-03  1.9679340150997892e-03 
 1.9936841706602267e-03  2.0197712635906667e-03  2.0461997026719045e-03  2.0729739543730468e-03 
 2.1000985436063573e-03  2.1275780544919762e-03  2.1554171311326449e-03  2.1836204783985758e-03 
 2.2121928627225835e-03  2.2411391129056246e-03  2.2704641209328755e-03  2.3001728428004870e-03 
 2.3302702993531661e-03  2.3607615771327052e-03  2.3916518292376229e-03  2.4229462761940412e-03 
 2.4546502068379834e-03  2.4867689792091867e-03  2.5193080214566265e-03  2.5522728327558898e-03 
 2.5856689842385446e-03  2.6195021199336777e-03  2.6537779577217491e-03  2.6885022903009245e-03 
 2.7236809861660560e-03  2.7593199906004724e-03  2.7954253266807491e-03  2.8320030962946182e-03 
 2.8690594811722008e-03  2.9066007439307422e-03  2.9446332291329985e-03  2.9831633643594901e-03 
 3.0221976612947784e-03  3.0617427168279456e-03  3.1018052141675006e-03  3.1423919239708469e-03 
 3.1835097054885401e-03  3.2251655077235224e-03  3.2673663706055166e-03  3.3101194261807906e-03 
 3.3534318998174931e-03  3.3973111114267603e-03  3.4417644766997850e-03  3.4867995083611041e-03 
 3.5324238174382571e-03  3.5786451145480673e-03  3.6254712111997564e-03  3.6729100211151120e-03 
 3.7209695615659172e-03  3.7696579547288941e-03  3.8189834290583737e-03  3.8689543206769116e-03 
 3.9195790747841288e-03  3.9708662470839626e-03  4.0228245052305982e-03  4.0754626302933307e-03 
 4.1287895182405771e-03  4.1828141814433256e-03  4.2375457501982400e-03  4.2929934742707097e-03 
 4.3491667244580680e-03  4.4060749941732969e-03  4.4637279010494258e-03  4.5221351885649363e-03 
 4.5813067276904342e-03  4.6412525185568643e-03  4.7019826921455600e-03  4.7635075120004032e-03 
 4.8258373759623866e-03  4.8889828179268634e-03  4.9529545096238222e-03  5.0177632624214177e-03 
 5.0834200291531252e-03  5.1499359059687900e-03  5.2173221342099096e-03  5.2855901023094419e-03 
 5.3547513477164811e-03  5.4248175588461154e-03  5.4958005770547784e-03  5.5677123986415025e-03 
 5.6405651768752906e-03  5.7143712240490634e-03  5.7891430135604558e-03  5.8648931820198570e-03 
 5.9416345313860362e-03  6.0193800311296834e-03  6.0981428204253049e-03  6.1779362103717419e-03 
 6.2587736862418164e-03  6.3406689097613529e-03  6.4236357214180464e-03  6.5076881428005346e-03 
 6.5928403789680817e-03  6.6791068208512713e-03  6.7665020476841064e-03  6.8550408294679359e-03 
 6.9447381294675987e-03  7.0356091067402910e-03  7.1276691186974508e-03  7.2209337237002166e-03 
 7.3154186836888050e-03  7.4111399668463423e-03  7.5081137502975058e-03  7.6063564228425074e-03 
 7.7058845877268417e-03  7.8067150654472428e-03  7.9088648965944426e-03  8.0123513447330312e-03 
 8.1171918993190508e-03  8.2234042786557566e-03  8.3310064328880537e-03  8.4400165470361090e-03 
 8.5504530440686718e-03  8.6623345880165927e-03  8.7756800871270774e-03  8.8905086970592507e-03 
 9.0068398241215011e-03  9.1246931285511746e-03  9.2440885278372281e-03  9.3650462000863122e-03 
 9.4875865874329262e-03  9.6117303994941884e-03  9.7374986168698250e-03  9.8649124946878913e-03 
 9.9939935661970038e-03  1.0124763646405476e-02  1.0257244835768108e-02  1.0391459523921219e-02 
 1.0527430393466555e-02  1.0665180423804687e-02  1.0804732895018602e-02  1.0946111391808098e-02 
 1.1089339807475600e-02  1.1234442347964271e-02  1.1381443535948804e-02  1.1530368214979851e-02 
 1.1681241553682621e-02  1.1834089050010446e-02  1.1988936535554004e-02  1.2145810179906895e-02 
 1.2304736495088406e-02  1.2465742340024042e-02  1.2628854925084809e-02  1.2794101816685818e-02 
 1.2961510941945038e-02  1.3131110593403108e-02  1.3302929433804771e-02  1.3476996500943007e-02 
 1.3653341212566457e-02  1.3831993371351114e-02  1.4012983169937003e-02  1.4196341196030866e-02 
 1.4382098437575522e-02  1.4570286287986916e-02  1.4760936551459670e-02  1.4954081448342076e-02 
 1.5149753620581413e-02  1.5347986137240508e-02  1.5548812500086502e-02  1.5752266649252677e-02 
 1.5958382968974488e-02  1.6167196293400556e-02  1.6378741912479698e-02  1.6593055577925044e-02 
 1.6810173509256128e-02  1.7030132399920125e-02  1.7252969423493063e-02  1.7478722239962326e-02 
 1.7707429002091182e-02  1.7939128361866778e-02  1.8173859477032393e-02  1.8411662017705169e-02 
 1.8652576173080478e-02  1.8896642658223974e-02  1.9143902720952545e-02  1.9394398148805291e-02 
 1.9648171276105752e-02  1.9905264991116407e-02  2.0165722743287019e-02  2.0429588550597615e-02 
 2.0696907006997656e-02  2.0967723289942522e-02  2.1242083168028603e-02  2.1520033008728286e-02 
 2.1801619786226207e-02  2.2086891089357987e-02  2.2375895129652785e-02  2.2668680749481290e-02 
 2.2965297430310110e-02  2.3265795301064283e-02  2.3570225146599177e-02  2.3878638416283262e-02 
 2.4191087232693167e-02  2.4507624400422534e-02  2.4828303415006102e-02  2.5153178471960549e-02 
 2.5482304475943757e-02  2.5815737050033750e-02  2.6153532545129157e-02  2.6495748049472620e-02 
 2.6842441398298889e-02  2.7193671183609075e-02  2.7549496764072860e-02  2.7909978275060268e-02 
 2.8275176638804581e-02  2.8645153574698518e-02  2.9019971609724800e-02  2.9399694089023470e-02 
 2.9784385186597311e-02  3.0174109916157398e-02  3.0568934142110617e-02  3.0968924590690877e-02 
 3.1374148861236018e-02  3.1784675437612195e-02  3.2200573699787932e-02  3.2621913935559417e-02 
 3.3048767352429315e-02  3.3481206089641044e-02  3.3919303230370429e-02  3.4363132814076970e-02 
 3.4812769849016663e-02  3.5268290324918641e-02  3.5729771225827434e-02  3.6197290543113714e-02 
 3.6670927288654821e-02  3.7150761508188072e-02  3.7636874294838620e-02  3.8129347802824391e-02 
 3.8628265261340368e-02  3.9133710988624532e-02  3.9645770406207821e-02  4.0164530053350495e-02 
 4.0690077601667658e-02  4.1222501869945805e-02  4.1761892839153519e-02  4.2308341667648415e-02 
 4.2861940706583071e-02  4.3422783515512715e-02  4.3990964878206897e-02  4.4566580818668294e-02 
 4.5149728617360781e-02  4.5740506827650323e-02  4.6339015292460567e-02  4.6945355161146576e-02 
 4.7559628906589310e-02  4.8181940342513760e-02  4.8812394641033797e-02  4.9451098350426381e-02 
 5.0098159413138617e-02  5.0753687184030109e-02  5.1417792448854388e-02  5.2090587442981839e-02 
 5.2772185870367791e-02  5.3462702922768744e-02  5.4162255299210052e-02  5.4870961225708330e-02 
 5.5588940475251945e-02  5.6316314388042993e-02  5.7053205892003842e-02  5.7799739523552586e-02 
 5.8556041448649787e-02  5.9322239484120846e-02  6.0098463119257407e-02  6.0884843537701253e-02 
 6.1681513639614806e-02  6.2488608064141409e-02  6.3306263212159861e-02  6.4134617269336128e-02 
 6.4973810229477513e-02  6.5823983918191636e-02  6.6685282016855363e-02  6.7557850086897381e-02 
 6.8441835594398301e-02  6.9337387935012859e-02  7.0244658459218123e-02  7.1163800497892157e-02 
 7.2094969388227001e-02  7.3038322499981434e-02  7.3994019262076646e-02  7.4962221189540074e-02 
 7.5943091910801869e-02  7.6936797195348502e-02  7.7943504981738174e-02  7.8963385405982828e-02 
 7.9996610830301587e-02  8.1043355872250381e-02  8.2103797434232559e-02  8.3178114733396119e-02 
 8.4266489331921726e-02  8.5369105167706683e-02  8.6486148585451728e-02  8.7617808368153097e-02 
 8.8764275769007570e-02  8.9925744543734518e-02  9.1102410983321377e-02  9.2294473947196934e-02 
 9.3502134896839367e-02  9.4725597929823477e-02  9.5965069814313825e-02  9.7220760024008951e-02 
 9.8492880773542929e-02  9.9781647054350234e-02  1.0108727667099968e-01  1.0240999027800404e-01 
 1.0375001141711106e-01  1.0510756655508263e-01  1.0648288512196837e-01  1.0787619954987911e-01 
 1.0928774531226959e-01  1.1071776096373320e-01  1.1216648818031870e-01  1.1363417180037376e-01 
 1.1512105986592343e-01  1.1662740366458967e-01  1.1815345777205974e-01  1.1969948009510993e-01 
 1.2126573191519255e-01  1.2285247793259300e-01  1.2445998631116488e-01  1.2608852872365009e-01 
 1.2773838039759253e-01  1.2940982016185187e-01  1.3110313049372643e-01  1.3281859756669259e-01 
 1.3455651129876886e-01  1.3631716540151190e-01  1.3810085742965583e-01  1.3990788883139876e-01 
 1.4173856499934853e-01  1.4359319532213469e-01  1.4547209323669597e-01  1.4737557628125192e-01 
 1.4930396614896752e-01  1.5125758874232018e-01  1.5323677422817802e-01  1.5524185709359872e-01 
 1.5727317620235887e-01  1.5933107485222262e-01  1.6141590083295979e-01  1.6352800648512314e-01 
 1.6566774875959497e-01  1.6783548927791242e-01  1.7003159439338286e-01  1.7225643525299714e-01 
 1.7451038786015613e-01  1.7679383313821515e-01  1.7910715699486088e-01  1.8145075038733113e-01 
 1.8382500938848720e-01  1.8623033525375118e-01  1.8866713448891931e-01  1.9113581891886208e-01 
 1.9363680575712386e-01  1.9617051767643293e-01  1.9873738288013415e-01  2.0133783517455628e-01 
 2.0397231404232646e-01  2.0664126471664362e-01  2.0934513825652409e-01  2.1208439162303158e-01 
 2.1485948775650515e-01  2.1767089565479555e-01  2.2051909045252935e-01  2.2340455350140648e-01 
 2.2632777245154972e-01  2.2928924133391931e-01  2.3228946064380487e-01  2.3532893742541061e-01 
 2.3840818535754696e-01  2.4152772484044324e-01  2.4468808308369688e-01  2.4788979419537305e-01 
 2.5113339927226980e-01  2.5441944649136544e-01  2.5774849120246102e-01  2.6112109602203609e-01 
 2.6453783092833238e-01  2.6799927335768126e-01  2.7150600830209221e-01  2.7505862840811629e-01 
 2.7865773407700745e-01  2.8230393356619010e-01  2.8599784309205600e-01  2.8974008693410708e-01 
 2.9353129754045937e-01  2.9737211563472898e-01  3.0126319032431520e-01  3.0520517921010176e-01 
 3.0919874849759271e-01  3.1324457310950266e-01  3.1734333679982052e-01  3.2149573226936540e-01 
 3.2570246128285479e-01  3.2996423478750425e-01  3.3428177303317957e-01  3.3865580569412052e-01 
 3.4308707199225796e-01  3.4757632082214196e-01  3.5212431087751017e-01  3.5673181077950650e-01 
 3.6139959920658082e-01  3.6612846502608715e-01  3.7091920742760393e-01  3.7577263605799965e-01 
 3.8068957115826435e-01  3.8567084370213289e-01  3.9071729553652096e-01  3.9582977952379955e-01 
 4.0100915968593104e-01  4.0625631135048990e-01  4.1157212129859627e-01  4.1695748791478371e-01 
 4.2241332133882792e-01  4.2794054361956285e-01  4.3354008887071022e-01  4.3921290342874325e-01 
 4.4495994601282496e-01  4.5078218788683050e-01  4.5668061302349433e-01  4.6265621827070308e-01 
 4.6871001351996605e-01  4.7484302187708910e-01  4.8105627983508170e-01  4.8735083744932695e-01 
 4.9372775851504325e-01  5.0018812074706831e-01  5.0673301596199583e-01  5.1336355026269465e-01 
 5.2008084422524270e-01  5.2688603308830739e-01  5.3378026694500402e-01  5.4076471093726275e-01 
 5.4784054545274330e-01  5.5500896632431795e-01  5.6227118503217643e-01  5.6962842890856513e-01 
 5.7708194134521007e-01  5.8463298200345326e-01  5.9228282702713808e-01  6.0003276925828086e-01 
 6.0788411845556445e-01  6.1583820151568991e-01  6.2389636269762605e-01  6.3205996384979179e-01 
 6.4033038464021208e-01  6.4870902278968479e-01  6.5719729430799922e-01  6.6579663373324460e-01 
 6.7450849437425164e-01  6.8333434855620323e-01  6.9227568786946392e-01  7.0133402342165641e-01 
 7.1051088609304991e-01  7.1980782679527777e-01  7.2922641673344646e-01  7.3876824767167260e-01 
 7.4843493220209489e-01  7.5822810401740703e-01  7.6814941818695437e-01  7.7820055143644518e-01 
 7.8838320243132132e-01  7.9869909206383660e-01  8.0914996374389192e-01  8.1973758369367489e-01 
 8.3046374124615707e-01  8.4133024914749388e-01  8.5233894386338394e-01  8.6349168588943592e-01 
 8.7479036006559874e-01  8.8623687589469691e-01  8.9783316786515055e-01  9.0958119577790297e-01 
 9.2148294507763351e-01  9.3354042718830044e-01  9.4575567985307885e-01  9.5813076747874248e-01 
 9.7066778148455379e-01  9.8336884065571961e-01  9.9623609150146886e-01  1.0092717086178200e+00 
 1.0224778950550919e+00  1.0358568826902246e+00  1.0494109326039716e+00  1.0631423354630283e+00 
 1.0770534119071593e+00  1.0911465129413944e+00  1.1054240203333525e+00  1.1198883470157615e+00 
 1.1345419374942587e+00  1.1493872682605115e+00  1.1644268482107536e+00  1.1796632190697920e+00 
 1.1950989558205656e+00  1.2107366671393238e+00  1.2265789958364992e+00  1.2426286193033476e+00 
 1.2588882499644347e+00  1.2753606357360414e+00  1.2920485604905694e+00  1.3089548445270209e+00 
 1.3260823450476362e+00  1.3434339566407687e+00  1.3610126117700772e+00  1.3788212812701155e+00 
 1.3968629748484198e+00  1.4151407415941395e+00  1.4336576704933606e+00  1.4524168909511390e+00 
 1.4714215733203808e+00  1.4906749294376398e+00  1.5101802131659239e+00  1.5299407209446083e+00 
 1.5499597923465391e+00  1.5702408106424310e+00  1.5907872033726460e+00  1.6116024429264588e+00 
 1.6326900471288956e+00  1.6540535798352576e+00  1.6756966515334193e+00  1.6976229199540105e+00 
 1.7198360906885801e+00  1.7423399178158532e+00  1.7651382045361774e+00  1.7882348038142646e+00 
 1.8116336190303686e+00  1.8353386046399516e+00  1.8593537668420024e+00  1.8836831642560912e+00 
 1.9083309086082878e+00  1.9333011654260510e+00  1.9585981547422151e+00  1.9842261518081841e+00 
 2.0101894878164583e+00  2.0364925506326190e+00  2.0631397855368858e+00  2.0901356959753814e+00 
 2.1174848443212211e+00  2.1451918526455702e+00  2.1732614034987803e+00  2.2016982407017549e+00 
 2.2305071701476660e+00  2.2596930606141519e+00  2.2892608445861686e+00  2.3192155190895836e+00 
 2.3495621465356811e+00  2.3803058555767285e+00  2.4114518419727267e+00  2.4430053694695073e+00 
 2.4749717706883163e+00  2.5073564480270454e+00  2.5401648745732412e+00  2.5734025950290782e+00 
 2.6070752266484223e+00  2.6411884601861604e+00  2.6757480608599549e+00  2.7107598693245740e+00 
 2.7462298026589789e+00  2.7821638553663259e+00  2.8185681003870551e+00  2.8554486901252085e+00 
 2.8928118574882369e+00  2.9306639169403543e+00  2.9690112655696970e+00  3.0078603841694553e+00 
 3.0472178383331365e+00  3.0870902795641699e+00  3.1274844464000231e+00  3.1684071655510331e+00 
 3.2098653530541368e+00  3.2518660154416970e+00  3.2944162509256221e+00  3.3375232505969841e+00 
 3.3811942996413245e+00  3.4254367785698734e+00  3.4702581644668715e+00  3.5156660322532147e+00 
 3.5616680559666407e+00  3.6082720100586330e+00  3.6554857707083621e+00  3.7033173171537510e+00 
 3.7517747330399907e+00  3.8008662077857025e+00  3.8506000379669589e+00  3.9009846287194319e+00 
 3.9520284951588804e+00  4.0037402638202195e+00  4.0561286741154339e+00  4.1092025798105523e+00 
 4.1629709505219585e+00  4.2174428732322768e+00  4.2726275538260934e+00  4.3285343186457732e+00 
 4.3851726160676341e+00  4.4425520180987457e+00  4.5006822219946292e+00  4.5595730518980790e+00 
 4.6192344604995261e+00  4.6796765307190213e+00  4.7409094774102911e+00  4.8029436490870658e+00 
 4.8657895296720071e+00  4.9294577402685134e+00  4.9939590409557102e+00  5.0593043326069349e+00 
 5.1255046587320043e+00  5.1925712073435966e+00  5.2605153128480513e+00  5.3293484579609123e+00 
 5.3990822756475323e+00  5.4697285510890774e+00  5.5412992236742387e+00  5.6138063890170287e+00 
 5.6872623010009749e+00  5.7616793738500149e+00  5.8370701842265920e+00  5.9134474733570928e+00 
 5.9908241491851673e+00  6.0692132885531977e+00  6.1486281394123052e+00  6.2290821230613052e+00 
 6.3105888364149205e+00  6.3931620543017020e+00  6.4768157317920041e+00  6.5615640065564262e+00 
 6.6474212012551144e+00  6.7344018259583214e+00  6.8225205805986420e+00  6.9117923574553410e+00 
 7.0022322436711875e+00  7.0938555238022021e+00  7.1866776824008154e+00  7.2807144066327307e+00 
 7.3759815889281715e+00  7.4724953296676890e+00  7.5702719399031828e+00  7.6693279441145012e+00 
 7.7696800830021173e+00  7.8713453163163507e+00  7.9743408257236048e+00  8.0786840177101062e+00 
 8.1843925265236539e+00  8.2914842171538261e+00  8.3999771883512349e+00  8.5098897756862328e+00 
 8.6212405546476827e+00  8.7340483437822556e+00  8.8483322078748063e+00  8.9641114611703721e+00 
 9.0814056706383504e+00  9.2002346592792676e+00  9.3206185094750555e+00  9.4425775663829175e+00 
 9.5661324413737479e+00  9.6913040155154881e+00  9.8181134431020940e+00  9.9465821552286435e+00 
 1.0076731863413254e+01  1.0208584563266379e+01  1.0342162538208113e+01  1.0477488363234155e+01 
 1.0614584908731013e+01  1.0753475344341192e+01  1.0894183142878873e+01  1.1036732084296910e+01 
 1.1181146259705681e+01  1.1327450075444558e+01  1.1475668257206630e+01  1.1625825854217348e+01 
 1.1777948243468021e+01  1.1932061134004496e+01  1.2088190571272079e+01  1.2246362941517267e+01 
 1.2406604976247101e+01  1.2568943756746842e+01  1.2733406718656777e+01  1.2900021656608899e+01 
 1.3068816728924290e+01  1.3239820462371922e+01  1.3413061756989745e+01  1.3588569890968882e+01 
 1.3766374525601703e+01  1.3946505710294659e+01  1.4128993887646683e+01  1.4313869898594094e+01 
 1.4501164987622786e+01  1.4690910808048537e+01  1.4883139427366636e+01  1.5077883332671274e+01 
 1.5275175436145954e+01  1.5475049080625736e+01  1.5677538045232261e+01  1.5882676551082483e+01 
 1.6090499267072147e+01  1.6301041315734892e+01  1.6514338279178052e+01  1.6730426205096112e+01 
 1.6949341612862867e+01  1.7171121499703268e+01  1.7395803346946057e+01  1.7623425126358164e+01 
 1.7854025306562086e+01  1.8087642859537159e+01  1.8324317267205799e+01  1.8564088528106247e+01 
 1.8806997164152271e+01  1.9053084227481506e+01  1.9302391307393375e+01  1.9554960537377749e+01 
 1.9810834602235637e+01  2.0070056745293002e+01  2.0332670775709005e+01  2.0598721075879826e+01 
 2.0868252608939414e+01  2.1141310926358376e+01  2.1417942175642253e+01  2.1698193108130592e+01 
 2.1982111086898009e+01  2.2269744094758650e+01  2.2561140742375464e+01  2.2856350276475471e+01 
 2.3155422588172485e+01  2.3458408221399051e+01  2.3765358381448316e+01  2.4076324943627888e+01 
 2.4391360462026920e+01  2.4710518178397834e+01  2.5033852031154325e+01  2.5361416664487063e+01 
 2.5693267437598724e+01  2.6029460434059807e+01  2.6370052471286876e+01  2.6715101110144875e+01 
 2.7064664664675011e+01  2.7418802211949991e+01  2.7777573602058197e+01  2.8141039468218459e+01 
 2.8509261237027250e+01  2.8882301138839949e+01  2.9260222218287733e+01  2.9643088344932561e+01 
 3.0030964224061108e+01  3.0423915407620118e+01  3.0822008305294879e+01  3.1225310195732597e+01 
 3.1633889237912651e+01  3.2047814482665629e+01  3.2467155884343072e+01  3.2891984312639956e+01 
 3.3322371564571768e+01  3.3758390376608453e+01  3.4200114436967034e+01  3.4647618398065035e+01 
 3.5100977889136999e+01  3.5560269529015947e+01  3.6025570939082186e+01  3.6496960756381526e+01 
 3.6974518646914937e+01  3.7458325319102599e+01  3.7948462537423637e+01  3.8445013136234515e+01 
 3.8948061033768255e+01  3.9457691246316863e+01  3.9973989902599222e+01  4.0497044258317068e+01 
 4.1026942710901480e+01  4.1563774814452110e+01  4.2107631294872178e+01  4.2658604065201331e+01 
 4.3216786241149094e+01  4.3782272156831745e+01  4.4355157380714957e+01  4.4935538731765071e+01 
 4.5523514295811779e+01  4.6119183442124928e+01  4.6722646840207837e+01  4.7334006476811155e+01 
 4.7953365673168570e+01  4.8580829102458409e+01  4.9216502807493626e+01  4.9860494218643353e+01 
 5.0512912171988823e+01  5.1173866927716979e+01  5.1843470188754672e+01  5.2521835119646731e+01 
 5.3209076365681085e+01  5.3905310072263987e+01  5.4610653904548933e+01  5.5325227067322388e+01 
 5.6049150325149633e+01  5.6782546022784203e+01  5.7525538105844589e+01  5.8278252141761314e+01 
 5.9040815340997760e+01  5.9813356578549694e+01  6.0596006415724986e+01  6.1388897122208895e+01 
 6.2192162698417953e+01  6.3005938898146404e+01  6.3830363251508892e+01  6.4665575088183317e+01 
 6.5511715560957967e+01  6.6368927669586654e+01  6.7237356284955951e+01  6.8117148173568808e+01 
 6.9008452022348436e+01  6.9911418463766609e+01  7.0826200101301097e+01  7.1752951535225904e+01 
 7.2691829388739166e+01  7.3642992334432805e+01  7.4606601121108298e+01  7.5582818600944179e+01 
 7.6571809757018045e+01  7.7573741731189159e+01  7.8588783852345841e+01  7.9617107665022502e+01 
 8.0658886958390951e+01  8.1714297795631339e+01  8.2783518543687123e+01  8.3866729903409549e+01 
 8.4964114940096579e+01  8.6075859114431324e+01  8.7202150313825257e+01  8.8343178884171806e+01 
 8.9499137662015087e+01  9.0670222007139841e+01  9.1856629835587711e+01  9.3058561653105599e+01 
 9.4276220589031112e+01  9.5509812430622674e+01  9.6759545657837634e+01  9.8025631478565813e+01 
 9.9308283864324395e+01  1.0060771958641932e+02  1.0192415825258051e+02  1.0325782234407571e+02 
 1.0460893725331064e+02  1.0597773132192081e+02  1.0736443587936164e+02  1.0876928528200379e+02 
 1.1019251695274006e+02  1.1163437142111017e+02  1.1309509236395105e+02  1.1457492664657872e+02 
 1.1607412436450905e+02  1.1759293888572483e+02 
  </PP_R>
  <PP_RAB>
 3.4608655599195107e-07  3.5061505267211889e-07  3.5520280413068602e-07  3.5985058570856835e-07 
 3.6455918289191455e-07  3.6932939144485588e-07  3.7416201754399084e-07  3.7905787791463251e-07 
 3.8401779996883616e-07  3.8904262194523416e-07  3.9413319305069988e-07  3.9929037360386631e-07 
 4.0451503518052142e-07  4.0980806076090705e-07  4.1517034487894450e-07  4.2060279377341172e-07 
 4.2610632554110191e-07  4.3168187029198281e-07  4.3733037030638768e-07  4.4305278019426294e-07 
 4.4885006705649946e-07  4.5472321064837517e-07  4.6067320354513572e-07  4.6670105130974255e-07 
 4.7280777266281400e-07  4.7899439965479363e-07  4.8526197784036793e-07  4.9161156645516767e-07 
 4.9804423859478156e-07  5.0456108139611153e-07  5.1116319622110152e-07  5.1785169884287059e-07 
 5.2462771963428166e-07  5.3149240375897549e-07  5.3844691136490764e-07  5.4549241778041638e-07 
 5.5263011371285465e-07  5.5986120544982374e-07  5.6718691506303727e-07  5.7460848061485648e-07 
 5.8212715636752330e-07  5.8974421299513572e-07  5.9746093779839204e-07  6.0527863492215116e-07 
 6.1319862557583375e-07  6.2122224825671081e-07  6.2935085897611229e-07  6.3758583148859655e-07 
 6.4592855752411833e-07  6.5438044702323469e-07  6.6294292837538638e-07  6.7161744866030171e-07 
 6.8040547389255528e-07  6.8930848926932735e-07  6.9832799942140670e-07  7.0746552866747678e-07 
 7.1672262127172781e-07  7.2610084170484301e-07  7.3560177490839654e-07  7.4522702656271381e-07 
 7.5497822335823179e-07  7.6485701327041866e-07  7.7486506583828172e-07  7.8500407244652533e-07 
 7.9527574661139795e-07  8.0568182427028112e-07  8.1622406407506677e-07  8.2690424768937420e-07 
 8.3772418008965228e-07  8.4868568987023021e-07  8.5979062955235008e-07  8.7104087589724977e-07 
 8.8243833022333690e-07  8.9398491872752069e-07  9.0568259281074005e-07  9.1753332940775657e-07 
 9.2953913132126088e-07  9.4170202756035154e-07  9.5402407368344301e-07  9.6650735214565554e-07 
 9.7915397265076185e-07  9.9196607250772695e-07  1.0049458169919212e-06  1.0180953997110558e-06 
 1.0314170429759069e-06  1.0449129981758939e-06  1.0585855461595658e-06  1.0724369976200749e-06 
 1.0864696934856851e-06  1.1006860053153976e-06  1.1150883356997480e-06  1.1296791186668494e-06 
 1.1444608200937509e-06  1.1594359381231762e-06  1.1746070035857136e-06  1.1899765804275354e-06 
 1.2055472661437100e-06  1.2213216922171807e-06  1.2373025245635001e-06  1.2534924639813705e-06 
 1.2698942466090868e-06  1.2865106443869513e-06  1.3033444655257372e-06  1.3203985549812838e-06 
 1.3376757949352976e-06  1.3551791052824534e-06  1.3729114441238587e-06  1.3908758082669835e-06 
 1.4090752337321241e-06  1.4275127962655005e-06  1.4461916118590650e-06  1.4651148372771090e-06 
 1.4842856705897685e-06  1.5037073517135009e-06  1.5233831629586431e-06  1.5433164295841231e-06 
 1.5635105203594456e-06  1.5839688481340149e-06  1.6046948704139178e-06  1.6256920899462505e-06 
 1.6469640553110877e-06  1.6685143615212081e-06  1.6903466506296497e-06  1.7124646123452359e-06 
 1.7348719846561404e-06  1.7575725544616146e-06  1.7805701582119854e-06  1.8038686825570240e-06 
 1.8274720650027955e-06  1.8513842945771134e-06  1.8756094125036887e-06  1.9001515128851089e-06 
 1.9250147433947534e-06  1.9502033059777500e-06  1.9757214575611299e-06  2.0015735107732457e-06 
 2.0277638346726214e-06  2.0542968554863304e-06  2.0811770573580419e-06  2.1084089831058513e-06 
 2.1359972349900213e-06  2.1639464754907852e-06  2.1922614280963081e-06  2.2209468781009737e-06 
 2.2500076734141066e-06  2.2794487253792829e-06  2.3092750096043571e-06  2.3394915668023514e-06 
 2.3701035036433525e-06  2.4011159936175443e-06  2.4325342779095479e-06  2.4643636662841836e-06 
 2.4966095379838446e-06  2.5292773426375980e-06  2.5623726011821810e-06  2.5959009067950608e-06 
 2.6298679258396828e-06  2.6642793988231111e-06  2.6991411413661835e-06  2.7344590451863636e-06 
 2.7702390790934571e-06  2.8064872899983546e-06  2.8432098039349734e-06  2.8804128270955712e-06 
 2.9181026468796087e-06  2.9562856329563357e-06  2.9949682383412788e-06  3.0341570004868156e-06 
 3.0738585423870217e-06  3.1140795736969746e-06  3.1548268918666901e-06  3.1961073832899250e-06 
 3.2379280244679793e-06  3.2802958831887547e-06  3.3232181197212070e-06  3.3667019880254731e-06 
 3.4107548369787924e-06  3.4553841116174862e-06  3.5005973543951937e-06  3.5464022064575522e-06 
 3.5928064089335850e-06  3.6398178042439523e-06  3.6874443374263556e-06  3.7356940574782581e-06 
 3.7845751187171882e-06  3.8340957821588360e-06  3.8842644169131878e-06  3.9350895015989266e-06 
 3.9865796257763262e-06  4.0387434913989266e-06  4.0915899142841732e-06  4.1451278256033187e-06 
 4.1993662733907904e-06  4.2543144240733648e-06  4.3099815640192876e-06  4.3663771011077020e-06 
 4.4235105663186043e-06  4.4813916153435970e-06  4.5400300302177286e-06  4.5994357209726771e-06 
 4.6596187273115752e-06  4.7205892203057285e-06  4.7823575041135737e-06  4.8449340177220871e-06 
 4.9083293367110077e-06  4.9725541750401332e-06  5.0376193868599973e-06  5.1035359683462641e-06 
 5.1703150595580888e-06  5.2379679463208316e-06  5.3065060621333722e-06  5.3759409901004093e-06 
 5.4462844648900345e-06  5.5175483747169088e-06  5.5897447633514127e-06  5.6628858321550526e-06 
 5.7369839421425436e-06  5.8120516160708328e-06  5.8881015405554864e-06  5.9651465682147426e-06 
 6.0431997198416521e-06  6.1222741866046172e-06  6.2023833322767183e-06  6.2835406954942547e-06 
 6.3657599920447587e-06  6.4490551171850432e-06  6.5334401479895090e-06  6.6189293457292050e-06 
 6.7055371582820187e-06  6.7932782225744093e-06  6.8821673670550765e-06  6.9722196142009977e-06 
 7.0634501830562799e-06  7.1558744918041920e-06  7.2495081603728899e-06  7.3443670130752242e-06 
 7.4404670812830704e-06  7.5378246061366855e-06  7.6364560412894902e-06  7.7363780556887749e-06 
 7.8376075363927992e-06  7.9401615914247437e-06  8.0440575526639857e-06  8.1493129787752659e-06 
 8.2559456581761094e-06  8.3639736120431405e-06  8.4734150973576657e-06  8.5842886099911960e-06 
 8.6966128878312499e-06  8.8104069139481275e-06  8.9256899198030875e-06  9.0424813884984951e-06 
 9.1608010580705424e-06  9.2806689248249934e-06  9.4021052467166347e-06  9.5251305467728847e-06 
 9.6497656165622733e-06  9.7760315197082362e-06  9.9039495954489331e-06  1.0033541462243622e-05 
 1.0164829021426224e-05  1.0297834460906723e-05  1.0432580258920959e-05  1.0569089187829509e-05 
 1.0707384317966248e-05  1.0847489021537333e-05  1.0989426976571135e-05  1.1133222170919877e-05 
 1.1278898906313654e-05  1.1426481802467465e-05  1.1575995801242025e-05  1.1727466170858979e-05 
 1.1880918510171323e-05  1.2036378752989617e-05  1.2193873172464908e-05  1.2353428385528946e-05 
 1.2515071357392495e-05  1.2678829406102522e-05  1.2844730207159020e-05  1.3012801798192231e-05 
 1.3183072583701061e-05  1.3355571339853532e-05  1.3530327219349982e-05  1.3707369756349990e-05 
 1.3886728871463692e-05  1.4068434876808424e-05  1.4252518481131577e-05  1.4439010795000412e-05 
 1.4627943336059843e-05  1.4819348034358990e-05  1.5013257237747428e-05  1.5209703717342048e-05 
 1.5408720673065463e-05  1.5610341739256869e-05  1.5814600990356342e-05  1.6021532946663463e-05 
 1.6231172580171366e-05  1.6443555320477080e-05  1.6658717060769207e-05  1.6876694163893964e-05 
 1.7097523468500577e-05  1.7321242295267135e-05  1.7547888453207817e-05  1.7777500246062770e-05 
 1.8010116478771478e-05  1.8245776464030915e-05  1.8484520028939487e-05  1.8726387521727896e-05 
 1.8971419818578086e-05  1.9219658330531433e-05  1.9471145010487308e-05  1.9725922360293139e-05 
 1.9984033437927469e-05  2.0245521864776738e-05  2.0510431833007455e-05  2.0778808113034758e-05 
 2.1050696061088745e-05  2.1326141626879748e-05  2.1605191361363971e-05  2.1887892424610731e-05 
 2.2174292593772532e-05  2.2464440271159642e-05  2.2758384492420122e-05  2.3056174934826974e-05 
 2.3357861925673741e-05  2.3663496450779907e-05  2.3973130163107678e-05  2.4286815391491381e-05 
 2.4604605149481236e-05  2.4926553144302679e-05  2.5252713785933105e-05  2.5583142196297257e-05 
 2.5917894218582945e-05  2.6257026426678665e-05  2.6600596134734756e-05  2.6948661406849608e-05 
 2.7301281066882643e-05  2.7658514708395691e-05  2.8020422704724382e-05  2.8387066219181483e-05 
 2.8758507215393582e-05  2.9134808467773118e-05  2.9516033572127381e-05  2.9902246956406330e-05 
 3.0293513891591159e-05  3.0689900502725166e-05  3.1091473780089099e-05  3.1498301590522537e-05 
 3.1910452688893781e-05  3.2327996729719428e-05  3.2751004278936145e-05  3.3179546825826565e-05 
 3.3613696795101075e-05  3.4053527559137808e-05  3.4499113450382738e-05  3.4950529773912018e-05 
 3.5407852820158725e-05  3.5871159877806140e-05  3.6340529246849736e-05  3.6816040251830035e-05 
 3.7297773255238606e-05  3.7785809671099648e-05  3.8280231978728977e-05  3.8781123736673367e-05 
 3.9288569596832117e-05  3.9802655318763294e-05  4.0323467784177503e-05  4.0851095011621006e-05 
 4.1385626171351021e-05  4.1927151600405786e-05  4.2475762817871717e-05  4.3031552540350274e-05 
 4.3594614697627410e-05  4.4165044448547885e-05  4.4742938197097207e-05  4.5328393608694354e-05 
 4.5921509626697338e-05  4.6522386489124870e-05  4.7131125745596830e-05  4.7747830274496455e-05 
 4.8372604300356924e-05  4.9005553411475618e-05  4.9646784577758852e-05  5.0296406168799848e-05 
 5.0954527972193675e-05  5.1621261212091514e-05  5.2296718567997776e-05  5.2981014193813300e-05 
 5.3674263737127503e-05  5.4376584358763231e-05  5.5088094752577121e-05  5.5808915165519225e-05 
 5.6539167417954881e-05  5.7278974924252855e-05  5.8028462713642535e-05  5.8787757451344171e-05 
 5.9556987459975642e-05  6.0336282741239235e-05  6.1125774997892272e-05  6.1925597656005239e-05 
 6.2735885887511028e-05  6.3556776633049225e-05  6.4388408625109682e-05  6.5230922411478427e-05 
 6.6084460378990626e-05  6.6949166777594270e-05  6.7825187744728816e-05  6.8712671330022743e-05 
 6.9611767520314253e-05  7.0522628264999500e-05  7.1445407501712120e-05  7.2380261182339531e-05 
 7.3327347299378774e-05  7.4286825912637814e-05  7.5258859176285920e-05  7.6243611366258137e-05 
 7.7241248908018465e-05  7.8251940404685879e-05  7.9275856665528963e-05  8.0313170734832646e-05 
 8.1364057921143605e-05  8.2428695826897584e-05  8.3507264378434603e-05  8.4599945856406945e-05 
 8.5706924926585065e-05  8.6828388671066526e-05  8.7964526619893377e-05  8.9115530783083165e-05 
 9.0281595683078776e-05  9.1462918387623775e-05  9.2659698543066851e-05  9.3872138408102808e-05 
 9.5100442887954454e-05  9.6344819569002451e-05  9.7605478753867576e-05  9.8882633496952588e-05 
 1.0017649964044894e-04  1.0148729585081416e-04  1.0281524365572775e-04  1.0416056748152940e-04 
 1.0552349469114765e-04  1.0690425562252483e-04  1.0830308362754469e-04  1.0972021511146941e-04 
 1.1115588957289273e-04  1.1261034964421570e-04  1.1408384113265200e-04  1.1557661306177026e-04 
 1.1708891771357951e-04  1.1862101067116526e-04  1.2017315086188396e-04  1.2174560060112205e-04 
 1.2333862563662803e-04  1.2495249519342444e-04  1.2658748201930771e-04  1.2824386243094258e-04 
 1.2992191636056105e-04  1.3162192740327118e-04  1.3334418286498539e-04  1.3508897381097585e-04 
 1.3685659511506522e-04  1.3864734550946093e-04  1.4046152763524182e-04  1.4229944809350525e-04 
 1.4416141749718281e-04  1.4604775052353552e-04  1.4795876596733444e-04  1.4989478679473806e-04 
 1.5185614019787405e-04  1.5384315765013578e-04  1.5585617496220204e-04  1.5789553233878963e-04 
 1.5996157443614928e-04  1.6205465042031254e-04  1.6417511402610252e-04  1.6632332361691564e-04 
 1.6849964224528548e-04  1.7070443771424038e-04  1.7293808263946201e-04  1.7520095451225908e-04 
 1.7749343576336393e-04  1.7981591382756448e-04  1.8216878120918103e-04  1.8455243554840126e-04 
 1.8696727968848178e-04  1.8941372174382989e-04  1.9189217516897569e-04  1.9440305882844697e-04 
 1.9694679706755837e-04  1.9952381978412660e-04  2.0213456250112451e-04  2.0477946644028479e-04 
 2.0745897859666832e-04  2.1017355181420722e-04  2.1292364486223607e-04  2.1570972251302555e-04 
 2.1853225562032966e-04  2.2139172119896162e-04  2.2428860250540983e-04  2.2722338911951024e-04 
 2.3019657702718534e-04  2.3320866870426811e-04  2.3626017320142111e-04  2.3935160623016720e-04 
 2.4248349025004620e-04  2.4565635455691163e-04  2.4887073537238310e-04  2.5212717593446876e-04 
 2.5542622658937476e-04  2.5876844488451328e-04  2.6215439566273121e-04  2.6558465115776901e-04 
 2.6905979109096952e-04  2.7258040276925276e-04  2.7614708118437180e-04  2.7976042911346773e-04 
 2.8342105722094067e-04  2.8712958416165385e-04  2.9088663668548620e-04  2.9469284974325676e-04 
 2.9854886659403139e-04  3.0245533891383567e-04  3.0641292690578931e-04  3.1042229941168238e-04 
 3.1448413402501116e-04  3.1859911720549295e-04  3.2276794439507929e-04  3.2699132013548713e-04 
 3.3126995818726882e-04  3.3560458165043873e-04  3.3999592308667903e-04  3.4444472464314406e-04 
 3.4895173817788553e-04  3.5351772538691798e-04  3.5814345793294715e-04  3.6282971757578347e-04 
 3.6757729630445955e-04  3.7238699647108072e-04  3.7725963092642240e-04  3.8219602315730508e-04 
 3.8719700742576501e-04  3.9226342891004616e-04  3.9739614384743803e-04  4.0259601967898139e-04 
 4.0786393519606822e-04  4.1320078068895854e-04  4.1860745809724312e-04  4.2408488116227241e-04 
 4.2963397558158108e-04  4.3525567916533357e-04  4.4095094199481555e-04  4.4672072658300059e-04 
 4.5256600803721662e-04  4.5848777422394233e-04  4.6448702593575661e-04  4.7056477706047828e-04 
 4.7672205475251264e-04  4.8295989960644493e-04  4.8927936583290207e-04  4.9568152143671703e-04 
 5.0216744839742475e-04  5.0873824285211885e-04  5.1539501528070160e-04  5.2213889069355635e-04 
 5.2897100882167954e-04  5.3589252430929547e-04  5.4290460690899569e-04  5.5000844167942941e-04 
 5.5720522918557987e-04  5.6449618570166525e-04  5.7188254341668959e-04  5.7936555064268778e-04 
 5.8694647202569010e-04  5.9462658875945418e-04  6.0240719880198736e-04  6.1028961709490542e-04 
 6.1827517578566104e-04  6.2636522445267881e-04  6.3456113033343931e-04  6.4286427855554293e-04 
 6.5127607237080195e-04  6.5979793339239143e-04  6.6843130183510697e-04  6.7717763675876393e-04 
 6.8603841631478129e-04  6.9501513799599365e-04  7.0410931888973067e-04  7.1332249593420826e-04 
 7.2265622617827523e-04  7.3211208704455888e-04  7.4169167659604985e-04  7.5139661380618360e-04 
 7.6122853883244716e-04  7.7118911329357095e-04  7.8128002055034623e-04  7.9150296599011627e-04 
 8.0185967731499243e-04  8.1235190483383828e-04  8.2298142175807820e-04  8.3375002450136965e-04 
 8.4465953298320758e-04  8.5571179093649121e-04  8.6690866621911970e-04  8.7825205112966587e-04 
 8.8974386272717791e-04  9.0138604315516716e-04  9.1318055996983556e-04  9.2512940647259800e-04 
 9.3723460204695093e-04  9.4949819249975855e-04  9.6192225040699639e-04  9.7450887546402095e-04 
 9.8726019484042418e-04  1.0001783635395305e-03  1.0132655647625962e-03  1.0265240102777767e-03 
 1.0399559407939206e-03  1.0535636263392550e-03  1.0673493666450231e-03  1.0813154915341495e-03 
 1.0954643613149825e-03  1.1097983671801868e-03  1.1243199316108724e-03  1.1390315087859901e-03 
 1.1539355849970983e-03  1.1690346790685486e-03  1.1843313427831778e-03  1.1998281613135602e-03 
 1.2155277536589116e-03  1.2314327730877052e-03  1.2475459075860797e-03  1.2638698803121163e-03 
 1.2804074500560581e-03  1.2971614117065530e-03  1.3141345967229957e-03  1.3313298736140524e-03 
 1.3487501484224437e-03  1.3663983652160742e-03  1.3842775065855887e-03  1.4023905941484283e-03 
 1.4207406890595045e-03  1.4393308925285315e-03  1.4581643463441431e-03  1.4772442334048588e-03 
 1.4965737782570046e-03  1.5161562476396656e-03  1.5359949510367766e-03  1.5560932412364290e-03 
 1.5764545148975030e-03  1.5970822131237089e-03  1.6179798220451434e-03  1.6391508734074510e-03 
 1.6605989451687027e-03  1.6823276621040742e-03  1.7043406964184435e-03  1.7266417683670036e-03 
 1.7492346468839951e-03  1.7721231502196547e-03  1.7953111465855258e-03  1.8188025548081838e-03 
 1.8426013449915309e-03  1.8667115391877509e-03  1.8911372120770475e-03  1.9158824916562748e-03 
 1.9409515599365776e-03  1.9663486536501623e-03  1.9920780649663144e-03  2.0181441422167834e-03 
 2.0445512906306653e-03  2.0713039730788940e-03  2.0984067108284770e-03  2.1258640843066006e-03 
 2.1536807338747347e-03  2.1818613606128614e-03  2.2104107271139770e-03  2.2393336582889629e-03 
 2.2686350421820298e-03  2.2983198307967969e-03  2.3283930409331915e-03  2.3588597550353047e-03 
 2.3897251220503335e-03  2.4209943582987653e-03  2.4526727483559509e-03  2.4847656459452069e-03 
 2.5172784748426101e-03  2.5502167297936280e-03  2.5835859774417437e-03  2.6173918572692315e-03 
 2.6516400825502438e-03  2.6863364413163668e-03  2.7214867973348131e-03  2.7570970910994106e-03 
 2.7931733408345667e-03  2.8297216435123423e-03  2.8667481758828813e-03  2.9042591955182840e-03 
 2.9422610418701461e-03  2.9807601373409509e-03  3.0197629883694631e-03  3.0592761865303377e-03 
 3.0993064096481102e-03  3.1398604229257621e-03  3.1809450800880591e-03  3.2225673245398494e-03 
 3.2647341905395074e-03  3.3074528043877506e-03  3.3507303856319930e-03  3.3945742482864691e-03 
 3.4389918020683208e-03  3.4839905536498562e-03  3.5295781079271987e-03  3.5757621693055116e-03 
 3.6225505430010968e-03  3.6699511363604709e-03  3.7179719601967277e-03  3.7666211301433917e-03 
 3.8159068680259714e-03  3.8658375032514765e-03  3.9164214742160976e-03  3.9676673297313223e-03 
 4.0195837304687048e-03  4.0721794504235340e-03  4.1254633783976667e-03  4.1794445195017498e-03 
 4.2341319966771119e-03  4.2895350522375551e-03  4.3456630494313345e-03  4.4025254740235661e-03 
 4.4601319358993537e-03  4.5184921706878456e-03  4.5776160414076322e-03  4.6375135401335839e-03 
 4.6981947896855506e-03  4.7596700453391323e-03  4.8219496965588504e-03  4.8850442687539955e-03 
 4.9489644250574364e-03  5.0137209681277274e-03  5.0793248419747725e-03  5.1457871338093939e-03 
 5.2131190759171029e-03  5.2813320475563683e-03  5.3504375768817511e-03  5.4204473428921878e-03 
 5.4913731774047627e-03  5.5632270670543165e-03  5.6360211553192329e-03  5.7097677445736624e-03 
 5.7844792981667243e-03  5.8601684425287964e-03  5.9368479693054262e-03  6.0145308375191397e-03 
 6.0932301757595586e-03  6.1729592844021576e-03  6.2537316378560616e-03  6.3355608868412502e-03 
 6.4184608606955617e-03  6.5024455697118878e-03  6.5875292075059455e-03  6.6737261534150303e-03 
 6.7610509749281549e-03  6.8495184301479960e-03  6.9391434702850523e-03  7.0299412421844154e-03 
 7.1219270908856628e-03  7.2151165622161327e-03  7.3095254054182934e-03  7.4051695758113462e-03 
 7.5020652374877305e-03  7.6002287660448921e-03  7.6996767513527950e-03  7.8004260003576506e-03 
 7.9024935399223378e-03  8.0058966197039689e-03  8.1106527150691388e-03  8.2167795300472930e-03 
 8.3242950003227564e-03  8.4332172962659022e-03  8.5435648260039892e-03  8.6553562385321796e-03 
 8.7686104268652702e-03  8.8833465312306414e-03  8.9995839423030310e-03  9.1173423044815325e-03 
 9.2366415192096478e-03  9.3575017483386105e-03  9.4799434175348030e-03  9.6039872197317428e-03 
 9.7296541186272338e-03  9.8569653522262903e-03  9.9859424364304068e-03  1.0116607168673786e-02 
 1.0248981631607177e-02  1.0383088196829876e-02  1.0518949528670595e-02  1.0656588588017773e-02 
 1.0796028636200041e-02  1.0937293238917420e-02  1.1080406270223990e-02  1.1225391916562667e-02 
 1.1372274680852784e-02  1.1521079386631059e-02  1.1671831182246956e-02  1.1824555545112738e-02 
 1.1979278286009235e-02  1.2136025553447905e-02  1.2294823838090024e-02  1.2455699977223652e-02 
 1.2618681159299198e-02  1.2783794928524354e-02  1.2951069189519094e-02  1.3120532212031660e-02 
 1.3292212635716194e-02  1.3466139474972919e-02  1.3642342123851630e-02  1.3820850361019366e-02 
 1.4001694354793070e-02  1.4184904668238126e-02  1.4370512264333581e-02  1.4558548511204899e-02 
 1.4749045187425362e-02  1.4942034487386648e-02  1.5137549026739796e-02  1.5335621847907295e-02 
 1.5536286425667352e-02  1.5739576672811208e-02  1.5945526945874488e-02  1.6154172050943518e-02 
 1.6365547249537652e-02  1.6579688264568539e-02  1.6796631286377400e-02  1.7016412978851272e-02 
 1.7239070485619269e-02  1.7464641436329992e-02  1.7693163953011001e-02  1.7924676656511502e-02 
 1.8159218673029456e-02  1.8396829640723814e-02  1.8637549716413685e-02  1.8881419582364806e-02 
 1.9128480453164950e-02  1.9378774082689315e-02  1.9632342771157010e-02  1.9889229372279906e-02 
 2.0149477300505009e-02  2.0413130538351601e-02  2.0680233643844397e-02  2.0950831758043964e-02 
 2.1224970612675642e-02  2.1502696537858346e-02  2.1784056469934449e-02  2.2069097959402137e-02 
 2.2357869178951540e-02  2.2650418931606089e-02  2.2946796658970304e-02  2.3247052449585439e-02 
 2.3551237047394789e-02  2.3859401860319370e-02  2.4171598968946030e-02  2.4487881135329185e-02 
 2.4808301811907740e-02  2.5132915150538664e-02  2.5461776011648795e-02  2.5794939973506393e-02 
 2.6132463341613957e-02  2.6474403158224045e-02  2.6820817211979514e-02  2.7171764047679958e-02 
 2.7527302976175873e-02  2.7887494084392412e-02  2.8252398245484141e-02  2.8622077129122812e-02 
 2.8996593211919656e-02  2.9376009787983971e-02  2.9760390979620192e-02  3.0149801748164586e-02 
 3.0544307904963854e-02  3.0943976122497469e-02  3.1348873945645443e-02  3.1759069803103591e-02 
 3.2174633018948108e-02  3.2595633824351586e-02  3.3022143369452132e-02  3.3454233735378015e-02 
 3.3891977946429487e-02  3.4335449982420087e-02  3.4784724791179410e-02  3.5239878301219461e-02 
 3.5700987434566726e-02  3.6168130119762235e-02  3.6641385305031714e-02  3.7120832971627708e-02 
 3.7606554147347079e-02  3.8098630920224606e-02  3.8597146452406056e-02  3.9102184994202920e-02 
 3.9613831898330773e-02  4.0132173634334210e-02  4.0657297803200300e-02  4.1189293152163430e-02 
 4.1728249589703774e-02  4.2274258200742057e-02  4.2827411262033085e-02  4.3387802257760788e-02 
 4.3955525895337216e-02  4.4530678121408353e-02  4.5113356138069327e-02  4.5703658419291790e-02 
 4.6301684727566329e-02  4.6907536130762227e-02  4.7521315019208706e-02  4.8143125122998759e-02 
 4.8773071529519874e-02  4.9411260701214127e-02  5.0057800493570462e-02  5.0712800173352612e-02 
 5.1376370437065444e-02  5.2048623429662849e-02  5.2729672763500636e-02  5.3419633537537176e-02 
 5.4118622356785460e-02  5.4826757352019598e-02  5.5544158199739214e-02  5.6270946142395049e-02 
 5.7007244008879243e-02  5.7753176235283692e-02  5.8508868885930175e-02  5.9274449674675024e-02 
 6.0050047986493840e-02  6.0835794899347276e-02  6.1631823206333779e-02  6.2438267438131856e-02 
 6.3255263885736088e-02  6.4082950623490675e-02  6.4921467532424226e-02  6.5770956323890156e-02 
 6.6631560563516060e-02  6.7503425695466746e-02  6.8386699067024659e-02  6.9281529953491863e-02 
 7.0188069583417917e-02  7.1106471164157997e-02  7.2036889907765106e-02  7.2979483057221364e-02 
 7.3934409913012672e-02  7.4901831860050186e-02  7.5881912394945697e-02  7.6874817153642208e-02 
 7.7880713939407167e-02  7.8899772751191560e-02  7.9932165812359970e-02  8.0978067599796963e-02 
 8.2037654873393970e-02  8.3111106705922116e-02  8.4198604513296055e-02  8.5300332085233535e-02 
 8.6416475616316477e-02  8.7547223737458171e-02  8.8692767547782339e-02  8.9853300646919432e-02 
 9.1029019167725433e-02  9.2220121809428623e-02  9.3426809871210589e-02  9.4649287286225500e-02 
 9.5887760656066218e-02  9.7142439285679949e-02  9.8413535218741369e-02  9.9701263273488508e-02 
 1.0100584107902752e-01  1.0232748911211255e-01  1.0366643073440686e-01  1.0502289223023138e-01 
 1.0639710284480750e-01  1.0778929482299973e-01  1.0919970344856605e-01  1.1062856708392102e-01 
 1.1207612721041987e-01  1.1354262846916932e-01  1.1502831870237248e-01  1.1653344899521483e-01 
 1.1805827371829855e-01  1.1960305057063048e-01  1.2116804062317571e-01  1.2275350836297792e-01 
 1.2435972173785871e-01  1.2598695220170134e-01  1.2763547476032722e-01  1.2930556801797236e-01 
 1.3099751422437231e-01  1.3271159932246293e-01  1.3444811299670545e-01  1.3620734872204401e-01 
 1.3798960381350317e-01  1.3979517947643549e-01  1.4162438085742535e-01  1.4347751709585982e-01 
 1.4535490137617385e-01  1.4725685098077926e-01  1.4918368734368617e-01  1.5113573610482553e-01 
 1.5311332716508427e-01  1.5511679474205844e-01  1.5714647742653703e-01  1.5920271823972446e-01 
 1.6128586469121231e-01  1.6339626883770894e-01  1.6553428734253808e-01  1.6770028153591568e-01 
 1.6989461747601575e-01  1.7211766601083497e-01  1.7436980284086667e-01  1.7665140858259545e-01 
 1.7896286883282214e-01  1.8130457423383056e-01  1.8367692053940687e-01  1.8608030868172321e-01 
 1.8851514483909620e-01  1.9098184050463096e-01  1.9348081255576627e-01  1.9601248332472654e-01 
 1.9857728066989738e-01  2.0117563804813454e-01  2.0380799458801938e-01  2.0647479516407227e-01 
 2.0917649047193790e-01  2.1191353710455360e-01  2.1468639762931466e-01  2.1749554066624946e-01 
 2.2034144096721725e-01  2.2322457949614247e-01  2.2614544351029872e-01  2.2910452664265613e-01 
 2.3210232898530711e-01  2.3513935717398304e-01  2.3821612447367538e-01  2.4133315086538121e-01 
 2.4449096313397953e-01  2.4769009495725958e-01  2.5093108699611388e-01  2.5421448698591070e-01 
 2.5754084982906328e-01  2.6091073768880901e-01  2.6432472008421704e-01  2.6778337398643776e-01 
 2.7128728391621237e-01  2.7483704204265885e-01  2.7843324828334926e-01  2.8207651040569770e-01 
 2.8576744412967409e-01  2.8950667323186241e-01  2.9329482965088099e-01  2.9713255359418111e-01 
 3.0102049364624228e-01  3.0495930687818762e-01  3.0894965895882809e-01  3.1299222426716256e-01 
 3.1708768600634996e-01  3.2123673631917182e-01  3.2544007640500622e-01  3.2969841663833183e-01 
 3.3401247668878342e-01  3.3838298564277747e-01  3.4281068212672938e-01  3.4729631443188336e-01 
 3.5184064064077514e-01  3.5644442875534987e-01  3.6110845682675657e-01  3.6583351308683992e-01 
 3.7062039608135422e-01  3.7546991480491931e-01  3.8038288883774052e-01  3.8536014848412325e-01 
 3.9040253491279436e-01  3.9551090029906150e-01  4.0068610796883342e-01  4.0592903254452373e-01 
 4.1124056009286447e-01  4.1662158827465318e-01  4.2207302649645989e-01  4.2759579606431941e-01 
 4.3319083033943295e-01  4.3885907489590986e-01  4.4460148768057145e-01  4.5041903917484544e-01 
 4.5631271255878098e-01  4.6228350387720729e-01  4.6833242220806842e-01  4.7446048983295980e-01 
 4.8066874240989416e-01  4.8695822914833375e-01  4.9333001298650725e-01  4.9978517077104867e-01 
 5.0632479343898729e-01  5.1294998620211918e-01  5.1966186873378983e-01  5.2646157535812188e-01 
 5.3335025524171920e-01  5.4032907258787743e-01  5.4739920683333831e-01  5.5456185284761728e-01 
 5.6181822113493818e-01  5.6916953803881265e-01  5.7661704594929442e-01  5.8416200351294589e-01 
 5.9180568584555315e-01  5.9954938474762409e-01  6.0739440892270180e-01  6.1534208419854497e-01 
 6.2339375375119133e-01  6.3155077833195927e-01  6.3981453649741715e-01  6.4818642484236355e-01 
 6.5666785823585472e-01  6.6526027006032074e-01  6.7396511245381074e-01  6.8278385655540752e-01 
 6.9171799275385404e-01  7.0076903093943177e-01  7.0993850075913612e-01  7.1922795187519095e-01 
 7.2863895422694513e-01  7.3817309829619460e-01  7.4783199537597966e-01  7.5761727784289701e-01 
 7.6753059943297086e-01  7.7757363552114600e-01  7.8774808340442481e-01  7.9805566258871563e-01 
 8.0849811507943337e-01  8.1907720567590325e-01  8.2979472226961559e-01  8.4065247614638305e-01 
 8.5165230229245348e-01  8.6279605970462647e-01  8.7408563170442732e-01  8.8552292625639450e-01 
 8.9710987629052963e-01  9.0884844002896592e-01  9.2074060131691426e-01  9.3278836995793668e-01 
 9.4499378205360907e-01  9.5735890034762638e-01  9.6988581457440781e-01  9.8257664181227433e-01 
 9.9543352684123454e-01  1.0084586425054589e+00  1.0216541900804958e+00  1.0350223996452925e+00 
 1.0485655304590824e+00  1.0622858713432073e+00  1.0761857410679325e+00  1.0902674887443240e+00 
 1.1045334942212555e+00  1.1189861684876072e+00  1.1336279540797283e+00  1.1484613254942335e+00 
 1.1634887896061961e+00  1.1787128860928180e+00  1.1941361878626402e+00  1.2097613014903728e+00 
 1.2255908676574043e+00  1.2416275615980947e+00  1.2578740935518893e+00  1.2743332092213555e+00 
 1.2910076902362171e+00  1.3079003546234511e+00  1.3250140572835465e+00  1.3423516904729842e+00 
 1.3599161842930383e+00  1.3777105071849705e+00  1.3957376664317012e+00  1.4140007086660493e+00 
 1.4325027203856209e+00  1.4512468284744322e+00  1.4702362007313636e+00  1.4894740464055232e+00 
 1.5089636167386176e+00  1.5287082055144228e+00 
  </PP_RAB>
</PP_MESH>


<PP_LOCAL>
1.7749586366549810e+00 1.7749586392093759e+00 1.7749586418310703e+00 1.7749586445217691e+00 
1.7749586472833909e+00 1.7749586501177561e+00 1.7749586530268127e+00 1.7749586560124568e+00 
1.7749586590767654e+00 1.7749586622216884e+00 1.7749586654495562e+00 1.7749586687624823e+00 
1.7749586721626529e+00 1.7749586756523832e+00 1.7749586792340151e+00 1.7749586829099391e+00 
1.7749586866827636e+00 1.7749586905549695e+00 1.7749586945291245e+00 1.7749586986079458e+00 
1.7749587027943035e+00 1.7749587070908963e+00 1.7749587115006182e+00 1.7749587160264788e+00 
1.7749587206716437e+00 1.7749587254391461e+00 1.7749587303322323e+00 1.7749587353541574e+00 
1.7749587405083307e+00 1.7749587457984499e+00 1.7749587512277190e+00 1.7749587568001246e+00 
1.7749587625192524e+00 1.7749587683890045e+00 1.7749587744133932e+00 1.7749587805965794e+00 
1.7749587869424981e+00 1.7749587934556605e+00 1.7749588001402528e+00 1.7749588070010625e+00 
1.7749588140425607e+00 1.7749588212695213e+00 1.7749588286869280e+00 1.7749588362995692e+00 
1.7749588441128579e+00 1.7749588521319024e+00 1.7749588603621316e+00 1.7749588688092828e+00 
1.7749588774788756e+00 1.7749588863767234e+00 1.7749588955091158e+00 1.7749589048819341e+00 
1.7749589145017202e+00 1.7749589243749364e+00 1.7749589345080943e+00 1.7749589449081884e+00 
1.7749589555824152e+00 1.7749589665376579e+00 1.7749589777815469e+00 1.7749589893215334e+00 
1.7749590011654832e+00 1.7749590133215469e+00 1.7749590257977215e+00 1.7749590386025191e+00 
1.7749590517446507e+00 1.7749590652329217e+00 1.7749590790765419e+00 1.7749590932848502e+00 
1.7749591078672784e+00 1.7749591228339519e+00 1.7749591381948528e+00 1.7749591539602587e+00 
1.7749591701411107e+00 1.7749591867481223e+00 1.7749592037925559e+00 1.7749592212859353e+00 
1.7749592392401450e+00 1.7749592576673427e+00 1.7749592765799465e+00 1.7749592959905973e+00 
1.7749593159126547e+00 1.7749593363595191e+00 1.7749593573449525e+00 1.7749593788831475e+00 
1.7749594009886733e+00 1.7749594236764703e+00 1.7749594469619150e+00 1.7749594708608347e+00 
1.7749594953891588e+00 1.7749595205637341e+00 1.7749595464013550e+00 1.7749595729195784e+00 
1.7749596001363961e+00 1.7749596280701609e+00 1.7749596567397008e+00 1.7749596861644379e+00 
1.7749597163642818e+00 1.7749597473596994e+00 1.7749597791716398e+00 1.7749598118214678e+00 
1.7749598453314439e+00 1.7749598797241437e+00 1.7749599150228226e+00 1.7749599512513490e+00 
1.7749599884342773e+00 1.7749600265966337e+00 1.7749600657643194e+00 1.7749601059638827e+00 
1.7749601472222647e+00 1.7749601895676721e+00 1.7749602330286178e+00 1.7749602776344691e+00 
1.7749603234152840e+00 1.7749603704023231e+00 1.7749604186272450e+00 1.7749604681224160e+00 
1.7749605189216788e+00 1.7749605710592429e+00 1.7749606245704059e+00 1.7749606794913493e+00 
1.7749607358592190e+00 1.7749607937122378e+00 1.7749608530895931e+00 1.7749609140312974e+00 
1.7749609765787628e+00 1.7749610407742109e+00 1.7749611066612097e+00 1.7749611742843225e+00 
1.7749612436893765e+00 1.7749613149233703e+00 1.7749613880345443e+00 1.7749614630725723e+00 
1.7749615400879990e+00 1.7749616191333275e+00 1.7749617002621101e+00 1.7749617835292160e+00 
1.7749618689913453e+00 1.7749619567063264e+00 1.7749620467338854e+00 1.7749621391350903e+00 
1.7749622339726199e+00 1.7749623313111214e+00 1.7749624312167211e+00 1.7749625337574002e+00 
1.7749626390031492e+00 1.7749627470255047e+00 1.7749628578983569e+00 1.7749629716972986e+00 
1.7749630885001266e+00 1.7749632083868361e+00 1.7749633314395385e+00 1.7749634577425140e+00 
1.7749635873828531e+00 1.7749637204496052e+00 1.7749638570345516e+00 1.7749639972321942e+00 
1.7749641411396639e+00 1.7749642888567760e+00 1.7749644404866121e+00 1.7749645961352247e+00 
1.7749647559116819e+00 1.7749649199285260e+00 1.7749650883019987e+00 1.7749652611518354e+00 
1.7749654386017191e+00 1.7749656207792899e+00 1.7749658078168327e+00 1.7749659998508964e+00 
1.7749661970232087e+00 1.7749663994806786e+00 1.7749666073755901e+00 1.7749668208664036e+00 
1.7749670401181872e+00 1.7749672653028614e+00 1.7749674965999978e+00 1.7749677341976580e+00 
1.7749679782927872e+00 1.7749682290928093e+00 1.7749684868155495e+00 1.7749687516917418e+00 
1.7749690239658367e+00 1.7749693038972052e+00 1.7749695917621724e+00 1.7749698878575677e+00 
1.7749701925010730e+00 1.7749705060344938e+00 1.7749708288294519e+00 1.7749711612885493e+00 
1.7749715038502476e+00 1.7749718569964168e+00 1.7749722212570962e+00 1.7749725972164130e+00 
1.7749729855224681e+00 1.7749733868987305e+00 1.7749738021537378e+00 1.7749742321933732e+00 
1.7749746780397970e+00 1.7749751408510777e+00 1.7749756219351007e+00 1.7749761227843148e+00 
1.7749766451050142e+00 1.7749771908422445e+00 1.7749777622326728e+00 1.7749783618507455e+00 
1.7749789926590733e+00 1.7749796580780381e+00 1.7749803620640432e+00 1.7749811092050183e+00 
1.7749819048165296e+00 1.7749827550683925e+00 1.7749836671467691e+00 1.7749846493997123e+00 
1.7749857115455985e+00 1.7749868649231040e+00 1.7749881227339710e+00 1.7749895003680467e+00 
1.7749910157898920e+00 1.7749926899612747e+00 1.7749945473088444e+00 1.7749966163272852e+00 
1.7749989302768832e+00 1.7750015279279565e+00 1.7750044544233057e+00 1.7750077623533966e+00 
1.7750115130195097e+00 1.7750157776617406e+00 1.7750206390927967e+00 1.7750261935527383e+00 
1.7750325526314199e+00 1.7750398456514647e+00 1.7750482222915567e+00 1.7750578556437049e+00 
1.7750689453744903e+00 1.7750817215667682e+00 1.7750964488654177e+00 1.7751134309453109e+00 
1.7751330158424155e+00 1.7751556011767806e+00 1.7751816404060370e+00 1.7752116487655043e+00 
1.7752462103133551e+00 1.7752859858733989e+00 1.7753317188980440e+00 1.7753842437250666e+00 
1.7754444931157460e+00 1.7755135045513422e+00 1.7755924271448693e+00 1.7756825263496623e+00 
1.7757851886596601e+00 1.7759019222590187e+00 1.7760343568605197e+00 1.7761842402668706e+00 
1.7763534289731977e+00 1.7765438725514684e+00 1.7767575996025318e+00 1.7769966907107853e+00 
1.7772632366378383e+00 1.7775593079391940e+00 1.7778868914522823e+00 1.7782478313228576e+00 
1.7786437644284792e+00 1.7790760213894596e+00 1.7795455431567542e+00 1.7800527733646991e+00 
1.7805975577630888e+00 1.7811790203082358e+00 1.7817954369064315e+00 1.7824441571224412e+00 
1.7831214743501369e+00 1.7838225308204121e+00 1.7845412811733270e+00 1.7852704395507142e+00 
1.7860014681804266e+00 1.7867246423530663e+00 1.7874291663053090e+00 1.7881032899655942e+00 
1.7887345380759734e+00 1.7893100336751946e+00 1.7898167884110636e+00 1.7902424088595230e+00 
1.7906355775252634e+00 1.7910385863965368e+00 1.7914516690182896e+00 1.7918750576750104e+00 
1.7923089919034298e+00 1.7927537186369646e+00 1.7932094842490618e+00 1.7936765460613422e+00 
1.7941551603039825e+00 1.7946455860817827e+00 1.7951480921795038e+00 1.7956629506799984e+00 
1.7961904426779793e+00 1.7967308440999437e+00 1.7972844368167542e+00 1.7978515129966961e+00 
1.7984323662322945e+00 1.7990272969541172e+00 1.7996366061923570e+00 1.8002605970194279e+00 
1.8008995753918779e+00 1.8015538663168387e+00 1.8022237853814520e+00 1.8029096436758103e+00 
1.8036117683077704e+00 1.8043304912146445e+00 1.8050661378404151e+00 1.8058190392055926e+00 
1.8065895359841819e+00 1.8073779535773660e+00 1.8081846326249496e+00 1.8090099152948336e+00 
1.8098541360985034e+00 1.8107176350493821e+00 1.8116007538595555e+00 1.8125038249604259e+00 
1.8134271771888033e+00 1.8143711503424766e+00 1.8153360804233509e+00 1.8163222842609417e+00 
1.8173300774111885e+00 1.8183597869065280e+00 1.8194117166347903e+00 1.8204861600904947e+00 
1.8215834117252034e+00 1.8227037508079340e+00 1.8238474450314119e+00 1.8250147494917006e+00 
1.8262059028173325e+00 1.8274211216477037e+00 1.8286606166213910e+00 1.8299245691008075e+00 
1.8312131249780159e+00 1.8325264325401995e+00 1.8338645960533195e+00 1.8352276793359037e+00 
1.8366157272579138e+00 1.8380287403280005e+00 1.8394666838192542e+00 1.8409294736546000e+00 
1.8424169775794665e+00 1.8439290157115575e+00 1.8454653453719247e+00 1.8470256650166648e+00 
1.8486096018478519e+00 1.8502167135570580e+00 1.8518464802368668e+00 1.8534982893270608e+00 
1.8551714418764644e+00 1.8568651383914376e+00 1.8585784662412823e+00 1.8603104002583915e+00 
1.8620597877283711e+00 1.8638253350606817e+00 1.8656056075180438e+00 1.8673990111769294e+00 
1.8692037788780900e+00 1.8710179608725446e+00 1.8728394083813507e+00 1.8746657593173168e+00 
1.8764944201758296e+00 1.8783225536206711e+00 1.8801470571761152e+00 1.8819645390113633e+00 
1.8837713049199027e+00 1.8855633255173627e+00 1.8873362126654307e+00 1.8890852075132003e+00 
1.8908051420304324e+00 1.8924904005976833e+00 1.8941348932029556e+00 1.8957320319797091e+00 
1.8972746844923734e+00 1.8987551273810654e+00 1.9001650133256738e+00 1.9014953262090124e+00 
1.9027363310804506e+00 1.9038775142055251e+00 1.9049075325586109e+00 1.9058141592652482e+00 
1.9065842164002602e+00 1.9072035027494012e+00 1.9076567235450237e+00 1.9079274143194882e+00 
1.9079978569790665e+00 1.9078489949751098e+00 1.9074603313013370e+00 1.9068098300144138e+00 
1.9058738153352730e+00 1.9046268524702776e+00 1.9030416238201726e+00 1.9010888045853789e+00 
1.8987369255160449e+00 1.8959522210631938e+00 1.8926984795391577e+00 1.8889368842835808e+00 
1.8846258303100851e+00 1.8797207426038700e+00 1.8741738886025026e+00 1.8679341707309449e+00 
1.8609469092315385e+00 1.8531536174525831e+00 1.8444917656763578e+00 1.8348945307310836e+00 
1.8242905377421337e+00 1.8126035900059907e+00 1.7997523851286037e+00 1.7856502269357679e+00 
1.7702047249499564e+00 1.7533174823611366e+00 1.7348837836733839e+00 1.7147922717301067e+00 
1.6929246238442541e+00 1.6691552242821091e+00 1.6433508403336188e+00 1.6153703085914075e+00 
1.5850642141509304e+00 1.5522746066466813e+00 1.5168347293032072e+00 1.4785687545308033e+00 
1.4372915787901992e+00 1.3928086571467526e+00 1.3449158806722876e+00 1.2933995260380959e+00 
1.2380362754855216e+00 1.1785933385396397e+00 1.1148286846956577e+00 1.0464913781470178e+00 
9.7332208456779490e-01 8.9505375522719532e-01 8.1141246291706548e-01 7.2211849325310484e-01 
6.2688768139216811e-01 5.2543299952963640e-01 4.1746649320769258e-01 3.0270153634311825e-01 
1.8085546471052377e-01 5.1652636888135532e-02 -8.5172059160426444e-02 -2.2986921462555190e-01 
-3.8267040192525575e-01 -5.4378311111798749e-01 -7.1338512093872530e-01 -8.9161829771909384e-01 
-1.0785817572010976e+00 -1.2743244568914156e+00 -1.4788372168927992e+00 -1.6920441598132174e+00 
-1.9137936659872279e+00 -2.1438488991868425e+00 -2.3818780497381566e+00 -2.6274443591817898e+00 
-2.8799960832504898e+00 -3.1388567479757001e+00 -3.4032157878936107e+00 -3.6721197939361656e+00 
-3.9444649441604618e+00 -4.2189907980203332e+00 -4.4942757539447120e+00 -4.7687348475550912e+00 
-5.0406202134684461e+00 -5.3080245617198676e+00 -5.5688882681545921e+00 -5.8210104319306009e+00 
-6.0620642861680372e+00 -6.2896172303973357e+00 -6.5011557134188553e+00 -6.6941151115354227e+00 
-6.8659143518241441e+00 -7.0139951717658056e+00 -7.1358655767571815e+00 -7.2291467043128703e+00 
-7.2916223105091342e+00 -7.3212897113184789e+00 -7.3164108721073022e+00 -7.2755622312241899e+00 
-7.1976815057797348e+00 -7.0821099166902659e+00 -6.9286280958736981e+00 -6.7374839818429058e+00 
-6.5094113801139954e+00 -6.2456378979277680e+00 -5.9478813260144987e+00 -5.6183340302234033e+00 
-5.2596352788343514e+00 -4.8748318703485776e+00 -4.4673279930522813e+00 -4.0408256156509950e+00 
-3.5992571304726262e+00 -3.1467123276170446e+00 -2.6873619445375931e+00 -2.2253801976105567e+00 
-1.7648686954234205e+00 -1.3097840216090635e+00 -8.6387107418670561e-01 -4.3060393938300040e-01 
-1.3135710336924683e-02 3.8574171549831748e-01 7.6362728790243095e-01 1.1185297477147063e+00 
1.4488760556800460e+00 1.7535099049288050e+00 2.0316811598483917e+00 2.2830273082195425e+00 
2.5075481716808614e+00 2.7055751852290628e+00 2.8777366148847991e+00 3.0249200349322445e+00 
3.1482333139949272e+00 3.2489652505523363e+00 3.3285468658394759e+00 3.3885142236357426e+00 
3.4304734637760541e+00 3.4560685881329674e+00 3.4669524069036948e+00 3.4647608848617883e+00 
3.4510910089706068e+00 3.4274821921684318e+00 3.3954011353900677e+00 3.3562299884831015e+00 
3.3112575931399797e+00 3.2616735494725830e+00 3.2085648146362620e+00 3.1529145318247926e+00 
3.0956027780163584e+00 3.0374089255947614e+00 2.9790153218358948e+00 2.9210120110840703e+00 
2.8639022454324143e+00 2.8081085501347292e+00 2.7539791444561539e+00 2.7017945362616396e+00 
2.6517741397068750e+00 2.6040827940933764e+00 2.5588370778781822e+00 2.5161113393038672e+00 
2.4759433859974984e+00 2.4383397894458625e+00 2.4032807776641190e+00 2.3707247041529116e+00 
2.3406120889073403e+00 2.3128692383501033e+00 2.2874114581609395e+00 2.2641458771201255e+00 
2.2429739049270263e+00 2.2237933495488065e+00 2.2065002213127753e+00 2.1909902512142931e+00 
2.1771601514027252e+00 2.1649086450817796e+00 2.1541372917571824e+00 2.1447511327124360e+00 
2.1366591800189343e+00 2.1297747702786172e+00 2.1240158028532869e+00 2.1193048804552324e+00 
2.1155693678934870e+00 2.1127413834231117e+00 2.1107577351991149e+00 2.1095598138409213e+00 
2.1090934507891830e+00 2.1093087506464845e+00 2.1101599046129049e+00 2.1116049909717516e+00 
2.1136057676382043e+00 2.1161274609488623e+00 2.1191385540571090e+00 2.1226105777005859e+00 
2.1265179054950605e+00 2.1308375554277368e+00 2.1355489988294973e+00 2.1406339777079726e+00 
2.1460763310535880e+00 2.1518618304867614e+00 2.1579780253934673e+00 2.1644140975427382e+00 
2.1711607250477352e+00 2.1782099554261798e+00 2.1855550874371468e+00 2.1931905613129268e+00 
2.2011118569609298e+00 2.2093153996864836e+00 2.2177984729673752e+00 2.2265591378065426e+00 
2.2355961581899733e+00 2.2449089321846749e+00 2.2544974282211054e+00 2.2643621261235221e+00 
2.2745039624681267e+00 2.2849242798648528e+00 2.2956247797898621e+00 2.3066074786060091e+00 
2.3178746664381467e+00 2.3294288685904587e+00 2.3412728092125867e+00 2.3534093769447226e+00 
2.3658415922904852e+00 2.3785725764856447e+00 2.3916055216514027e+00 2.4049436620323257e+00 
2.4185902461432658e+00 2.4325485096566761e+00 2.4468216488809391e+00 2.4614127946883544e+00 
2.4763249867699400e+00 2.4915611480928037e+00 2.5071240594600153e+00 2.5230163340663041e+00 
2.5392403919610165e+00 2.5557984343293030e+00 2.5726924175122399e+00 2.5899240266857277e+00 
2.6074946491269193e+00 2.6254053469967102e+00 2.6436568295683260e+00 2.6622494248361495e+00 
2.6811830504372818e+00 2.7004571838216069e+00 2.7200708316030524e+00 2.7400224980276469e+00 
2.7603101524925728e+00 2.7809311960494050e+00 2.8018824268255069e+00 2.8231600042966281e+00 
2.8447594123421873e+00 2.8666754210185030e+00 2.8889020469790103e+00 2.9114325124781653e+00 
2.9342592028892875e+00 2.9573736226731921e+00 2.9807663497326287e+00 3.0044269880896177e+00 
3.0283441188269511e+00 3.0525052492348155e+00 3.0768967601094652e+00 3.1015038511524975e+00 
3.1263104844241933e+00 3.1512993258102311e+00 3.1764516844642783e+00 3.2017474501956071e+00 
3.2271650287796390e+00 3.2526812751723440e+00 3.2782714246206091e+00 3.3039090216679301e+00 
3.3295658470644014e+00 3.3552118425981896e+00 3.3808150338790135e+00 3.4063414511162975e+00 
3.4317550479419130e+00 3.4570176183475665e+00 3.4820887118173962e+00 3.5069255467531804e+00 
3.5314829223051110e+00 3.5557131287415773e+00 3.5795658565064779e+00 3.6029881041387308e+00 
3.6259240852438679e+00 3.6483151347383087e+00 3.6700996146068841e+00 3.6912128194424820e+00 
3.7115868820693225e+00 3.7311506795778149e+00 3.7498297401307741e+00 3.7675461509471044e+00 
3.7842184678950437e+00 3.7997616271725714e+00 3.8140868595999065e+00 3.8271016080934568e+00 
3.8387094489421654e+00 3.8488100175594306e+00 3.8572989394504877e+00 3.8640677671883839e+00 
3.8690039242694594e+00 3.8719906567887290e+00 3.8729069939552594e+00 3.8716277185577139e+00 
3.8680233485789333e+00 3.8619601312622631e+00 3.8533000510400028e+00 3.8419008528507002e+00 
3.8276160825034640e+00 3.8102951458707754e+00 3.7897833888488481e+00 3.7659222001794754e+00 
3.7385491393728718e+00 3.7074980921746628e+00 3.6725994561781818e+00 3.6336803593761569e+00 
3.5905649146580778e+00 3.5430745134326931e+00 3.4910281617645240e+00 3.4342428626029537e+00 
3.3725340478539856e+00 3.3057160642098506e+00 3.2336027167754948e+00 3.1560078746129934e+00 
3.0727461423795255e+00 2.9836336021630840e+00 2.8884886295149088e+00 2.7871327874347416e+00 
2.6793918016646421e+00 2.5650966201310621e+00 2.4440845586346351e+00 2.3162005339101772e+00 
2.1812983839832123e+00 2.0392422742384175e+00 1.8899081858143039e+00 1.7331854807656089e+00 
1.5689785359359765e+00 1.3972084346035034e+00 1.2178147017147296e+00 1.0307570649893936e+00 
8.3601722025493819e-01 6.3360057531016611e-01 4.2353794241199766e-01 2.0588714519822723e-01 
-1.9265498179596531e-02 -2.5180385766467184e-01 -4.9158088477642981e-01 -7.3841776443497931e-01 
-9.9210337385520375e-01 -1.2523940971602672e+00 -1.5190140426325143e+00 -1.7916557059490907e+00 
-2.0699811171052320e+00 -2.3536235008505497e+00 -2.6421894703269966e+00 -2.9352617612472964e+00 
-3.2324024994776850e+00 -3.5331569786200401e+00 -3.8370579065493202e+00 -4.1436300612502981e+00 
-4.4523952775068905e+00 -4.7628776676947213e+00 -5.0746089628725253e+00 -5.3871338456017828e+00 
-5.7000151342890844e+00 -6.0128386713228172e+00 -6.3252177648878929e+00 -6.6367970380274368e+00 
-6.9472555490764094e+00 -7.2563090657430029e+00 -7.5637114011694511e+00 -7.8692547541422568e+00 
-8.1727690365124364e+00 -8.4741202172530397e+00 -8.7732077620229685e+00 -9.0699612963623011e+00 
-9.3643366657642311e+00 -9.6563116026190343e+00 -9.9458812343659346e+00 -1.0233053675848497e+01 
-1.0517845939995848e+01 -1.0800280374477142e+01 -1.1080381789841507e+01 -1.1358175390645657e+01 
-1.1633685560347681e+01 -1.1906935489124400e+01 -1.2177947576895505e+01 -1.2446744496413368e+01 
-1.2713350766491722e+01 -1.2977794664702323e+01 -1.3240110301841295e+01 -1.3500339685357355e+01 
-1.3758534613026949e+01 -1.4014758258283974e+01 -1.4269086331648046e+01 -1.4521607372054765e+01 
-1.4772424202551541e+01 -1.5021651283200685e+01 -1.5269414810801829e+01 -1.5515850425954817e+01 
-1.5761100535816754e+01 -1.6005310908346608e+01 -1.6248626538658684e+01 -1.6491186794773466e+01 
-1.6733119865557985e+01 -1.6974536556332044e+01 -1.7215523504901356e+01 -1.7456135937121452e+01 
-1.7696390134107865e+01 -1.7936255855712520e+01 -1.8175649045841553e+01 -1.8414425233576733e+01 
-1.8652374133612330e+01 -1.8889216011749230e+01 -1.9124600418412520e+01 -1.9358107859477855e+01 
-1.9589254867241614e+01 -1.9817502727193911e+01 -2.0042269817724211e+01 -2.0262947142279621e+01 
-2.0478916229632443e+01 -2.0689568204089291e+01 -2.0894322568892303e+01 -2.1092688847059911e+01 
-2.1284060917181801e+01 -2.1468153322460630e+01 -2.1644599212383969e+01 -2.1813133876023755e+01 
-2.1973566240670383e+01 -2.2125768209697409e+01 -2.2269666475694418e+01 -2.2405234097209529e+01 
-2.2532482907230069e+01 -2.2651457456641911e+01 -2.2762230784895731e+01 -2.2864901918836402e+01 
-2.2959594691195168e+01 -2.3046457268545794e+01 -2.3125661691686030e+01 -2.3197402745835415e+01 
-2.3261895569862638e+01 -2.3319371560247383e+01 -2.3370072299906440e+01 -2.3414241429340489e+01 
-2.3452114563959793e+01 -2.3483907537183736e+01 -2.3509803413212193e+01 -2.3529938857948441e+01 
-2.3544390585747550e+01 -2.3553162703042954e+01 -2.3556175852492334e+01 -2.3553259109401623e+01 
-2.3544145594705327e+01 -2.3528472731762857e+01 -2.3505787977537143e+01 -2.3475560687143517e+01 
-2.3437200510642718e+01 -2.3390082360835034e+01 -2.3333577526131812e+01 -2.3267089943252692e+01 
-2.3190096015751713e+01 -2.3102185715556175e+01 -2.3003102103085297e+01 -2.2892775931301333e+01 
-2.2771351747474043e+01 -2.2639201954180660e+01 -2.2496925701184200e+01 -2.2345330284266669e+01 
-2.2185393930918416e+01 -2.2018210414774511e+01 -2.1844917778576644e+01 -2.1666615414936487e+01 
-2.1484275651919130e+01 -2.1298657556852646e+01 -2.1110231625841500e+01 -2.0919124117041427e+01 
-2.0725088863132061e+01 -2.0527512487663838e+01 -2.0325456310095376e+01 -2.0117735347411763e+01 
-1.9903032315534702e+01 -1.9680042842649975e+01 -1.9447647131016708e+01 -1.9205102196830872e+01 
-1.8952246254131811e+01 -1.8689701799553298e+01 -1.8419056766693465e+01 -1.8142995635314858e+01 
-1.7865347513850200e+01 -1.7591019007415301e+01 -1.7325786090165732e+01 -1.7075949383027872e+01 
-1.6847734363739434e+01 -1.6647799527678313e+01 -1.6472295549402066e+01 -1.6266837659794785e+01 
-1.6056318470828714e+01 -1.5848750916862723e+01 -1.5643503171726250e+01 -1.5441195486593417e+01 
-1.5241820833469079e+01 -1.5045082465886026e+01 -1.4850875829227681e+01 -1.4659168409116445e+01 
-1.4469928200421933e+01 -1.4283123691403127e+01 -1.4098723828824349e+01 -1.3916698081523057e+01 
-1.3737016077048688e+01 -1.3559648246938039e+01 -1.3384565123349747e+01 -1.3211737705100360e+01 
-1.3041137345209773e+01 -1.2872735750293643e+01 -1.2706504970749755e+01 -1.2542417393327595e+01 
-1.2380445734730722e+01 -1.2220563036155555e+01 -1.2062742658641886e+01 -1.1906958279024423e+01 
-1.1753183886386516e+01 -1.1601393778885713e+01 -1.1451562560880289e+01 -1.1303665140224432e+01 
-1.1157676725743771e+01 -1.1013572824770261e+01 -1.0871329240860760e+01 -1.0730922071259346e+01 
-1.0592327704556375e+01 -1.0455522819673883e+01 -1.0320484380998854e+01 -1.0187189637604742e+01 
-1.0055616125031547e+01 -9.9257416532872700e+00 -9.7975443140747682e+00 -9.6710024778562484e+00 
-9.5460947820986615e+00 -9.4228001427236503e+00 -9.3010977415845648e+00 -9.1809670286587064e+00 
-9.0623877183805597e+00 -8.9453397871275193e+00 -8.8298034705260395e+00 -8.7157592604804339e+00 
-8.6031879021156481e+00 -8.4920622565363786e+00 -8.3823793475290618e+00 -8.2741130319906571e+00 
-8.1672450347938863e+00 -8.0617573168389391e+00 -7.9576320714776898e+00 -7.8548517209706246e+00 
-7.7533989130068299e+00 -7.6532565172834319e+00 -7.5544076221726630e+00 -7.4568355316388262e+00 
-7.3605237621671558e+00 -7.2654560397394583e+00 -7.1716162973198827e+00 -7.0789886725053526e+00 
-6.9875575043756006e+00 -6.8973073316080606e+00 -6.8082228912906144e+00 -6.7202891154558735e+00 
-6.6334911284325901e+00 -6.5478142479925392e+00 -6.4632439817172687e+00 -6.3797660221206502e+00 
-6.2973662491740203e+00 -6.2160307282765270e+00 -6.1357457034036731e+00 -6.0564975983581499e+00 
-5.9782730164915403e+00 -5.9010587329134907e+00 -5.8248416967565291e+00 -5.7496090274467964e+00 
-5.6753480116641128e+00 -5.6020461015203908e+00 -5.5296909120457549e+00 -5.4582702188598304e+00 
-5.3877719558849329e+00 -5.3181842130912962e+00 -5.2494952343086050e+00 -5.1816934150841361e+00 
-5.1147673007389010e+00 -5.0487055840919011e+00 -4.9834971037316445e+00 -4.9191308421645825e+00 
-4.8555959238638273e+00 -4.7928816128214118e+00 -4.7309773120484993e+00 -4.6698725608301777e+00 
-4.6095570332979277e+00 -4.5500205366969979e+00 -4.4912530096975303e+00 -4.4332445207525231e+00 
-4.3759852664060297e+00 -4.3194655697175923e+00 -4.2636758786304005e+00 -4.2086067643720906e+00 
-4.1542489198989108e+00 -4.1005931583310460e+00 -4.0476304114132722e+00 -3.9953517279997679e+00 
-3.9437482725474142e+00 -3.8928113236300308e+00 -3.8425322724700810e+00 -3.7929026214876580e+00 
-3.7439139828677868e+00 -3.6955580771447756e+00 -3.6478267318039208e+00 -3.6007118799011653e+00 
-3.5542055586996075e+00 -3.5082999083239939e+00 -3.4629871704311093e+00 -3.4182596868982591e+00 
-3.3741098985280797e+00 -3.3305303437697327e+00 -3.2875136574571133e+00 -3.2450525695628096e+00 
-3.2031399039686077e+00 -3.1617685772514212e+00 -3.1209315974853986e+00 -3.0806220630590389e+00 
-3.0408331615082012e+00 -3.0015581683638946e+00 -2.9627904460148478e+00 -2.9245234425852900e+00 
-2.8867506908270384e+00 -2.8494658070258203e+00 -2.8126624899216970e+00 -2.7763345196442648e+00 
-2.7404757566603117e+00 -2.7050801407368410e+00 -2.6701416899151726e+00 -2.6356544995011593e+00 
-2.6016127410660665e+00 -2.5680106614616305e+00 -2.5348425818476730e+00 -2.5021028967319516e+00 
-2.4697860730231049e+00 -2.4378866490948203e+00 -2.4063992338630547e+00 -2.3753185058750015e+00 
-2.3446392124095001e+00 -2.3143561685888758e+00 -2.2844642565034361e+00 -2.2549584243456731e+00 
-2.2258336855570651e+00 -2.1970851179847410e+00 -2.1687078630502721e+00 -2.1406971249278071e+00 
-2.1130481697341628e+00 -2.0857563247282620e+00 -2.0588169775216807e+00 -2.0322255752993308e+00 
-2.0059776240497680e+00 -1.9800686878051910e+00 -1.9544943878927388e+00 -1.9292504021939485e+00 
-1.9043324644142072e+00 -1.8797363633617556e+00 -1.8554579422362234e+00 -1.8314930979259572e+00 
-1.8078377803147136e+00 -1.7844879915966678e+00 -1.7614397856016082e+00 -1.7386892671272629e+00 
-1.7162325912813972e+00 -1.6940659628320127e+00 -1.6721856355656644e+00 -1.6505879116457352e+00 
-1.6292691410240889e+00 -1.6082257207673747e+00 -1.5874540944874207e+00 -1.5669507517294163e+00 
-1.5467122273832903e+00 -1.5267351010821522e+00 -1.5070159966481602e+00 -1.4875515815063851e+00 
-1.4683385661228445e+00 -1.4493737034123444e+00 -1.4306537883538226e+00 -1.4121756571907109e+00 
-1.3939361870747951e+00 -1.3759322954922020e+00 -1.3581609397424028e+00 -1.3406191164239709e+00 
-1.3233038609270213e+00 -1.3062122469321558e+00 -1.2893413859159335e+00 -1.2726884266626879e+00 
-1.2562505547826701e+00 -1.2400249922364086e+00 -1.2240089968652141e+00 -1.2081998619277501e+00 
-1.1925949156425844e+00 -1.1771915207366510e+00 -1.1619870739995541e+00 -1.1469790058436051e+00 
-1.1321647798695644e+00 -1.1175418924379834e+00 -1.1031078722460823e+00 -1.0888602799100942e+00 
-1.0747967075530036e+00 -1.0609147783976096e+00 -1.0472121463648421e+00 -1.0336864956772787e+00 
-1.0203355404677590e+00 -1.0071570243930759e+00 -9.9414872025264589e-01 -9.8130842961210907e-01 
-9.6863398243178545e-01 -9.5612323669993549e-01 -9.4377407807075342e-01 -9.3158441950703763e-01 
-9.1955220092748102e-01 -9.0767538885850452e-01 -8.9595197609060018e-01 -8.8437998133910734e-01 
-8.7295744890937110e-01 -8.6168244836622343e-01 -8.5055307420761683e-01 -8.3956744554307217e-01 
-8.2872370577507559e-01 -8.1802002228579784e-01 -8.0745458612725340e-01 -7.9702561171558428e-01 
-7.8673133652929328e-01 -7.7657002081137239e-01 -7.6653994727528019e-01 -7.5663942081471691e-01 
-7.4686676821714626e-01 -7.3722033788101826e-01 -7.2769849953664900e-01 -7.1829964397069446e-01 
-7.0902218275419360e-01 -6.9986454797411946e-01 -6.9082519196839831e-01 -6.8190258706435058e-01 
-6.7309522532051103e-01 -6.6440161827178223e-01 -6.5582029667788155e-01 -6.4734981027503535e-01 
-6.3898872753088043e-01 -6.3073563540253319e-01 -6.2258913909778113e-01 -6.1454786183935894e-01 
-6.0661044463227076e-01 -5.9877554603411720e-01 -5.9104184192838694e-01 -5.8340802530067837e-01 
-5.7587280601781432e-01 -5.6843491060980023e-01 -5.6109308205460906e-01 -5.5384607956574106e-01 
-5.4669267838252700e-01 -5.3963166956314113e-01 -5.3266185978028679e-01 -5.2578207111952213e-01 
-5.1899114088018894e-01 -5.1228792137891344e-01 -5.0567127975564596e-01 -4.9914009778220381e-01 
-4.9269327167328830e-01 -4.8632971189994345e-01 -4.8004834300542137e-01 -4.7384810342342881e-01 
-4.6772794529871892e-01 -4.6168683431000163e-01 -4.5572374949514283e-01 -4.4983768307861532e-01 
-4.4402764030118530e-01 -4.3829263925179496e-01 -4.3263171070161704e-01 -4.2704389794025294e-01 
-4.2152825661404664e-01 -4.1608385456648606e-01 -4.1070977168066697e-01 -4.0540509972379107e-01 
-4.0016894219367188e-01 -3.9500041416722403e-01 -3.8989864215090980e-01 -3.8486276393311541e-01 
-3.7989192843843633e-01 -3.7498529558384303e-01 -3.7014203613670454e-01 -3.6536133157464651e-01 
-3.6064237394722043e-01 -3.5598436573935527e-01 -3.5138651973657714e-01 -3.4684805889196851e-01 
-3.4236821619484448e-01 -3.3794623454112699e-01 -3.3358136660539150e-01 -3.2927287471456840e-01 
-3.2502003072327335e-01 -3.2082211589074955e-01 -3.1667842075939900e-01 -3.1258824503488214e-01 
-3.0855089746776632e-01 -3.0456569573670361e-01 -3.0063196633311617e-01 -2.9674904444737221e-01 
-2.9291627385643132e-01 -2.8913300681294074e-01 
</PP_LOCAL>


<PP_NONLOCAL>
  <PP_BETA>
  1  1      Beta    L
  1177  
 -1.2381526716086297e-09  -1.2707667875369722e-09  -1.3042399902233334e-09  -1.3385949088283197e-09 
 -1.3738547685861367e-09  -1.4100434065056875e-09  -1.4471852874853649e-09  -1.4853055208521995e-09 
 -1.5244298773367652e-09  -1.5645848064951492e-09  -1.6057974545899044e-09  -1.6480956829419064e-09 
 -1.6915080867656904e-09  -1.7360640145009254e-09  -1.7817935876530644e-09  -1.8287277211566338e-09 
 -1.8768981442749434e-09  -1.9263374220502233e-09  -1.9770789773188661e-09  -2.0291571133065592e-09 
 -2.0826070368185701e-09  -2.1374648820408556e-09  -2.1937677349681878e-09  -2.2515536584757083e-09 
 -2.3108617180509055e-09  -2.3717320082033009e-09  -2.4342056795699560e-09  -2.4983249667348275e-09 
 -2.5641332167809772e-09  -2.6316749185949252e-09  -2.7009957329426490e-09  -2.7721425233382780e-09 
 -2.8451633877253821e-09  -2.9201076909931648e-09  -2.9970260983489900e-09  -3.0759706095699985e-09 
 -3.1569945941568732e-09  -3.2401528274138345e-09  -3.3255015274786494e-09  -3.4130983933284844e-09 
 -3.5030026437863466e-09  -3.5952750575554906e-09  -3.6899780143081024e-09  -3.7871755368562522e-09 
 -3.8869333344339603e-09  -3.9893188471189821e-09  -4.0944012914249518e-09  -4.2022517070945248e-09 
 -4.3129430051246754e-09  -4.4265500170576291e-09  -4.5431495455698161e-09  -4.6628204163931762e-09 
 -4.7856435316047542e-09  -4.9117019243193396e-09  -5.0410808148230703e-09  -5.1738676681858459e-09 
 -5.3101522533908853e-09  -5.4500267040219037e-09  -5.5935855805493125e-09  -5.7409259342563892e-09 
 -5.8921473728499228e-09  -6.0473521277988091e-09  -6.2066451234462731e-09  -6.3701340479430275e-09 
 -6.5379294260485612e-09  -6.7101446938499800e-09  -6.8868962754494018e-09  -7.0683036616709527e-09 
 -7.2544894908412276e-09  -7.4455796316977754e-09  -7.6417032684808002e-09  -7.8429929882669647e-09 
 -8.0495848706035803e-09  -8.2616185795031218e-09  -8.4792374578618916e-09  -8.7025886243653475e-09 
 -8.9318230729459348e-09  -9.1670957748608804e-09  -9.4085657834587161e-09  -9.6563963417054617e-09 
 -9.9107549925436267e-09  -1.0171813692157165e-08  -1.0439748926220777e-08  -1.0714741829211229e-08 
 -1.0996978306861128e-08  -1.1286649161838523e-08  -1.1583950222736912e-08  -1.1889082476463057e-08 
 -1.2202252204111589e-08  -1.2523671120419987e-08  -1.2853556516894745e-08  -1.3192131408710080e-08 
 -1.3539624685474264e-08  -1.3896271265968052e-08  -1.4262312256959104e-08  -1.4637995116199446e-08 
 -1.5023573819716772e-08  -1.5419309033512339e-08  -1.5825468289780743e-08  -1.6242326167772814e-08 
 -1.6670164479422209e-08  -1.7109272459860509e-08  -1.7559946962952237e-08  -1.8022492661979699e-08 
 -1.8497222255613809e-08  -1.8984456679311089e-08  -1.9484525322278616e-08  -1.9997766250154243e-08 
 -2.0524526433551704e-08  -2.1065161982628018e-08  -2.1620038387826515e-08  -2.2189530766963427e-08 
 -2.2774024118822626e-08  -2.3373913583430726e-08  -2.3989604709186082e-08  -2.4621513727026131e-08 
 -2.5270067831817786e-08  -2.5935705471155694e-08  -2.6618876641772219e-08  -2.7320043193752420e-08 
 -2.8039679142763541e-08  -2.8778270990508931e-08  -2.9536318053622476e-08  -3.0314332801226222e-08 
 -3.1112841201381634e-08  -3.1932383076663858e-08  -3.2773512469104736e-08  -3.3636798014746884e-08 
 -3.4522823328065466e-08  -3.5432187396514710e-08  -3.6365504985468217e-08  -3.7323407053825930e-08 
 -3.8306541180566198e-08  -3.9315572002539486e-08  -4.0351181663786352e-08  -4.1414070276696215e-08 
 -4.2504956395313931e-08  -4.3624577501108916e-08  -4.4773690501546401e-08  -4.5953072241785645e-08 
 -4.7163520029860377e-08  -4.8405852175693734e-08  -4.9680908544307922e-08  -5.0989551123608849e-08 
 -5.2332664607127450e-08  -5.3711156992106961e-08  -5.5125960193350564e-08  -5.6578030673232336e-08 
 -5.8068350088308413e-08  -5.9597925952958018e-08  -6.1167792320505484e-08  -6.2779010482284419e-08 
 -6.4432669685118956e-08  -6.6129887867696777e-08  -6.7871812416347855e-08  -6.9659620940725645e-08 
 -7.1494522069921954e-08  -7.3377756269553318e-08  -7.5310596680371137e-08  -7.7294349978959043e-08 
 -7.9330357261103406e-08  -8.1419994948434307e-08  -8.3564675718949528e-08  -8.5765849462042718e-08 
 -8.8025004258698616e-08  -9.0343667387497788e-08  -9.2723406357130378e-08  -9.5165829966098299e-08 
 -9.7672589390339869e-08  -1.0024537929949785e-07  -1.0288593900259314e-07  -1.0559605362387883e-07 
 -1.0837755530966767e-07  -1.1123232446694494e-07  -1.1416229103461307e-07  -1.1716943578822238e-07 
 -1.2025579167906332e-07  -1.2342344520854433e-07  -1.2667453783875945e-07  -1.3001126744022526e-07 
 -1.3343588977774250e-07  -1.3695072003540329e-07  -1.4055813438176690e-07  -1.4426057157627066e-07 
 -1.4806053461794499e-07  -1.5196059243756427e-07  -1.5596338163438025e-07  -1.6007160825858580e-07 
 -1.6428804964074238e-07  -1.6861555626940315e-07  -1.7305705371818062e-07  -1.7761554462358812e-07 
 -1.8229411071497591e-07  -1.8709591489794437e-07  -1.9202420339262785e-07  -1.9708230792831600e-07 
 -2.0227364799587492e-07  -2.0760173315951813e-07  -2.1307016542943742e-07  -2.1868264169698548e-07 
 -2.2444295623396100e-07  -2.3035500325774547e-07  -2.3642277956401877e-07  -2.4265038722881546e-07 
 -2.4904203638175355e-07  -2.5560204805233473e-07  -2.6233485709119653e-07  -2.6924501516833983e-07 
 -2.7633719385032137e-07  -2.8361618775850401e-07  -2.9108691781051856e-07  -2.9875443454709058e-07 
 -3.0662392154651843e-07  -3.1470069892909585e-07  -3.2299022695383187e-07  -3.3149810970993859e-07 
 -3.4023009890555017e-07  -3.4919209775624817e-07  -3.5839016497600820e-07  -3.6783051887329569e-07 
 -3.7751954155505522e-07  -3.8746378324143892e-07  -3.9766996669419800e-07  -4.0814499176172773e-07 
 -4.1889594004385880e-07  -4.2993007967949831e-07  -4.4125487026040947e-07  -4.5287796787444944e-07 
 -4.6480723028161082e-07  -4.7705072222647747e-07  -4.8961672089057068e-07  -5.0251372148836771e-07 
 -5.1575044301070090e-07  -5.2933583411947921e-07  -5.4327907919769058e-07  -5.5758960455876588e-07 
 -5.7227708481954482e-07  -5.8735144944108695e-07  -6.0282288944183504e-07  -6.1870186428758535e-07 
 -6.3499910896297768e-07  -6.5172564122930642e-07  -6.6889276907345479e-07  -6.8651209835312461e-07 
 -7.0459554064345844e-07  -7.2315532129032895e-07  -7.4220398767585556e-07  -7.6175441770158001e-07 
 -7.8181982849522057e-07  -8.0241378534669087e-07  -8.2355021087963319e-07  -8.4524339446448433e-07 
 -8.6750800187958905e-07  -8.9035908522676195e-07  -9.1381209310813717e-07  -9.3788288107110704e-07 
 -9.6258772232834537e-07  -9.8794331876041441e-07  -1.0139668122080377e-06  -1.0406757960620366e-06 
 -1.0680883271585297e-06  -1.0962229379874539e-06  -1.1250986492228803e-06  -1.1547349825832758e-06 
 -1.1851519740306981e-06  -1.2163701873176857e-06  -1.2484107278909838e-06  -1.2812952571617850e-06 
 -1.3150460071516537e-06  -1.3496857955245213e-06  -1.3852380410146549e-06  -1.4217267792611025e-06 
 -1.4591766790592607e-06  -1.4976130590407333e-06  -1.5370619047926047e-06  -1.5775498864276844e-06 
 -1.6191043766177107e-06  -1.6617534691019103e-06  -1.7055259976827327e-06  -1.7504515557225586e-06 
 -1.7965605161538566e-06  -1.8438840520165625e-06  -1.8924541575367162e-06  -1.9423036697603498e-06 
 -1.9934662907575070e-06  -2.0459766104112693e-06  -2.0998701298072008e-06  -2.1551832852392025e-06 
 -2.2119534728477855e-06  -2.2702190739076550e-06  -2.3300194807815891e-06  -2.3913951235581412e-06 
 -2.4543874973914364e-06  -2.5190391905611106e-06  -2.5853939132719354e-06  -2.6534965272122253e-06 
 -2.7233930758910617e-06  -2.7951308157752331e-06  -2.8687582482462847e-06  -2.9443251524001596e-06 
 -3.0218826187107670e-06  -3.1014830835811883e-06  -3.1831803648048136e-06  -3.2670296979615474e-06 
 -3.3530877737728694e-06  -3.4414127764414867e-06  -3.5320644230014728e-06  -3.6251040037052011e-06 
 -3.7205944234751865e-06  -3.8186002444477219e-06  -3.9191877296386361e-06  -4.0224248877591279e-06 
 -4.1283815192134351e-06  -4.2371292633084060e-06  -4.3487416467077977e-06  -4.4632941331633756e-06 
 -4.5808641745572489e-06  -4.7015312632893306e-06  -4.8253769860458420e-06  -4.9524850789850950e-06 
 -5.0829414843780598e-06  -5.2168344087421593e-06  -5.3542543825072402e-06  -5.4952943212547449e-06 
 -5.6400495885712976e-06  -5.7886180605591983e-06  -5.9411001920477629e-06  -6.0975990845502211e-06 
 -6.2582205560124523e-06  -6.4230732124003613e-06  -6.5922685211753231e-06  -6.7659208867065073e-06 
 -6.9441477276713856e-06  -7.1270695564984899e-06  -7.3148100609031280e-06  -7.5074961875747071e-06 
 -7.7052582280703777e-06  -7.9082299069735905e-06  -8.1165484723782559e-06  -8.3303547887585610e-06 
 -8.5497934322884229e-06  -8.7750127886753632e-06  -9.0061651535738593e-06  -9.2434068356485263e-06 
 -9.4868982623545930e-06  -9.7368040885096056e-06  -9.9932933077290354e-06  -1.0256539366801137e-05 
 -1.0526720283079858e-05  -1.0804018764974460e-05  -1.1088622335618214e-05  -1.1380723459800154e-05 
 -1.1680519674245944e-05  -1.1988213721336472e-05  -1.2304013686355488e-05  -1.2628133138358426e-05 
 -1.2960791274759431e-05  -1.3302213069734334e-05  -1.3652629426540149e-05  -1.4012277333855522e-05 
 -1.4381400026247731e-05  -1.4760247148875548e-05  -1.5149074926540766e-05  -1.5548146337201692e-05 
 -1.5957731290069339e-05  -1.6378106808404479e-05  -1.6809557217142867e-05  -1.7252374335474670e-05 
 -1.7706857674509575e-05  -1.8173314640162811e-05  -1.8652060741399121e-05  -1.9143419803978932e-05 
 -1.9647724189849808e-05  -2.0165315022333595e-05  -2.0696542417264377e-05  -2.1241765720233238e-05 
 -2.1801353750101403e-05  -2.2375685048949572e-05  -2.2965148138633225e-05  -2.3570141784118249e-05 
 -2.4191075263779041e-05  -2.4828368646840576e-05  -2.5482453078156733e-05  -2.6153771070519146e-05 
 -2.6842776804693684e-05  -2.7549936437395370e-05  -2.8275728417405142e-05  -2.9020643810051660e-05 
 -2.9785186630275795e-05  -3.0569874184508688e-05  -3.1375237421594080e-05  -3.2201821293000587e-05 
 -3.3050185122565474e-05  -3.3920902986026996e-05  -3.4814564100603911e-05  -3.5731773224892562e-05 
 -3.6673151069349731e-05  -3.7639334717649366e-05  -3.8630978059202219e-05  -3.9648752233130682e-05 
 -4.0693346084010088e-05  -4.1765466629684590e-05  -4.2865839541486322e-05  -4.3995209637180643e-05 
 -4.5154341386983639e-05  -4.6344019432996718e-05  -4.7565049122419751e-05  -4.8818257054904739e-05 
 -5.0104491644437110e-05  -5.1424623696124207e-05  -5.2779546998291203e-05  -5.4170178930302437e-05 
 -5.5597461086513307e-05  -5.7062359916798415e-05  -5.8565867384093674e-05  -6.0109001639406211e-05 
 -6.1692807714768108e-05  -6.3318358234601765e-05  -6.4986754146006200e-05  -6.6699125468460294e-05 
 -6.8456632063471586e-05  -7.0260464424695758e-05  -7.2111844489095313e-05  -7.4012026469680284e-05 
 -7.5962297710433375e-05  -7.7963979563998762e-05  -8.0018428292758469e-05  -8.2127035993923738e-05 
 -8.4291231549286970e-05  -8.6512481600296102e-05  -8.8792291549149812e-05  -9.1132206586593095e-05 
 -9.3533812747157078e-05  -9.5998737992568733e-05  -9.8528653324101052e-05  -1.0112527392464671e-04 
 -1.0379036033131700e-04  -1.0652571963939396e-04  -1.0933320673849194e-04  -1.1221472558179398e-04 
 -1.1517223048927132e-04  -1.1820772748579856e-04  -1.2132327567512726e-04  -1.2452098865068203e-04 
 -1.2780303594419059e-04  -1.3117164451317779e-04  -1.3462910026838077e-04  -1.3817774964218358e-04 
 -1.4182000119918368e-04  -1.4555832729004815e-04  -1.4939526574985181e-04  -1.5333342164210048e-04 
 -1.5737546904971122e-04  -1.6152415291422411e-04  -1.6578229092459185e-04  -1.7015277545687888e-04 
 -1.7463857556630923e-04  -1.7924273903309238e-04  -1.8396839446349156e-04  -1.8881875344770214e-04 
 -1.9379711277607822e-04  -1.9890685671533929e-04  -2.0415145934641593e-04  -2.0953448696565204e-04 
 -2.1505960055111399e-04  -2.2073055829583717e-04  -2.2655121820984586e-04  -2.3252554079290894e-04 
 -2.3865759177995653e-04  -2.4495154496123774e-04  -2.5141168507927851e-04  -2.5804241080482467e-04 
 -2.6484823779394874e-04  -2.7183380182865753e-04  -2.7900386204329146e-04  -2.8636330423920055e-04 
 -2.9391714429012909e-04  -3.0167053164092532e-04  -3.0962875290219865e-04  -3.1779723554363991e-04 
 -3.2618155168882737e-04  -3.3478742201440667e-04  -3.4362071975660392e-04  -3.5268747482815181e-04 
 -3.6199387804880322e-04  -3.7154628549264574e-04  -3.8135122295560666e-04  -3.9141539054661354e-04 
 -4.0174566740590827e-04  -4.1234911655428733e-04  -4.2323298987694664e-04  -4.3440473324591315e-04 
 -4.4587199178503916e-04  -4.5764261528172132e-04  -4.6972466374959877e-04  -4.8212641314667690e-04 
 -4.9485636125338778e-04  -5.0792323371526770e-04  -5.2133599025508480e-04  -5.3510383105949150e-04 
 -5.4923620334511845e-04  -5.6374280810972865e-04  -5.7863360707358286e-04  -5.9391882981688743e-04 
 -6.0960898111905230e-04  -6.2571484850575424e-04  -6.4224751001005034e-04  -6.5921834215390085e-04 
 -6.7663902815673512e-04  -6.9452156637784136e-04  -7.1287827899961216e-04  -7.3172182095893436e-04 
 -7.5106518913421716e-04  -7.7092173179567629e-04  -7.9130515832706409e-04  -8.1222954922690802e-04 
 -8.3370936639785712e-04  -8.5575946373286145e-04  -8.7839509800733231e-04  -9.0163194008659750e-04 
 -9.2548608645830937e-04  -9.4997407109989422e-04  -9.7511287769118176e-04  -1.0009199521830781e-03 
 -1.0274132157331002e-03  -1.0546110780192378e-03  -1.0825324509439213e-03  -1.1111967627399709e-03 
 -1.1406239724914777e-03  -1.1708345850820257e-03  -1.2018496665840673e-03  -1.2336908601029862e-03 
 -1.2663804020900506e-03  -1.2999411391392698e-03  -1.3343965452829996e-03  -1.3697707398021260e-03 
 -1.4060885055670938e-03  -1.4433753079264764e-03  -1.4816573141601722e-03  -1.5209614135153870e-03 
 -1.5613152378436258e-03  -1.6027471828575686e-03  -1.6452864300278099e-03  -1.6889629691393599e-03 
 -1.7338076215290890e-03  -1.7798520640253271e-03  -1.8271288536123290e-03  -1.8756714528421418e-03 
 -1.9255142560177360e-03  -1.9766926161718457e-03  -2.0292428728665990e-03  -2.0832023808397700e-03 
 -2.1386095395247574e-03  -2.1955038234713997e-03  -2.2539258136962102e-03  -2.3139172299913601e-03 
 -2.3755209642221213e-03  -2.4387811146441402e-03  -2.5037430212721222e-03  -2.5704533023325356e-03 
 -2.6389598918345287e-03  -2.7093120782928849e-03  -2.7815605446391656e-03  -2.8557574093571610e-03 
 -2.9319562688800158e-03  -3.0102122412876361e-03  -3.0905820113432208e-03  -3.1731238769096698e-03 
 -3.2578977967866545e-03  -3.3449654400103468e-03  -3.4343902366593508e-03  -3.5262374302101169e-03 
 -3.6205741314869182e-03  -3.7174693742518697e-03  -3.8169941724814625e-03  -3.9192215793766912e-03 
 -4.0242267481547219e-03  -4.1320869946704338e-03  -4.2428818619170616e-03  -4.3566931864556305e-03 
 -4.4736051668227191e-03  -4.5937044339676358e-03  -4.7170801237687143e-03  -4.8438239516800062e-03 
 -4.9740302895583972e-03  -5.1077962447218595e-03  -5.2452217412884833e-03  -5.3864096038456809e-03 
 -5.5314656434985315e-03  -5.6804987463435078e-03  -5.8336209644157359e-03  -5.9909476091525313e-03 
 -6.1525973474168350e-03  -6.3186923001212637e-03  -6.4893581434896539e-03  -6.6647242129921616e-03 
 -6.8449236099841961e-03  -7.0300933110770012e-03  -7.2203742802637453e-03  -7.4159115838166728e-03 
 -7.6168545079704011e-03  -7.8233566793948200e-03  -8.0355761884580504e-03  -8.2536757152688218e-03 
 -8.4778226584830609e-03  -8.7081892668432956e-03  -8.9449527734180648e-03  -9.1882955324869391e-03 
 -9.4384051590123037e-03  -9.6954746706193334e-03  -9.9597026319949954e-03  -1.0231293301595093e-02 
 -1.0510456780535271e-02  -1.0797409163519900e-02  -1.1092372691639761e-02  -1.1395575906850466e-02 
 -1.1707253807914037e-02  -1.2027648007563273e-02  -1.2357006890615019e-02  -1.2695585772730942e-02 
 -1.3043647059488163e-02  -1.3401460405387138e-02  -1.3769302872384254e-02  -1.4147459087496159e-02 
 -1.4536221398975870e-02  -1.4935890030518323e-02  -1.5346773232893712e-02  -1.5769187432363857e-02 
 -1.6203457375168161e-02  -1.6649916267313779e-02  -1.7108905908835213e-02  -1.7580776821620125e-02 
 -1.8065888369829843e-02  -1.8564608871860684e-02  -1.9077315702719207e-02  -1.9604395385593016e-02 
 -2.0146243671316000e-02  -2.0703265604333800e-02  -2.1275875573674531e-02  -2.1864497347332961e-02 
 -2.2469564088376092e-02  -2.3091518350959760e-02  -2.3730812054343083e-02  -2.4387906432870032e-02 
 -2.5063271959770671e-02  -2.5757388242509251e-02  -2.6470743887292220e-02  -2.7203836330221148e-02 
 -2.7957171632444846e-02  -2.8731264236554980e-02  -2.9526636681326952e-02  -3.0343819271803678e-02 
 -3.1183349701580435e-02  -3.2045772624057292e-02  -3.2931639169288943e-02  -3.3841506402985604e-02 
 -3.4775936724101709e-02  -3.5735497197383788e-02  -3.6720758817171149e-02  -3.7732295698685317e-02 
 -3.8770684193015187e-02  -3.9836501921996018e-02  -4.0930326729160929e-02  -4.2052735543021622e-02 
 -4.3204303148963438e-02  -4.4385600866167836e-02  -4.5597195126106285e-02  -4.6839645949330599e-02 
 -4.8113505317526555e-02  -4.9419315438074381e-02  -5.0757606898705919e-02  -5.2128896710250595e-02 
 -5.3533686235938190e-02  -5.4972459006278472e-02  -5.6445678419149936e-02  -5.7953785325458432e-02 
 -5.9497195501519225e-02  -6.1076297010213929e-02  -6.2691447453982627e-02  -6.4342971123799927e-02 
 -6.6031156049518133e-02  -6.7756250958288189e-02  -6.9518462149209065e-02  -7.1317950293935645e-02 
 -7.3154827174677084e-02  -7.5029152372816960e-02  -7.6940929923328710e-02  -7.8890104952244577e-02 
 -8.0876560316573323e-02  -8.2900113268365841e-02  -8.4960512167021135e-02  -8.7057433266378256e-02 
 -8.9190477605712581e-02  -9.1359168036343974e-02  -9.3562946418244017e-02  -9.5801171023654028e-02 
 -9.8073114187431462e-02  -1.0037796024638806e-01  -1.0271480381249000e-01  -1.0508264842712707e-01 
 -1.0748040564596402e-01  -1.0990689460586740e-01  -1.1236084212723337e-01  -1.1484088340638617e-01 
 -1.1734556335384767e-01  -1.1987333863479084e-01  -1.2242258046809003e-01  -1.2499157823974952e-01 
 -1.2757854398530064e-01  -1.3018161779365109e-01  -1.3279887418198472e-01  -1.3542832948745948e-01 
 -1.3806795031649596e-01  -1.4071566308640274e-01  -1.4336936468683115e-01  -1.4602693427989411e-01 
 -1.4868624624780929e-01  -1.5134518428544644e-01  -1.5400165662210902e-01  -1.5665361234224440e-01 
 -1.5929905875846737e-01  -1.6193607977230851e-01  -1.6456285513834462e-01  -1.6717768052600784e-01 
 -1.6977898825021601e-01  -1.7236536851727055e-01  -1.7493559100619249e-01  -1.7748862657790695e-01 
 -1.8002366887578836e-01  -1.8254015555092970e-01  -1.8503778881470620e-01  -1.8751655498969463e-01 
 -1.8997674269854797e-01  -1.9241895929899605e-01  -1.9484414514267101e-01  -1.9725358520614189e-01 
 -1.9964891761532011e-01  -2.0203213855973312e-01  -2.0440560307228398e-01  -2.0677202113328289e-01 
 -2.0913444854659838e-01  -2.1149627203112087e-01  -2.1386118797393042e-01  -2.1623317430387343e-01 
 -2.1861645496707424e-01  -2.2101545652046722e-01  -2.2343475640768493e-01  -2.2587902254459732e-01 
 -2.2835294392160002e-01  -2.3086115202725663e-01  -2.3340813301507002e-01  -2.3599813067325642e-01 
 -2.3863504041679906e-01  -2.4132229470384911e-01  -2.4406274048363391e-01  -2.4685850951171801e-01 
 -2.4971088261905194e-01  -2.5262014929277482e-01  -2.5558546421712441e-01  -2.5860470272803232e-01 
 -2.6167431745148478e-01  -2.6478919871709905e-01  -2.6794254165751802e-01  -2.7112572321294798e-01 
 -2.7432819254717905e-01  -2.7753737863565398e-01  -2.8073861899324654e-01  -2.8391513883010311e-01 
 -2.8704793597682515e-01  -2.9011594225127424e-01  -2.9309598399889497e-01  -2.9596288061229231e-01 
 -2.9868966399188118e-01  -3.0124765113883112e-01  -3.0360675564546880e-01  -3.0573575670865544e-01 
 -3.0760263573763846e-01  -3.0917496145368623e-01  -3.1042031952736909e-01  -3.1130678216192698e-01 
 -3.1180341035298970e-01  -3.1188077973863138e-01  -3.1151151887500206e-01  -3.1067084633201719e-01 
 -3.0933709119110714e-01  -3.0749217922969513e-01  -3.0512206573512451e-01  -3.0221709406416486e-01 
 -2.9877225887953562e-01  -2.9478735206533802e-01  -2.9026697055940681e-01  -2.8522036650631166e-01 
 -2.7966112283924432e-01  -2.7360664126851486e-01  -2.6707743459244110e-01  -2.6009622189295306e-01 
 -2.5268683282012244e-01  -2.4487293657085871e-01  -2.3667662136039017e-01  -2.2811686190726918e-01 
 -2.1920792446517223e-01  -2.0995777177607947e-01  -2.0036654245076219e-01  -1.9042519118343201e-01 
 -1.8011438598870991e-01  -1.6940376627038539e-01  -1.5825166941029362e-01  -1.4660543308925233e-01 
 -1.3440237403725036e-01  -1.2157153100982875e-01  -1.0803623881716096e-01  -9.3717570920602358e-02 
 -7.8538649999843696e-02  -6.2429778698640921e-02  -4.5334287444387091e-02  -2.7214934369176561e-02 
 -8.0606249439555792e-03  1.2106848807869894e-02  3.3226416313993340e-02  5.5192108625694306e-02 
 7.7848681509936721e-02  1.0098897827257586e-01  1.2435352939229528e-01  1.4763285372584434e-01 
 1.7047285616764193e-01  1.9248360367346937e-01  2.1325160415180097e-01  2.3235551020697126e-01 
 2.4938492608053769e-01  2.6396171851154765e-01  2.7576293286146003e-01  2.8454411149075576e-01 
 2.9016152387044297e-01  2.9259157462280566e-01  2.9194548678579163e-01  2.8847729867450017e-01 
 2.8258329730876447e-01  2.7479127424639199e-01  2.6573845668535195e-01  2.5613765484562145e-01 
 2.4673207359163643e-01  2.3824033808844938e-01  2.3129452474869364e-01  2.2637528214961788e-01 
 2.2374934956069242e-01  2.2341578025679110e-01  2.2506777947817913e-01  2.2807709662922970e-01 
 2.3150720951109882e-01  2.3415999298774814e-01  2.3465813492006513e-01  2.3156230303460140e-01 
 2.2351814281338980e-01  2.0942387901541312e-01  1.8860499233144346e-01  1.6097863049516251e-01 
 1.2718764179077791e-01  8.8682976392255572e-02  4.7734267836123022e-02  7.3521981767715903e-03 
 -2.8886896005720572e-02  -5.7113607480492788e-02  -7.3523018707840990e-02  -7.4779868221809653e-02 
 -5.8524584640960053e-02  -2.2992920697642721e-02  2.5163294609327994e-02  4.2538433325470873e-02 
 4.3544823241828019e-02  3.0030237263466500e-02  4.0103321402667202e-03  -4.3287725939748501e-04 
 9.5812701559835047e-06  -3.2074567139429398e-05  -2.5861309830099180e-05  -2.4480827785053529e-05 
 -2.2710403227916431e-05  -2.1065241060680785e-05  -1.9497226423447449e-05  -1.7962529999154168e-05 
 -1.6587069376268313e-05  -1.5233051280907568e-05  -1.3953766199326133e-05  -1.2741762435418449e-05 
 -1.1595413234524300e-05  -1.0512648019599819e-05  -9.4912330473707887e-06  -8.5290225102275475e-06 
 -7.6238163220191932e-06  -6.7734289483189111e-06  -5.9756770202845170e-06  -5.2284011847553144e-06 
 -4.5294654444651371e-06  -3.8767758437400828e-06  -3.2682736906646403e-06  -2.7019569997920191e-06 
 -2.1758715551760821e-06  -1.6881297714076576e-06  -1.2368628742839481e-06  -8.2033274423714793e-07 
 -4.3688451078116082e-07  -8.4977431512514525e-08  2.4145940717303180e-07  4.9704317125350454e-07 
 7.9824314612014586e-07  1.0378497081597872e-06  1.2573170055345040e-06  1.4538628244373227e-06 
 1.6291084583992225e-06  1.7841463309886924e-06  1.9200725545977022e-06  2.0379418596571183e-06 
 2.1387756742892755e-06  2.2235661158636638e-06  2.2932845537565693e-06  2.3488810637715243e-06 
 2.3912891570246629e-06  1.1993618922564822e-07  8.3102854756133024e-08  4.8836786662012510e-08 
 1.7210150188532436e-08  0.0000000000000000e+00  0.0000000000000000e+00  0.0000000000000000e+00 
 0.0000000000000000e+00  0.0000000000000000e+00  0.0000000000000000e+00  0.0000000000000000e+00 
 0.0000000000000000e+00  0.0000000000000000e+00  0.0000000000000000e+00  0.0000000000000000e+00 
 0.0000000000000000e+00  0.0000000000000000e+00  0.0000000000000000e+00  0.0000000000000000e+00 
 0.0000000000000000e+00  0.0000000000000000e+00  0.0000000000000000e+00  0.0000000000000000e+00 
 0.0000000000000000e+00  0.0000000000000000e+00  0.0000000000000000e+00  0.0000000000000000e+00 
 0.0000000000000000e+00  0.0000000000000000e+00  0.0000000000000000e+00  0.0000000000000000e+00 
 0.0000000000000000e+00  0.0000000000000000e+00  0.0000000000000000e+00  0.0000000000000000e+00 
 0.0000000000000000e+00  0.0000000000000000e+00  0.0000000000000000e+00  0.0000000000000000e+00 
 0.0000000000000000e+00  0.0000000000000000e+00  0.0000000000000000e+00  0.0000000000000000e+00 
 0.0000000000000000e+00  0.0000000000000000e+00  0.0000000000000000e+00  0.0000000000000000e+00 
 0.0000000000000000e+00  0.0000000000000000e+00  0.0000000000000000e+00  0.0000000000000000e+00 
 0.0000000000000000e+00  0.0000000000000000e+00  0.0000000000000000e+00  0.0000000000000000e+00 
 0.0000000000000000e+00  0.0000000000000000e+00  0.0000000000000000e+00  0.0000000000000000e+00 
 0.0000000000000000e+00  0.0000000000000000e+00  0.0000000000000000e+00  0.0000000000000000e+00 
 0.0000000000000000e+00  0.0000000000000000e+00  0.0000000000000000e+00  0.0000000000000000e+00 
 0.0000000000000000e+00  0.0000000000000000e+00  0.0000000000000000e+00  0.0000000000000000e+00 
 0.0000000000000000e+00  0.0000000000000000e+00  0.0000000000000000e+00  0.0000000000000000e+00 
 0.0000000000000000e+00  0.0000000000000000e+00  0.0000000000000000e+00  0.0000000000000000e+00 
 0.0000000000000000e+00  0.0000000000000000e+00  0.0000000000000000e+00  0.0000000000000000e+00 
 0.0000000000000000e+00  0.0000000000000000e+00  0.0000000000000000e+00  0.0000000000000000e+00 
 0.0000000000000000e+00  0.0000000000000000e+00  0.0000000000000000e+00  0.0000000000000000e+00 
 0.0000000000000000e+00  0.0000000000000000e+00  0.0000000000000000e+00  0.0000000000000000e+00 
 0.0000000000000000e+00  0.0000000000000000e+00  0.0000000000000000e+00  0.0000000000000000e+00 
 0.0000000000000000e+00  0.0000000000000000e+00  0.0000000000000000e+00  0.0000000000000000e+00 
 0.0000000000000000e+00  0.0000000000000000e+00  0.0000000000000000e+00  0.0000000000000000e+00 
 0.0000000000000000e+00  0.0000000000000000e+00  0.0000000000000000e+00  0.0000000000000000e+00 
 0.0000000000000000e+00  0.0000000000000000e+00  0.0000000000000000e+00  0.0000000000000000e+00 
 0.0000000000000000e+00  0.0000000000000000e+00  0.0000000000000000e+00  0.0000000000000000e+00 
 0.0000000000000000e+00  0.0000000000000000e+00  0.0000000000000000e+00  0.0000000000000000e+00 
 0.0000000000000000e+00  0.0000000000000000e+00  0.0000000000000000e+00  0.0000000000000000e+00 
 0.0000000000000000e+00  0.0000000000000000e+00  0.0000000000000000e+00  0.0000000000000000e+00 
 0.0000000000000000e+00  0.0000000000000000e+00  0.0000000000000000e+00  0.0000000000000000e+00 
 0.0000000000000000e+00  0.0000000000000000e+00  0.0000000000000000e+00  0.0000000000000000e+00 
 0.0000000000000000e+00  0.0000000000000000e+00  0.0000000000000000e+00  0.0000000000000000e+00 
 0.0000000000000000e+00  0.0000000000000000e+00  0.0000000000000000e+00  0.0000000000000000e+00 
 0.0000000000000000e+00  0.0000000000000000e+00  0.0000000000000000e+00  0.0000000000000000e+00 
 0.0000000000000000e+00  0.0000000000000000e+00  0.0000000000000000e+00  0.0000000000000000e+00 
 0.0000000000000000e+00  0.0000000000000000e+00  0.0000000000000000e+00  0.0000000000000000e+00 
 0.0000000000000000e+00  0.0000000000000000e+00  0.0000000000000000e+00  0.0000000000000000e+00 
 0.0000000000000000e+00  0.0000000000000000e+00  0.0000000000000000e+00  0.0000000000000000e+00 
 0.0000000000000000e+00  0.0000000000000000e+00  0.0000000000000000e+00  0.0000000000000000e+00 
 0.0000000000000000e+00  0.0000000000000000e+00  0.0000000000000000e+00  0.0000000000000000e+00 
 0.0000000000000000e+00  0.0000000000000000e+00  0.0000000000000000e+00  0.0000000000000000e+00 
 0.0000000000000000e+00  0.0000000000000000e+00  0.0000000000000000e+00  0.0000000000000000e+00 
 0.0000000000000000e+00  0.0000000000000000e+00  0.0000000000000000e+00  0.0000000000000000e+00 
 0.0000000000000000e+00  0.0000000000000000e+00  0.0000000000000000e+00  0.0000000000000000e+00 
 0.0000000000000000e+00  0.0000000000000000e+00  0.0000000000000000e+00  0.0000000000000000e+00 
 0.0000000000000000e+00  0.0000000000000000e+00  0.0000000000000000e+00  0.0000000000000000e+00 
 0.0000000000000000e+00  0.0000000000000000e+00  0.0000000000000000e+00  0.0000000000000000e+00 
 0.0000000000000000e+00  0.0000000000000000e+00  0.0000000000000000e+00  0.0000000000000000e+00 
 0.0000000000000000e+00  0.0000000000000000e+00  0.0000000000000000e+00  0.0000000000000000e+00 
 0.0000000000000000e+00  0.0000000000000000e+00  0.0000000000000000e+00  0.0000000000000000e+00 
 0.0000000000000000e+00  0.0000000000000000e+00  0.0000000000000000e+00  0.0000000000000000e+00 
 0.0000000000000000e+00  0.0000000000000000e+00  0.0000000000000000e+00  0.0000000000000000e+00 
 0.0000000000000000e+00  0.0000000000000000e+00  0.0000000000000000e+00  0.0000000000000000e+00 
 0.0000000000000000e+00  0.0000000000000000e+00  0.0000000000000000e+00  0.0000000000000000e+00 
 0.0000000000000000e+00  0.0000000000000000e+00  0.0000000000000000e+00  0.0000000000000000e+00 
 0.0000000000000000e+00  0.0000000000000000e+00  0.0000000000000000e+00  0.0000000000000000e+00 
 0.0000000000000000e+00  0.0000000000000000e+00  0.0000000000000000e+00  0.0000000000000000e+00 
 0.0000000000000000e+00  0.0000000000000000e+00  0.0000000000000000e+00  0.0000000000000000e+00 
 0.0000000000000000e+00  0.0000000000000000e+00  0.0000000000000000e+00  0.0000000000000000e+00 
 0.0000000000000000e+00  0.0000000000000000e+00  0.0000000000000000e+00  0.0000000000000000e+00 
 0.0000000000000000e+00  0.0000000000000000e+00  0.0000000000000000e+00  0.0000000000000000e+00 
 0.0000000000000000e+00  0.0000000000000000e+00 
  </PP_BETA>
  <PP_BETA>
  2  1      Beta    L
  1177  
 -1.6308602173720342e-10  -1.6738186241916131e-10  -1.7179085962913204e-10  -1.7631599401792236e-10 
 -1.8096032474954014e-10  -1.8572699156929908e-10  -1.9061921692641155e-10  -1.9564030815249416e-10 
 -2.0079365969745503e-10  -2.0608275542425126e-10  -2.1151117096417435e-10  -2.1708257613403369e-10 
 -2.2280073741714871e-10  -2.2866952050963989e-10  -2.3469289293376225e-10  -2.4087492672012279e-10 
 -2.4721980116055150e-10  -2.5373180563341923e-10  -2.6041534250344583e-10  -2.6727493009790126e-10 
 -2.7431520576114475e-10  -2.8154092898962483e-10  -2.8895698464952881e-10  -2.9656838627913063e-10 
 -3.0438027947815589e-10  -3.1239794538634786e-10  -3.2062680425381799e-10  -3.2907241910525120e-10 
 -3.3774049950080789e-10  -3.4663690539602401e-10  -3.5576765110321665e-10  -3.6513890935762663e-10 
 -3.7475701549025366e-10  -3.8462847171085927e-10  -3.9475995150373052e-10  -4.0515830413922523e-10 
 -4.1583055930404033e-10  -4.2678393185374916e-10  -4.3802582669013394e-10  -4.4956384376740774e-10 
 -4.6140578322984993e-10  -4.7355965068519491e-10  -4.8603366261669094e-10  -4.9883625193769824e-10 
 -5.1197607369283699e-10  -5.2546201090897887e-10  -5.3930318060060901e-10  -5.5350893993335004e-10 
 -5.6808889254961711e-10  -5.8305289506122030e-10  -5.9841106371285516e-10  -6.1417378122089320e-10 
 -6.3035170379275083e-10  -6.4695576833077618e-10  -6.6399719982603453e-10  -6.8148751894698999e-10 
 -6.9943854982788891e-10  -7.1786242806219098e-10  -7.3677160890697870e-10  -7.5617887570308080e-10 
 -7.7609734851716731e-10  -7.9654049301155340e-10  -8.1752212954726406e-10  -8.3905644252747586e-10 
 -8.6115798998666222e-10  -8.8384171343233000e-10  -9.0712294794626003e-10  -9.3101743255151872e-10 
 -9.5554132085270563e-10  -9.8071119195671843e-10  -1.0065440616805421e-09  -1.0330573940548726e-09 
 -1.0602691131306829e-09  -1.0881976150962345e-09  -1.1168617807140424e-09  -1.1462809880849677e-09 
 -1.1764751257485916e-09  -1.2074646061287572e-09  -1.2392703793332848e-09  -1.2719139473169562e-09 
 -1.3054173784181502e-09  -1.3398033222776124e-09  -1.3750950251507872e-09  -1.4113163456231964e-09 
 -1.4484917707400248e-09  -1.4866464325603612e-09  -1.5258061251475789e-09  -1.5659973220073662e-09 
 -1.6072471939846083e-09  -1.6495836276327688e-09  -1.6930352440656982e-09  -1.7376314183073373e-09 
 -1.7834022991504836e-09  -1.8303788295383453e-09  -1.8785927674838828e-09  -1.9280767075393944e-09 
 -1.9788641028319810e-09  -2.0309892876795141e-09  -2.0844875008020411e-09  -2.1393949091447057e-09 
 -2.1957486323288909e-09  -2.2535867677460012e-09  -2.3129484163138275e-09  -2.3738737089100601e-09 
 -2.4364038335031110e-09  -2.5005810629966895e-09  -2.5664487838088961e-09  -2.6340515252032359e-09 
 -2.7034349893921390e-09  -2.7746460824349939e-09  -2.8477329459479240e-09  -2.9227449896502476e-09 
 -2.9997329247678646e-09  -3.0787487983173533e-09  -3.1598460282909178e-09  -3.2430794397705284e-09 
 -3.3285053019931759e-09  -3.4161813663902072e-09  -3.5061669056315750e-09  -3.5985227536964916e-09 
 -3.6933113470008879e-09  -3.7905967666076562e-09  -3.8904447815486602e-09  -3.9929228932880323e-09 
 -4.0981003813575578e-09  -4.2060483501923107e-09  -4.3168397772023987e-09  -4.4305495621087360e-09 
 -4.5472545775800712e-09  -4.6670337212028589e-09  -4.7899679688207370e-09  -4.9161404292791175e-09 
 -5.0456364006103055e-09  -5.1785434277023892e-09  -5.3149513614826203e-09  -5.4549524196618569e-09 
 -5.5986412490817567e-09  -5.7461149896986658e-09  -5.8974733402586853e-09  -6.0528186256987693e-09 
 -6.2122558663248529e-09  -6.3758928488134178e-09  -6.5438401990806955e-09  -6.7162114570737185e-09 
 -6.8931231535309624e-09  -7.0746948887635595e-09  -7.2610494135152756e-09  -7.4523127119478546e-09 
 -7.6486140868166508e-09  -7.8500862468874444e-09  -8.0568653966572613e-09  -8.2690913284371199e-09 
 -8.4869075168646647e-09  -8.7104612158987155e-09  -8.9399035583777721e-09  -9.1753896581959094e-09 
 -9.4170787151700949e-09  -9.6651341226728045e-09  -9.9197235780988862e-09  -1.0181019196240813e-08 
 -1.0449197625652073e-08  -1.0724440168077439e-08  -1.1006932901025895e-08  -1.1296866803575277e-08 
 -1.1594437885490053e-08  -1.1899847319739946e-08  -1.2213301578512084e-08  -1.2535012572801342e-08 
 -1.2865197795683836e-08  -1.3204080469360745e-08  -1.3551889696075983e-08  -1.3908860613012045e-08 
 -1.4275234551265371e-08  -1.4651259199006366e-08  -1.5037188768944392e-08  -1.5433284170198920e-08 
 -1.5839813184699748e-08  -1.6257050648237194e-08  -1.6685278636275810e-08  -1.7124786654671987e-08 
 -1.7575871835407923e-08  -1.8038839137485774e-08  -1.8514001553113110e-08  -1.9001680319325546e-08 
 -1.9502205135173264e-08  -2.0015914384638682e-08  -2.0543155365429036e-08  -2.1084284523784770e-08 
 -2.1639667695483861e-08  -2.2209680353194107e-08  -2.2794707860342474e-08  -2.3395145731663260e-08 
 -2.4011399900626182e-08  -2.4643886993902427e-08  -2.5293034613055376e-08  -2.5959281623664520e-08 
 -2.6643078452060515e-08  -2.7344887389881554e-08  -2.8065182906641619e-08  -2.8804451970556327e-08 
 -2.9563194377804620e-08  -3.0341923090462834e-08  -3.1141164583360260e-08  -3.1961459200056577e-08 
 -3.2803361518205749e-08  -3.3667440724546227e-08  -3.4554280999767033e-08  -3.5464481913524772e-08 
 -3.6398658829855533e-08  -3.7357443323274095e-08  -3.8341483605849465e-08  -3.9351444965505264e-08 
 -4.0388010215895881e-08  -4.1451880158128420e-08  -4.2543774054637570e-08  -4.3664430115569795e-08 
 -4.4814605997965243e-08  -4.5995079318106418e-08  -4.7206648177352891e-08  -4.8450131701846682e-08 
 -4.9726370596435441e-08  -5.1036227713182912e-08  -5.2380588634876035e-08  -5.3760362273889595e-08 
 -5.5176481486863628e-08  -5.6629903705535323e-08  -5.8121611584234630e-08  -5.9652613664422713e-08 
 -6.1223945056742689e-08  -6.2836668141063261e-08  -6.4491873284943202e-08  -6.6190679581060169e-08 
 -6.7934235604052716e-08  -6.9723720187315724e-08  -7.1560343220272215e-08  -7.3445346466655085e-08 
 -7.5380004404358949e-08  -7.7365625087417105e-08  -7.9403551030718020e-08  -8.1495160118011344e-08 
 -8.3641866533877911e-08  -8.5845121720259089e-08  -8.8106415358164009e-08  -9.0427276375311036e-08 
 -9.2809273980286468e-08  -9.5254018723974690e-08  -9.7763163588997842e-08  -1.0033840510780975e-07 
 -1.0298148451035412e-07  -1.0569418890187854e-07  -1.0847835247189996e-07  -1.1133585773494767e-07 
 -1.1426863680410360e-07  -1.1727867269804397e-07  -1.2036800068259541e-07  -1.2353870964766993e-07 
 -1.2679294352040253e-07  -1.3013290271572800e-07  -1.3356084562502273e-07  -1.3707909014412410e-07 
 -1.4069001524161972e-07  -1.4439606256841623e-07  -1.4819973810989214e-07  -1.5210361388146780e-07 
 -1.5611032966904386e-07  -1.6022259481522008e-07  -1.6444319005264930e-07  -1.6877496938586548e-07 
 -1.7322086202254361e-07  -1.7778387435586641e-07  -1.8246709199912682e-07  -1.8727368187398622e-07 
 -1.9220689435382425e-07  -1.9727006546366305e-07  -2.0246661913813456e-07  -2.0780006953896535e-07 
 -2.1327402343359432e-07  -2.1889218263674669e-07  -2.2465834651611262e-07  -2.3057641456444831e-07 
 -2.3665038903935733e-07  -2.4288437767281670e-07  -2.4928259645222180e-07  -2.5584937247476319e-07 
 -2.6258914687724492e-07  -2.6950647784317473e-07  -2.7660604368919495e-07  -2.8389264603311031e-07 
 -2.9137121304543532e-07  -2.9904680278686191e-07  -3.0692460663381911e-07  -3.1500995279447672e-07 
 -3.2330830991767693e-07  -3.3182529079699918e-07  -3.4056665617284377e-07  -3.4953831863484778e-07 
 -3.5874634662733159e-07  -3.6819696856072606e-07  -3.7789657703132951e-07  -3.8785173315291460e-07 
 -3.9806917100238501e-07  -4.0855580218335465e-07  -4.1931872050986914e-07  -4.3036520681425307e-07 
 -4.4170273388187952e-07  -4.5333897151642210e-07  -4.6528179173903157e-07  -4.7753927412482697e-07 
 -4.9011971128083886e-07  -5.0303161446826745e-07  -5.1628371937407437e-07  -5.2988499203460202e-07 
 -5.4384463491640178e-07  -5.5817209315750831e-07  -5.7287706097421924e-07  -5.8796948823707456e-07 
 -6.0345958722109695e-07  -6.1935783953463397e-07  -6.3567500323150476e-07  -6.5242212011156660e-07 
 -6.6961052321447929e-07  -6.8725184451210181e-07  -7.0535802280428810e-07  -7.2394131182413532e-07 
 -7.4301428855783840e-07  -7.6258986178504790e-07  -7.8268128084537869e-07  -8.0330214463749314e-07 
 -8.2446641085663991e-07  -8.4618840547700186e-07  -8.6848283248577213e-07  -8.9136478387520579e-07 
 -9.1484974989943459e-07  -9.3895362960434759e-07  -9.6369274163573233e-07  -9.8908383533509481e-07 
 -1.0151441021298388e-06  -1.0418911872256731e-06  -1.0693432016099438e-06  -1.0975187343733519e-06 
 -1.1264368653594951e-06  -1.1561171781503273e-06  -1.1865797733967337e-06  -1.2178452825038831e-06 
 -1.2499348816801176e-06  -1.2828703063598178e-06  -1.3166738660100315e-06  -1.3513684593310433e-06 
 -1.3869775898616770e-06  -1.4235253820002547e-06  -1.4610365974520204e-06  -1.4995366521152746e-06 
 -1.5390516334170454e-06  -1.5796083181110962e-06  -1.6212341905510481e-06  -1.6639574614502366e-06 
 -1.7078070871427286e-06  -1.7528127893581773e-06  -1.7990050755250721e-06  -1.8464152596160640e-06 
 -1.8950754835505875e-06  -1.9450187391694675e-06  -1.9962788907972966e-06  -2.0488906984083291e-06 
 -2.1028898414127178e-06  -2.1583129430789432e-06  -2.2151975956113069e-06  -2.2735823858989506e-06 
 -2.3335069219552217e-06  -2.3950118600662576e-06  -2.4581389326679600e-06  -2.5229309769719916e-06 
 -2.5894319643597743e-06  -2.6576870305667838e-06  -2.7277425066789070e-06  -2.7996459509619091e-06 
 -2.8734461815481671e-06  -2.9491933100027661e-06  -3.0269387757957196e-06  -3.1067353817017191e-06 
 -3.1886373301563051e-06  -3.2727002605928004e-06  -3.3589812877872582e-06  -3.4475390412410962e-06 
 -3.5384337056272728e-06  -3.6317270623325070e-06  -3.7274825321231497e-06  -3.8257652189681846e-06 
 -3.9266419550507395e-06  -4.0301813470005965e-06  -4.1364538233824371e-06  -4.2455316834756642e-06 
 -4.3574891473799230e-06  -4.4724024074857350e-06  -4.5903496813459495e-06  -4.7114112659920509e-06 
 -4.8356695937292186e-06  -4.9632092894564003e-06  -5.0941172295563183e-06  -5.2284826023941331e-06 
 -5.3663969704736225e-06  -5.5079543342988232e-06  -5.6532511979875452e-06  -5.8023866366876433e-06 
 -5.9554623658469734e-06  -6.1125828123913560e-06  -6.2738551878639223e-06  -6.4393895635805395e-06 
 -6.6092989478647411e-06  -6.7836993654157205e-06  -6.9627099388737777e-06  -7.1464529726492128e-06 
 -7.3350540390749964e-06  -7.5286420669543081e-06  -7.7273494325742497e-06  -7.9313120532504433e-06 
 -8.1406694834875007e-06  -8.3555650138199551e-06  -8.5761457724222675e-06  -8.8025628295653360e-06 
 -9.0349713050023745e-06  -9.2735304783716188e-06  -9.5184039027088990e-06  -9.7697595211567130e-06 
 -1.0027769786970193e-05  -1.0292611786914286e-05  -1.0564467368157826e-05  -1.0843523268767056e-05 
 -1.1129971251907457e-05  -1.1424008243865310e-05  -1.1725836476007917e-05  -1.2035663630798151e-05 
 -1.2353702991989436e-05  -1.2680173599128069e-05  -1.3015300406494705e-05  -1.3359314446623432e-05 
 -1.3712452998536089e-05  -1.4074959760843353e-05  -1.4447085029855619e-05  -1.4829085882867456e-05 
 -1.5221226366776175e-05  -1.5623777692193225e-05  -1.6037018433235799e-05  -1.6461234733162402e-05 
 -1.6896720516050898e-05  -1.7343777704702442e-05  -1.7802716444970970e-05  -1.8273855336729219e-05 
 -1.8757521671677420e-05  -1.9254051678218639e-05  -1.9763790773631089e-05  -2.0287093823769237e-05 
 -2.0824325410543627e-05  -2.1375860107431049e-05  -2.1942082763284732e-05  -2.2523388794700994e-05 
 -2.3120184487251643e-05  -2.3732887305854560e-05  -2.4361926214589582e-05  -2.5007742006293095e-05 
 -2.5670787642237636e-05  -2.6351528602250563e-05  -2.7050443245615918e-05  -2.7768023183140580e-05 
 -2.8504773660742086e-05  -2.9261213954981990e-05  -3.0037877780922300e-05  -3.0835313712771268e-05 
 -3.1654085617714624e-05  -3.2494773103435353e-05  -3.3357971979763148e-05  -3.4244294734993091e-05 
 -3.5154371027329454e-05  -3.6088848192060998e-05  -3.7048391764957926e-05  -3.8033686022533384e-05 
 -3.9045434539708595e-05  -4.0084360765571664e-05  -4.1151208617837767e-05  -4.2246743096695188e-05 
 -4.3371750918774687e-05  -4.4527041171936190e-05  -4.5713445991660250e-05  -4.6931821259837027e-05 
 -4.8183047326784103e-05  -4.9468029757342154e-05  -5.0787700101964107e-05  -5.2143016693730706e-05 
 -5.3534965472244428e-05  -5.4964560835456232e-05  -5.6432846520447623e-05  -5.7940896514287006e-05 
 -5.9489815996108661e-05  -6.1080742311607708e-05  -6.2714845981181697e-05  -6.4393331743062794e-05 
 -6.6117439632755199e-05  -6.7888446100198649e-05  -6.9707665166126337e-05  -7.1576449619222869e-05 
 -7.3496192255525453e-05  -7.5468327161949607e-05  -7.7494331045484103e-05  -7.9575724610019756e-05 
 -8.1714073982621757e-05  -8.3910992191269643e-05  -8.6168140696093670e-05  -8.8487230976325883e-05 
 -9.0870026175125099e-05  -9.3318342804709915e-05  -9.5834052514178191e-05  -9.8419083922609809e-05 
 -1.0107542452015910e-04  -1.0380512263977174e-04  -1.0661028950264957e-04  -1.0949310134030525e-04 
 -1.1245580159652223e-04  -1.1550070321239282e-04  -1.1863019099802453e-04  -1.2184672409440870e-04 
 -1.2515283852925928e-04  -1.2855114987083205e-04  -1.3204435598364114e-04  -1.3563523989053934e-04 
 -1.3932667274555371e-04  -1.4312161692213595e-04  -1.4702312922178614e-04  -1.5103436420799561e-04 
 -1.5515857767101505e-04  -1.5939913022880832e-04  -1.6375949107014373e-04  -1.6824324184578932e-04 
 -1.7285408071408050e-04  -1.7759582654763205e-04  -1.8247242330786504e-04  -1.8748794459464790e-04 
 -1.9264659837850621e-04  -1.9795273192331839e-04  -2.0341083690744125e-04  -2.0902555475202993e-04 
 -2.1480168216531299e-04  -2.2074417691201183e-04  -2.2685816381777657e-04  -2.3314894101854162e-04 
 -2.3962198646543153e-04  -2.4628296469599958e-04  -2.5313773388356656e-04  -2.6019235317615934e-04 
 -2.6745309033777075e-04  -2.7492642970476530e-04  -2.8261908047091141e-04  -2.9053798531502515e-04 
 -2.9869032938597135e-04  -3.0708354966019408e-04  -3.1572534468740491e-04  -3.2462368474139847e-04 
 -3.3378682239261254e-04  -3.4322330352057974e-04  -3.5294197878488182e-04  -3.6295201557350862e-04 
 -3.7326291044917907e-04  -3.8388450211400578e-04  -3.9482698491431864e-04  -4.0610092290815675e-04 
 -4.1771726451840887e-04  -4.2968735779621236e-04  -4.4202296631912685e-04  -4.5473628575051517e-04 
 -4.6783996108677446e-04  -4.8134710461999932e-04  -4.9527131464558284e-04  -5.0962669494366013e-04 
 -5.2442787506584894e-04  -5.3969003145877060e-04  -5.5542890945723062e-04  -5.7166084618081171e-04 
 -5.8840279436885425e-04  -6.0567234718995997e-04  -6.2348776406241364e-04  -6.4186799752420046e-04 
 -6.6083272119121285e-04  -6.8040235884375797e-04  -7.0059811468271295e-04  -7.2144200479701097e-04 
 -7.4295688988567146e-04  -7.6516650927796774e-04  -7.8809551629709367e-04  -8.1176951501200933e-04 
 -8.3621509842471430e-04  -8.6145988813893454e-04  -8.8753257555884539e-04  -9.1446296466503774e-04 
 -9.4228201641634085e-04  -9.7102189482667172e-04  -1.0007160147649790e-03  -1.0313990915275242e-03 
 -1.0631071922308627e-03  -1.0958777890733558e-03  -1.1297498145135128e-03  -1.1647637184102010e-03 
 -1.2009615271718933e-03  -1.2383869049576643e-03  -1.2770852169724808e-03  -1.3171035948966873e-03 
 -1.3584910044883399e-03  -1.4012983153904512e-03  -1.4455783731775859e-03  -1.4913860736660367e-03 
 -1.5387784395128178e-03  -1.5878146991192277e-03  -1.6385563678530560e-03  -1.6910673315931569e-03 
 -1.7454139325962753e-03  -1.8016650576764019e-03  -1.8598922286782601e-03  -1.9201696952168916e-03 
 -1.9825745296451125e-03  -2.0471867241982074e-03  -2.1140892902519470e-03  -2.1833683596169501e-03 
 -2.2551132877759957e-03  -2.3294167589544734e-03  -2.4063748928956291e-03  -2.4860873531930825e-03 
 -2.5686574570091734e-03  -2.6541922859899991e-03  -2.7428027981545667e-03  -2.8346039405172975e-03 
 -2.9297147621677256e-03  -3.0282585275031759e-03  -3.1303628292763783e-03  -3.2361597010840660e-03 
 -3.3457857288848457e-03  -3.4593821610946099e-03  -3.5770950167645205e-03  -3.6990751913010735e-03 
 -3.8254785591390434e-03  -3.9564660727305504e-03  -4.0922038571541801e-03  -4.2328632995965740e-03 
 -4.3786211328999802e-03  -4.5296595123036146e-03  -4.6861660844456521e-03  -4.8483340476256718e-03 
 -5.0163622022572118e-03  -5.1904549903670130e-03  -5.3708225229258917e-03  -5.5576805937233090e-03 
 -5.7512506784088901e-03  -5.9517599172651935e-03  -6.1594410801735942e-03  -6.3745325121760208e-03 
 -6.5972780579446307e-03  -6.8279269633927898e-03  -7.0667337525911053e-03  -7.3139580780718742e-03 
 -7.5698645425307251e-03  -7.8347224898838840e-03  -8.1088057635548948e-03  -8.3923924298310477e-03 
 -8.6857644640715923e-03  -8.9892073975242712e-03  -9.3030099224675651e-03  -9.6274634534086068e-03 
 -9.9628616420457845e-03  -1.0309499843750760e-02  -1.0667674533358200e-02  -1.1037682668114970e-02 
 -1.1419820995749123e-02  -1.1814385305716001e-02  -1.2221669621858737e-02  -1.2641965334888572e-02 
 -1.3075560273325570e-02  -1.3522737711815383e-02  -1.3983775316037389e-02  -1.4458944023800114e-02 
 -1.4948506862324115e-02  -1.5452717702198419e-02  -1.5971819949027709e-02  -1.6506045174376028e-02 
 -1.7055611688310306e-02  -1.7620723056551057e-02  -1.8201566566074641e-02  -1.8798311643901007e-02 
 -1.9411108234759888e-02  -2.0040085144382807e-02  -2.0685348356309106e-02  -2.1346979331298619e-02 
 -2.2025033299737606e-02  -2.2719537558793891e-02  -2.3430489787547991e-02  -2.4157856394793738e-02 
 -2.4901570915838094e-02  -2.5661532476220297e-02  -2.6437604341968315e-02  -2.7229612577713010e-02 
 -2.8037344835712019e-02  -2.8860549300536237e-02  -2.9698933815904414e-02  -3.0552165221766781e-02 
 -3.1419868931345282e-02  -3.2301628779289070e-02  -3.3196987173468764e-02  -3.4105445584059979e-02 
 -3.5026465404537750e-02  -3.5959469219878526e-02  -3.6903842517645537e-02  -3.7858935877639159e-02 
 -3.8824067675418315e-02  -3.9798527334105369e-02  -4.0781579157478889e-02  -4.1772466775395471e-02 
 -4.2770418229863820e-02  -4.3774651726737474e-02  -4.4784382073808852e-02  -4.5798827821005951e-02 
 -4.6817219112451743e-02  -4.7838806253165223e-02  -4.8862868985158139e-02  -4.9888726458584332e-02 
 -5.0915747873298098e-02  -5.1943363754752135e-02  -5.2971077815433289e-02  -5.3998479339177223e-02 
 -5.5025256010489257e-02  -5.6051207094661028e-02  -5.7076256856922344e-02  -5.8100468090122710e-02 
 -5.9124055600833787e-02  -6.0147399483004148e-02  -6.1171057987019294e-02  -6.2195779769963239e-02 
 -6.3222515290625503e-02  -6.4252427090401798e-02  -6.5286898679136007e-02  -6.6327541723532377e-02 
 -6.7376201215393061e-02  -6.8434958278223657e-02  -6.9506130254227402e-02  -7.0592267699953304e-02 
 -7.1696147908755545e-02  -7.2820764572403274e-02  -7.3969313193569475e-02  -7.5145171866453725e-02 
 -7.6351877055542611e-02  -7.7593094023244866e-02  -7.8872581587395435e-02  -8.0194150930124539e-02 
 -8.1561618231502889e-02  -8.2978750966236345e-02  -8.4449207779682206e-02  -8.5976471952527042e-02 
 -8.7563778571350281e-02  -8.9214035646545536e-02  -9.0929739559009404e-02  -9.2712885373258461e-02 
 -9.4564872726358745e-02  -9.6486408187969872e-02  -9.8477405185679753e-02  -1.0053688279853527e-01 
 -1.0266286493753314e-01  -1.0485228164994209e-01  -1.0710087449978262e-01  -1.0940310818292170e-01 
 -1.1175209072421852e-01  -1.1413950476760913e-01  -1.1655555259718621e-01  -1.1898893819579168e-01 
 -1.2142676740819239e-01  -1.2385466842394748e-01  -1.2625674196172793e-01  -1.2861561289360571e-01 
 -1.3091259399191205e-01  -1.3312767956607605e-01  -1.3523976662705520e-01  -1.3722681098212705e-01 
 -1.3906603281909038e-01  -1.4073415092662531e-01  -1.4220764277446324e-01  -1.4346302619812587e-01 
 -1.4447715691413826e-01  -1.4522753504859118e-01  -1.4569261182421669e-01  -1.4585208662876992e-01 
 -1.4568718286458635e-01  -1.4518089018845143e-01  -1.4431815934345288e-01  -1.4308603571392553e-01 
 -1.4147371704778286e-01  -1.3947252160083420e-01  -1.3707575383662471e-01  -1.3427845667224814e-01 
 -1.3107704213079591e-01  -1.2746879575661127e-01  -1.2345125501834327e-01  -1.1902146756504148e-01 
 -1.1417514210091456e-01  -1.0890571222214435e-01  -1.0320334224174152e-01  -9.7053913159949878e-02 
 -9.0438036334741165e-02  -8.3330151886437526e-02  -7.5697777549803377e-02  -6.7500981391429793e-02 
 -5.8692157341625091e-02  -4.9216185782025142e-02  -3.9011060493052099e-02  -2.8009058855925681e-02 
 -1.6138521443495906e-02  -3.3262912447239367e-03  1.0499160473523976e-02  2.5403924770969640e-02 
 4.1444202346171057e-02  5.8661292050981695e-02  7.7076154758753138e-02  9.6683740649247313e-02 
 1.1744732421630553e-01  1.3929314513087215e-01  1.6210570327897675e-01  1.8572409544204629e-01 
 2.0993980632468254e-01  2.3449637147522201e-01  2.5909130910596478e-01  2.8338066658531008e-01 
 3.0698644223163080e-01  3.2950702018338507e-01  3.5053059587037161e-01  3.6965137329182673e-01 
 3.8648808802099277e-01  4.0070416006886722e-01  4.1202852099117193e-01  4.2027590631994677e-01 
 4.2536517857189649e-01  4.2733407219872904e-01  4.2634865752639062e-01  4.2270583626055691e-01 
 4.1682733486294260e-01  4.0924398177024773e-01  4.0056955855568527e-01  3.9146421281608185e-01 
 3.8258830244517328e-01  3.7454857670218478e-01  3.6783973090452438e-01  3.6278551099417777e-01 
 3.5948457443996917e-01  3.5776709317082500e-01  3.5716845612720621e-01  3.5692623981873373e-01 
 3.5600573306109712e-01  3.5315764155177259e-01  3.4700914354510626e-01  3.3618629079758472e-01 
 3.1946202201665125e-01  2.9592005274597710e-01  2.6512099533261541e-01  2.2725369587922714e-01 
 1.8325246021049846e-01  1.3486012134856806e-01  8.4618311766281512e-02  3.5770322277145182e-02 
 -7.9311352113726977e-03  -4.2508917970720275e-02  -6.4125424221729385e-02  -6.9487378317209095e-02 
 -5.6341374016822314e-02  -2.3098129548144303e-02  2.3550250557904356e-02  4.0822464089172748e-02 
 4.2310977871698664e-02  2.9449134281844820e-02  3.9768184075701799e-03  -4.0582818434347929e-04 
 2.9165311511964644e-05  -1.3141267245623324e-05  -8.1813706506738428e-06  -7.9243127915719006e-06 
 -7.2222430166401911e-06  -6.5852770153954674e-06  -5.9681814601227918e-06  -5.3289203967787221e-06 
 -4.7964996646047140e-06  -4.2343147966693425e-06  -3.6982599042242452e-06  -3.1830014521077558e-06 
 -2.6890767714559899e-06  -2.2165535548699371e-06  -1.7653085653465179e-06  -1.3352764975368035e-06 
 -9.2629775940042260e-07  -5.3818779221040591e-07  -1.7071415112921900e-07  1.7638488698835495e-07 
 5.0340268651941757e-07  8.1065486024606431e-07  1.0984860351922771e-06  1.3672538795421249e-06 
 1.6173426707031627e-06  1.8491442155028883e-06  2.0631131075196069e-06  2.2596552271975231e-06 
 2.4391151749819770e-06  2.6023786815276078e-06  2.7496152019942658e-06  2.8809537585979813e-06 
 2.9977196495601947e-06  3.1048974996057438e-06  3.1484886502865882e-06  3.2653205437438533e-06 
 3.3254395194154767e-06  3.3780071348342075e-06  3.4187384739742565e-06  3.4486493346962449e-06 
 3.4682317744723839e-06  3.4780326420764037e-06  3.4785984632949907e-06  3.4704790138936711e-06 
 3.4542264866135492e-06  8.7968316167765212e-07  7.7955513461439535e-07  6.8704286108685994e-07 
 6.0192644381665412e-07  0.0000000000000000e+00  0.0000000000000000e+00  0.0000000000000000e+00 
 0.0000000000000000e+00  0.0000000000000000e+00  0.0000000000000000e+00  0.0000000000000000e+00 
 0.0000000000000000e+00  0.0000000000000000e+00  0.0000000000000000e+00  0.0000000000000000e+00 
 0.0000000000000000e+00  0.0000000000000000e+00  0.0000000000000000e+00  0.0000000000000000e+00 
 0.0000000000000000e+00  0.0000000000000000e+00  0.0000000000000000e+00  0.0000000000000000e+00 
 0.0000000000000000e+00  0.0000000000000000e+00  0.0000000000000000e+00  0.0000000000000000e+00 
 0.0000000000000000e+00  0.0000000000000000e+00  0.0000000000000000e+00  0.0000000000000000e+00 
 0.0000000000000000e+00  0.0000000000000000e+00  0.0000000000000000e+00  0.0000000000000000e+00 
 0.0000000000000000e+00  0.0000000000000000e+00  0.0000000000000000e+00  0.0000000000000000e+00 
 0.0000000000000000e+00  0.0000000000000000e+00  0.0000000000000000e+00  0.0000000000000000e+00 
 0.0000000000000000e+00  0.0000000000000000e+00  0.0000000000000000e+00  0.0000000000000000e+00 
 0.0000000000000000e+00  0.0000000000000000e+00  0.0000000000000000e+00  0.0000000000000000e+00 
 0.0000000000000000e+00  0.0000000000000000e+00  0.0000000000000000e+00  0.0000000000000000e+00 
 0.0000000000000000e+00  0.0000000000000000e+00  0.0000000000000000e+00  0.0000000000000000e+00 
 0.0000000000000000e+00  0.0000000000000000e+00  0.0000000000000000e+00  0.0000000000000000e+00 
 0.0000000000000000e+00  0.0000000000000000e+00  0.0000000000000000e+00  0.0000000000000000e+00 
 0.0000000000000000e+00  0.0000000000000000e+00  0.0000000000000000e+00  0.0000000000000000e+00 
 0.0000000000000000e+00  0.0000000000000000e+00  0.0000000000000000e+00  0.0000000000000000e+00 
 0.0000000000000000e+00  0.0000000000000000e+00  0.0000000000000000e+00  0.0000000000000000e+00 
 0.0000000000000000e+00  0.0000000000000000e+00  0.0000000000000000e+00  0.0000000000000000e+00 
 0.0000000000000000e+00  0.0000000000000000e+00  0.0000000000000000e+00  0.0000000000000000e+00 
 0.0000000000000000e+00  0.0000000000000000e+00  0.0000000000000000e+00  0.0000000000000000e+00 
 0.0000000000000000e+00  0.0000000000000000e+00  0.0000000000000000e+00  0.0000000000000000e+00 
 0.0000000000000000e+00  0.0000000000000000e+00  0.0000000000000000e+00  0.0000000000000000e+00 
 0.0000000000000000e+00  0.0000000000000000e+00  0.0000000000000000e+00  0.0000000000000000e+00 
 0.0000000000000000e+00  0.0000000000000000e+00  0.0000000000000000e+00  0.0000000000000000e+00 
 0.0000000000000000e+00  0.0000000000000000e+00  0.0000000000000000e+00  0.0000000000000000e+00 
 0.0000000000000000e+00  0.0000000000000000e+00  0.0000000000000000e+00  0.0000000000000000e+00 
 0.0000000000000000e+00  0.0000000000000000e+00  0.0000000000000000e+00  0.0000000000000000e+00 
 0.0000000000000000e+00  0.0000000000000000e+00  0.0000000000000000e+00  0.0000000000000000e+00 
 0.0000000000000000e+00  0.0000000000000000e+00  0.0000000000000000e+00  0.0000000000000000e+00 
 0.0000000000000000e+00  0.0000000000000000e+00  0.0000000000000000e+00  0.0000000000000000e+00 
 0.0000000000000000e+00  0.0000000000000000e+00  0.0000000000000000e+00  0.0000000000000000e+00 
 0.0000000000000000e+00  0.0000000000000000e+00  0.0000000000000000e+00  0.0000000000000000e+00 
 0.0000000000000000e+00  0.0000000000000000e+00  0.0000000000000000e+00  0.0000000000000000e+00 
 0.0000000000000000e+00  0.0000000000000000e+00  0.0000000000000000e+00  0.0000000000000000e+00 
 0.0000000000000000e+00  0.0000000000000000e+00  0.0000000000000000e+00  0.0000000000000000e+00 
 0.0000000000000000e+00  0.0000000000000000e+00  0.0000000000000000e+00  0.0000000000000000e+00 
 0.0000000000000000e+00  0.0000000000000000e+00  0.0000000000000000e+00  0.0000000000000000e+00 
 0.0000000000000000e+00  0.0000000000000000e+00  0.0000000000000000e+00  0.0000000000000000e+00 
 0.0000000000000000e+00  0.0000000000000000e+00  0.0000000000000000e+00  0.0000000000000000e+00 
 0.0000000000000000e+00  0.0000000000000000e+00  0.0000000000000000e+00  0.0000000000000000e+00 
 0.0000000000000000e+00  0.0000000000000000e+00  0.0000000000000000e+00  0.0000000000000000e+00 
 0.0000000000000000e+00  0.0000000000000000e+00  0.0000000000000000e+00  0.0000000000000000e+00 
 0.0000000000000000e+00  0.0000000000000000e+00  0.0000000000000000e+00  0.0000000000000000e+00 
 0.0000000000000000e+00  0.0000000000000000e+00  0.0000000000000000e+00  0.0000000000000000e+00 
 0.0000000000000000e+00  0.0000000000000000e+00  0.0000000000000000e+00  0.0000000000000000e+00 
 0.0000000000000000e+00  0.0000000000000000e+00  0.0000000000000000e+00  0.0000000000000000e+00 
 0.0000000000000000e+00  0.0000000000000000e+00  0.0000000000000000e+00  0.0000000000000000e+00 
 0.0000000000000000e+00  0.0000000000000000e+00  0.0000000000000000e+00  0.0000000000000000e+00 
 0.0000000000000000e+00  0.0000000000000000e+00  0.0000000000000000e+00  0.0000000000000000e+00 
 0.0000000000000000e+00  0.0000000000000000e+00  0.0000000000000000e+00  0.0000000000000000e+00 
 0.0000000000000000e+00  0.0000000000000000e+00  0.0000000000000000e+00  0.0000000000000000e+00 
 0.0000000000000000e+00  0.0000000000000000e+00  0.0000000000000000e+00  0.0000000000000000e+00 
 0.0000000000000000e+00  0.0000000000000000e+00  0.0000000000000000e+00  0.0000000000000000e+00 
 0.0000000000000000e+00  0.0000000000000000e+00  0.0000000000000000e+00  0.0000000000000000e+00 
 0.0000000000000000e+00  0.0000000000000000e+00  0.0000000000000000e+00  0.0000000000000000e+00 
 0.0000000000000000e+00  0.0000000000000000e+00  0.0000000000000000e+00  0.0000000000000000e+00 
 0.0000000000000000e+00  0.0000000000000000e+00  0.0000000000000000e+00  0.0000000000000000e+00 
 0.0000000000000000e+00  0.0000000000000000e+00  0.0000000000000000e+00  0.0000000000000000e+00 
 0.0000000000000000e+00  0.0000000000000000e+00  0.0000000000000000e+00  0.0000000000000000e+00 
 0.0000000000000000e+00  0.0000000000000000e+00  0.0000000000000000e+00  0.0000000000000000e+00 
 0.0000000000000000e+00  0.0000000000000000e+00  0.0000000000000000e+00  0.0000000000000000e+00 
 0.0000000000000000e+00  0.0000000000000000e+00  0.0000000000000000e+00  0.0000000000000000e+00 
 0.0000000000000000e+00  0.0000000000000000e+00 
  </PP_BETA>
  <PP_BETA>
  3  2      Beta    L
  1177  
 -4.9144622240876542e-12  -5.1099127637778518e-12  -5.3131364659718092e-12  -5.5244424731025014e-12 
 -5.7441522223470423e-12  -5.9725999345945695e-12  -6.2101331228606998e-12  -6.4571131209218068e-12 
 -6.7139156329733680e-12  -6.9809313051484878e-12  -7.2585663197660233e-12  -7.5472430132121526e-12 
 -7.8474005183954509e-12  -8.1594954327527773e-12  -8.4840025128219647e-12  -8.8214153964380694e-12 
 -9.1722473536517268e-12  -9.5370320675117926e-12  -9.9163244459002401e-12  -1.0310701465653999e-11 
 -1.0720763050258042e-11  -1.1147132982444576e-11  -1.1590459853086911e-11  -1.2051418047831305e-11 
 -1.2530708772967500e-11  -1.3029061122098644e-11  -1.3547233185233362e-11  -1.4086013201986766e-11 
 -1.4646220760644903e-11  -1.5228708044916685e-11  -1.5834361130269384e-11  -1.6464101331820614e-11 
 -1.7118886605835948e-11  -1.7799713006965347e-11  -1.8507616203434308e-11  -1.9243673052494892e-11 
 -2.0009003238533185e-11  -2.0804770976325422e-11  -2.1632186782032803e-11  -2.2492509314630410e-11 
 -2.3387047290569838e-11  -2.4317161474589499e-11  -2.5284266749700207e-11  -2.6289834269494906e-11 
 -2.7335393696057298e-11  -2.8422535526872423e-11  -2.9552913514280429e-11  -3.0728247181152673e-11 
 -3.1950324436617473e-11  -3.3221004295814729e-11  -3.4542219707816950e-11  -3.5915980496016550e-11 
 -3.7344376415455841e-11  -3.8829580331746840e-11  -4.0373851526419039e-11  -4.1979539133722488e-11 
 -4.3649085714114142e-11  -4.5385030969862578e-11  -4.7190015608426098e-11  -4.9066785359477046e-11 
 -5.1018195151687030e-11  -5.3047213455623619e-11  -5.5156926799366260e-11  -5.7350544463711427e-11 
 -5.9631403364107426e-11  -6.2002973126746180e-11  -6.4468861366534231e-11  -6.7032819174970509e-11 
 -6.9698746826280086e-11  -7.2470699710483851e-11  -7.5352894502428567e-11  -7.8349715576162397e-11 
 -8.1465721674414903e-11  -8.4705652843321758e-11  -8.8074437642951420e-11  -9.1577200644594355e-11 
 -9.5219270226225342e-11  -9.9006186677993391e-11  -1.0294371063007219e-10  -1.0703783181568984e-10 
 -1.1129477818266899e-10  -1.1572102536733579e-10  -1.2032330654521316e-10  -1.2510862267347850e-10 
 -1.3008425314077174e-10  -1.3525776684054831e-10  -1.4063703368482733e-10  -1.4623023657584574e-10 
 -1.5204588385383029e-10  -1.5809282223982758e-10  -1.6438025029326953e-10  -1.7091773240476090e-10 
 -1.7771521334536052e-10  -1.8478303339449739e-10  -1.9213194406953166e-10  -1.9977312448088576e-10 
 -2.0771819833763025e-10  -2.1597925162938712e-10  -2.2456885101145200e-10  -2.3350006292110259e-10 
 -2.4278647345417212e-10  -2.5244220903212101e-10  -2.6248195789105169e-10  -2.7292099242535078e-10 
 -2.8377519241994723e-10  -2.9506106920653121e-10  -3.0679579078047549e-10  -3.1899720791667233e-10 
 -3.3168388132400287e-10  -3.4487510987976634e-10  -3.5859095998698864e-10  -3.7285229609930111e-10 
 -3.8768081245979990e-10  -4.0309906610217991e-10  -4.1913051116433625e-10  -4.3579953456663339e-10 
 -4.5313149310912949e-10  -4.7115275204415274e-10  -4.8989072518295040e-10  -5.0937391659738310e-10 
 -5.2963196398012821e-10  -5.5069568372933031e-10  -5.7259711782629556e-10  -5.9536958257753043e-10 
 -6.1904771929528361e-10  -6.4366754699367095e-10  -6.6926651718055076e-10  -6.9588357082850716e-10 
 -7.2355919761158648e-10  -7.5233549749791815e-10  -7.8225624479189642e-10  -8.1336695472335889e-10 
 -8.4571495268503819e-10  -8.7934944622364164e-10  -9.1432159989402875e-10  -9.5068461309038495e-10 
 -9.8849380097279660e-10  -1.0278066786122816e-09  -1.0686830484823465e-09  -1.1111850914300995e-09 
 -1.1553774612653389e-09  -1.2013273831115078e-09  -1.2491047556680899e-09  -1.2987822575400615e-09 
 -1.3504354577960957e-09  -1.4041429309237299e-09  -1.4599863763563640e-09  -1.5180507427538972e-09 
 -1.5784243572260763e-09  -1.6411990596951099e-09  -1.7064703426019651e-09  -1.7743374961688451e-09 
 -1.8449037594388418e-09  -1.9182764773224686e-09  -1.9945672638900913e-09  -2.0738921721585006e-09 
 -2.1563718706300245e-09  -2.2421318268526850e-09  -2.3313024982806488e-09  -2.4240195307252573e-09 
 -2.5204239646985829e-09  -2.6206624499633599e-09  -2.7248874686157209e-09  -2.8332575670399540e-09 
 -2.9459375970883233e-09  -3.0630989668526386e-09  -3.1849199014092380e-09  -3.3115857139338339e-09 
 -3.4432890875988116e-09  -3.5802303686816928e-09  -3.7226178713306486e-09  -3.8706681944507708e-09 
 -4.0246065511930103e-09  -4.1846671115470614e-09  -4.3510933585593676e-09  -4.5241384587181296e-09 
 -4.7040656470686172e-09  -4.8911486276448599e-09  -5.0856719898265599e-09  -5.2879316412548849e-09 
 -5.4982352579654345e-09  -5.7169027524233187e-09  -5.9442667601721320e-09  -6.1806731458373510e-09 
 -6.4264815292536348e-09  -6.6820658325165337e-09  -6.9478148487907845e-09  -7.2241328337403126e-09 
 -7.5114401204797511e-09  -7.8101737589830360e-09  -8.1207881809214356e-09  -8.4437558909426380e-09 
 -8.7795681854423751e-09  -9.1287358999220634e-09  -9.4917901860690551e-09  -9.8692833197420069e-09 
 -1.0261789541090146e-08  -1.0669905928084617e-08  -1.1094253304790480e-08  -1.1535477185761484e-08 
 -1.1994248757993715e-08  -1.2471265901931998e-08  -1.2967254253082636e-08  -1.3482968305846771e-08 
 -1.4019192561253950e-08  -1.4576742720341640e-08  -1.5156466924996096e-08  -1.5759247048142406e-08 
 -1.6386000035245804e-08  -1.7037679299165367e-08  -1.7715276170481983e-08  -1.8419821405506513e-08 
 -1.9152386754262338e-08  -1.9914086590827752e-08  -2.0706079608517408e-08  -2.1529570582482806e-08 
 -2.2385812202412005e-08  -2.3276106978117186e-08  -2.4201809220908101e-08  -2.5164327103766358e-08 
 -2.6165124803454061e-08  -2.7205724727815026e-08  -2.8287709831657540e-08  -2.9412726024740769e-08 
 -3.0582484675528864e-08  -3.1798765214520147e-08  -3.3063417841112789e-08  -3.4378366338124517e-08 
 -3.5745610998246251e-08  -3.7167231666884453e-08  -3.8645390906017726e-08  -4.0182337283882947e-08 
 -4.1780408795493777e-08  -4.3442036419195306e-08  -4.5169747814666246e-08  -4.6966171167991419e-08 
 -4.8834039189657091e-08  -5.0776193271547218e-08  -5.2795587809268687e-08  -5.4895294696375721e-08 
 -5.7078507997334559e-08  -5.9348548806334707e-08  -6.1708870299337266e-08  -6.4163062987048489e-08 
 -6.6714860176806779e-08  -6.9368143651692570e-08  -7.2126949575501192e-08  -7.4995474632559907e-08 
 -7.7978082411731233e-08  -8.1079310044310498e-08  -8.4303875105920168e-08  -8.7656682792895035e-08 
 -9.1142833384079639e-08  -9.4767629999385835e-08  -9.8536586666914605e-08  -1.0245543671091359e-07 
 -1.0653014147332882e-07  -1.1076689938222274e-07  -1.1517215538084576e-07  -1.1975261073171385e-07 
 -1.2451523321059965e-07  -1.2946726770594737e-07  -1.3461624723983631e-07  -1.3997000442725572e-07 
 -1.4553668339112596e-07  -1.5132475215118984e-07  -1.5734301550561870e-07  -1.6360062842493783e-07 
 -1.7010710997863103e-07  -1.7687235781562467e-07  -1.8390666322067384e-07  -1.9122072676955164e-07 
 -1.9882567460686183e-07  -2.0673307537123393e-07  -2.1495495779365395e-07  -2.2350382899569115e-07 
 -2.3239269351546477e-07  -2.4163507309030113e-07  -2.5124502722614974e-07  -2.6123717458508303e-07 
 -2.7162671522339038e-07  -2.8242945371410192e-07  -2.9366182318912842e-07  -3.0534091033757463e-07 
 -3.1748448139826760e-07  -3.3011100918603553e-07  -3.4323970119285010e-07  -3.5689052880658588e-07 
 -3.7108425769184285e-07  -3.8584247937904821e-07  -4.0118764410989928e-07  -4.1714309498909979e-07 
 -4.3373310349436823e-07  -4.5098290639870538e-07  -4.6891874416112032e-07  -4.8756790084420505e-07 
 -5.0695874561926985e-07  -5.2712077592221610e-07  -5.4808466232575155e-07  -5.6988229519625772e-07 
 -5.9254683320624447e-07  -6.1611275377624250e-07  -6.4061590552281081e-07  -6.6609356279250415e-07 
 -6.9258448236472781e-07  -7.2012896240974628e-07  -7.4876890379156488e-07  -7.7854787380889228e-07 
 -8.0951117247122160e-07  -8.4170590141077460e-07  -8.7518103553524936e-07  -9.0998749753024796e-07 
 -9.4617823532486770e-07  -9.8380830263817966e-07  -1.0229349427292209e-06  -1.0636176754778531e-06 
 -1.1059183879290185e-06  -1.1499014284380889e-06  -1.1956337045605710e-06  -1.2431847848350844e-06 
 -1.2926270046144250e-06  -1.3440355761058112e-06  -1.3974887027875940e-06  -1.4530676983766066e-06 
 -1.5108571105271034e-06  -1.5709448494494687e-06  -1.6334223216443984e-06  -1.6983845689559995e-06 
 -1.7659304131553734e-06  -1.8361626062745951e-06  -1.9091879869199325e-06  -1.9851176428019645e-06 
 -2.0640670797299526e-06  -2.1461563973276387e-06  -2.2315104717376252e-06  -2.3202591455924953e-06 
 -2.4125374255416000e-06  -2.5084856876340428e-06  -2.6082498908703558e-06  -2.7119817992478060e-06 
 -2.8198392126370505e-06  -2.9319862068415723e-06  -3.0485933832049787e-06  -3.1698381281460670e-06 
 -3.2959048830164042e-06  -3.4269854246911374e-06  -3.5632791573198726e-06  -3.7049934156814613e-06 
 -3.8523437806044710e-06  -4.0055544069329630e-06  -4.1648583645368367e-06  -4.3304979928854457e-06 
 -4.5027252697240592e-06  -4.6818021944140762e-06  -4.8680011865203667e-06  -5.0616055002520711e-06 
 -5.2629096553875498e-06  -5.4722198853392646e-06  -5.6898546030401469e-06  -5.9161448853605295e-06 
 -6.1514349767927016e-06  -6.3960828131694734e-06  -6.6504605662137068e-06  -6.9149552097473671e-06 
 -7.1899691084218283e-06  -7.4759206298649901e-06  -7.7732447811771630e-06  -8.0823938707438439e-06 
 -8.4038381963727300e-06  -8.7380667608020072e-06  -9.0855880156688580e-06  -9.4469306350702703e-06 
 -9.8226443198933124e-06  -1.0213300634138871e-05  -1.0619493874511705e-05  -1.1041841974600182e-05 
 -1.1480987445021480e-05  -1.1937598350963223e-05  -1.2412369328609368e-05  -1.2906022641996862e-05 
 -1.3419309281911933e-05  -1.3953010108498191e-05  -1.4507937039315541e-05  -1.5084934284658236e-05 
 -1.5684879632012199e-05  -1.6308685781606588e-05  -1.6957301735091947e-05  -1.7631714239459336e-05 
 -1.8332949288397665e-05  -1.9062073683374558e-05  -1.9820196656816977e-05  -2.0608471559862417e-05 
 -2.1428097617249118e-05  -2.2280321752018004e-05  -2.3166440482802019e-05  -2.4087801896592963e-05 
 -2.5045807699987105e-05  -2.6041915352033821e-05  -2.7077640281933140e-05  -2.8154558194958810e-05 
 -2.9274307470117381e-05  -3.0438591653192658e-05  -3.1649182048973567e-05  -3.2907920416608749e-05 
 -3.4216721772194345e-05  -3.5577577302860737e-05  -3.6992557396795740e-05  -3.8463814793817378e-05 
 -3.9993587861294225e-05  -4.1584204000401438e-05  -4.3238083187897917e-05  -4.4957741658821342e-05 
 -4.6745795735705071e-05  -4.8604965810151361e-05  -5.0538080482823906e-05  -5.2548080868162799e-05 
 -5.4638025070381739e-05  -5.6811092837560470e-05  -5.9070590400924678e-05  -6.1419955506681768e-05 
 -6.3862762648079515e-05  -6.6402728505653716e-05  -6.9043717603956505e-05  -7.1789748193378495e-05 
 -7.4644998366028262e-05  -7.7613812414984384e-05  -8.0700707446609862e-05  -8.3910380256003702e-05 
 -8.7247714476062786e-05  -9.0717788011051640e-05  -9.4325880766003441e-05  -9.8077482683731366e-05 
 -1.0197830210170049e-04  -1.0603427444149267e-04  -1.1025157124410922e-04  -1.1463660956488322e-04 
 -1.1919606174231929e-04  -1.2393686555575164e-04  -1.2886623478730708e-04  -1.3399167020426874e-04 
 -1.3932097097858989e-04  -1.4486224656095985e-04  -1.5062392902753658e-04  -1.5661478591816073e-04 
 -1.6284393358563745e-04  -1.6932085107643785e-04  -1.7605539456398635e-04  -1.8305781235655752e-04 
 -1.9033876050265992e-04  -1.9790931901771867e-04  -2.0578100875680969e-04  -2.1396580895918061e-04 
 -2.2247617549133304e-04  -2.3132505981649331e-04  -2.4052592871942543e-04  -2.5009278481667366e-04 
 -2.6004018788355475e-04  -2.7038327703043306e-04  -2.8113779376213289e-04  -2.9232010595569435e-04 
 -3.0394723279307019e-04  -3.1603687068683362e-04  -3.2860742023848135e-04  -3.4167801427050160e-04 
 -3.5526854697500809e-04  -3.6939970422347670e-04  -3.8409299508385819e-04  -3.9937078459323919e-04 
 -4.1525632783609423e-04  -4.3177380538022392e-04  -4.4894836012450494e-04  -4.6680613561478975e-04 
 -4.8537431588649156e-04  -5.0468116689477880e-04  -5.2475607959571189e-04  -5.4562961474418530e-04 
 -5.6733354947717703e-04  -5.8990092575355549e-04  -6.1336610072452817e-04  -6.3776479911177163e-04 
 -6.6313416767339807e-04  -6.8951283184108298e-04  -7.1694095461501681e-04  -7.4546029780684850e-04 
 -7.7511428572433691e-04  -8.0594807139522167e-04  -8.3800860543170868e-04  -8.7134470764103249e-04 
 -9.0600714149176298e-04  -9.4204869154994406e-04  -9.7952424400368299e-04  -1.0184908703995798e-03 
 -1.0590079147193576e-03  -1.1011370839301145e-03  -1.1449425421470455e-03  -1.1904910085530089e-03 
 -1.2378518592251139e-03  -1.2870972330244644e-03  -1.3383021417115437e-03  -1.3915445844562293e-03 
 -1.4469056669180129e-03  -1.5044697250794416e-03  -1.5643244540226268e-03  -1.6265610418467291e-03 
 -1.6912743089320115e-03  -1.7585628527643437e-03  -1.8285291985427068e-03  -1.9012799558010653e-03 
 -1.9769259812853568e-03  -2.0555825483358943e-03  -2.1373695230356999e-03  -2.2224115473955209e-03 
 -2.3108382298573857e-03  -2.4027843434096248e-03  -2.4983900316183213e-03  -2.5978010228921438e-03 
 -2.7011688533104127e-03  -2.8086510983574178e-03  -2.9204116139197843e-03  -3.0366207869181581e-03 
 -3.1574557959590677e-03  -3.2831008824087721e-03  -3.4137476323065387e-03  -3.5495952695521003e-03 
 -3.6908509608189971e-03  -3.8377301326640049e-03  -3.9904568013217128e-03  -4.1492639156925403e-03 
 -4.3143937140537715e-03  -4.4860980950432753e-03  -4.6646390034888524e-03  -4.8502888316782752e-03 
 -5.0433308366893033e-03  -5.2440595744240549e-03  -5.4527813510174827e-03  -5.6698146923169100e-03 
 -5.8954908321574712e-03  -6.1301542201875423e-03  -6.3741630500278703e-03  -6.6278898085804583e-03 
 -6.8917218473351551e-03  -7.1660619765561932e-03  -7.4513290832663604e-03  -7.7479587739829438e-03 
 -8.0564040431979657e-03  -8.3771359686344044e-03  -8.7106444343526702e-03  -9.0574388828221688e-03 
 -9.4180490971198499e-03  -9.7930260144617233e-03  -1.0182942572323491e-02  -1.0588394588453429e-02 
 -1.1010001676136871e-02  -1.1448408196119728e-02  -1.1904284246661279e-02  -1.2378326693237773e-02 
 -1.2871260239483821e-02  -1.3383838541018061e-02  -1.3916845363866644e-02  -1.4471095789263842e-02 
 -1.5047437466679754e-02  -1.5646751916997929e-02  -1.6269955887841064e-02  -1.6918002763119687e-02 
 -1.7591884028960690e-02  -1.8292630798257978e-02  -1.9021315396169802e-02  -1.9779053008983478e-02 
 -2.0567003398855171e-02  -2.1386372687034392e-02  -2.2238415208278232e-02  -2.3124435439268294e-02 
 -2.4045790003943426e-02  -2.5003889758781012e-02  -2.6000201961164239e-02  -2.7036252524097349e-02 
 -2.8113628360649689e-02  -2.9233979821635576e-02  -3.0399023230166269e-02  -3.1610543516844579e-02 
 -3.2870396959508601e-02  -3.4180514031574294e-02  -3.5542902363172889e-02  -3.6959649819423665e-02 
 -3.8432927700344857e-02  -3.9964994067054609e-02  -4.1558197199081992e-02  -4.3214979187769412e-02 
 -4.4937879670921256e-02  -4.6729539714021266e-02  -4.8592705843524243e-02  -5.0530234237903676e-02 
 -5.2545095082319151e-02  -5.4640377092958860e-02  -5.6819292217295543e-02  -5.9085180516689310e-02 
 -6.1441515237961063e-02  -6.3891908080757218e-02  -6.6440114667722178e-02  -6.9090040224683666e-02 
 -7.1845745478266942e-02  -7.4711452778529738e-02  -7.7691552454418181e-02  -8.0790609410024111e-02 
 -8.4013369969819507e-02  -8.7364768981212246e-02  -9.0849937182961249e-02  -9.4474208848138216e-02 
 -9.8243129710494786e-02  -1.0216246518324242e-01  -1.0623820887937786e-01  -1.1047659144282357e-01 
 -1.1488408969974288e-01  -1.1946743613949420e-01  -1.2423362873472113e-01  -1.2918994111017676e-01 
 -1.3434393306979406e-01  -1.3970346149162038e-01  -1.4527669160007073e-01  -1.5107210862492204e-01 
 -1.5709852985634334e-01  -1.6336511710503165e-01  -1.6988138957633897e-01  -1.7665723716695869e-01 
 -1.8370293419238887e-01  -1.9102915355299452e-01  -1.9864698134595354e-01  -2.0656793192983064e-01 
 -2.1480396344784070e-01  -2.2336749381507706e-01  -2.3227141717417676e-01  -2.4152912082286007e-01 
 -2.5115450261556421e-01  -2.6116198884048103e-01  -2.7156655257158147e-01  -2.8238373249371096e-01 
 -2.9362965219752862e-01  -3.0532103993854459e-01  -3.1747524885305384e-01  -3.3011027762101874e-01 
 -3.4324479156397519e-01  -3.5689814416266702e-01  -3.7109039897690244e-01  -3.8584235194622463e-01 
 -4.0117555404722521e-01  -4.1711233427886868e-01  -4.3367582294370516e-01  -4.5088997518829665e-01 
 -4.6877959476125775e-01  -4.8737035794299427e-01  -5.0668883759482430e-01  -5.2676252727073558e-01 
 -5.4761986532769336e-01  -5.6929025896494778e-01  -5.9180410811532991e-01  -6.1519282910477613e-01 
 -6.3948887798839993e-01  -6.6472577346343320e-01  -6.9093811925147208e-01  -7.1816162583314958e-01 
 -7.4643313140959744e-01  -7.7579062195559878e-01  -8.0627325021952012e-01  -8.3792135351520314e-01 
 -8.7077647014077519e-01  -9.0488135424827498e-01  -9.4027998897872300e-01  -9.7701759766449214e-01 
 -1.0151406528922033e+00  -1.0546968832070884e+00  -1.0957352772302611e+00  -1.1383060849489686e+00 
 -1.1824608159309951e+00  -1.2282522342042965e+00  -1.2757343495341984e+00  -1.3249624048222199e+00 
 -1.3759928593441575e+00  -1.4288833675376387e+00  -1.4836927530467714e+00  -1.5404809777257393e+00 
 -1.5993091053035673e+00  -1.6602392594125086e+00  -1.7233345756844678e+00  -1.7886591476251983e+00 
 -1.8562779659849356e+00  -1.9262568513529799e+00  -1.9986623797195178e+00  -2.0735618007650118e+00 
 -2.1510229486578494e+00  -2.2311141451674392e+00  -2.3139040949289984e+00  -2.3994617727298357e+00 
 -2.4878563027261569e+00  -2.5791568295419025e+00  -2.6734323812507488e+00  -2.7707517242940845e+00 
 -2.8711832104468908e+00  -2.9747946160062857e+00  -3.0816529734463152e+00  -3.1918243958527190e+00 
 -3.3053738945318258e+00  -3.4223651902645127e+00  -3.5428605187638160e+00  -3.6669204309789287e+00 
 -3.7946035889789069e+00  -3.9259665582383834e+00  -4.0610635972379168e+00  -4.1999464453805473e+00 
 -4.3426641103122625e+00  -4.4892626558168427e+00  -4.6397849915324123e+00  -4.7942706658060397e+00 
 -4.9527556630640861e+00  -5.1152722071242369e+00  -5.2818485719100305e+00  -5.4525089010505026e+00 
 -5.6272730378468747e+00  -5.8061563670712255e+00  -5.9891696700189225e+00  -6.1763189941711421e+00 
 -6.3676055387272514e+00  -6.5630255571438569e+00  -6.7625702776591883e+00  -6.9662258425911965e+00 
 -7.1739732669708021e+00  -7.3857884168080670e+00  -7.6016420069867943e+00  -7.8214996184416252e+00 
 -8.0453217338931928e+00  -8.2730637909966820e+00  -8.5046762513055807e+00  -8.7401046829604514e+00 
 -8.9792898544891102e+00  -9.2221678365537869e+00  -9.4686701079022590e+00  -9.7187236611873828e+00 
 -9.9722511037109403e+00  -1.0229170747539658e+01  -1.0489396682836260e+01  -1.0752838827662691e+01 
 -1.1019402946954491e+01  -1.1288990632851528e+01  -1.1561499238113619e+01  -1.1836821753968865e+01 
 -1.2114846623454802e+01  -1.2395457481137468e+01  -1.2678532810052031e+01  -1.2963945506823226e+01 
 -1.3251562346217181e+01  -1.3541243336869860e+01  -1.3832840960658004e+01  -1.4126199289147115e+01 
 -1.4421152971789128e+01  -1.4717526092073861e+01  -1.5015130889677325e+01  -1.5313766348814166e+01 
 -1.5613216655499453e+01  -1.5913249529261439e+01  -1.6213614438020247e+01  -1.6514040708344339e+01 
 -1.6814235547099077e+01  -1.7113881994575358e+01  -1.7412636833485806e+01  -1.7710128482684929e+01 
 -1.8005954909029278e+01  -1.8299681595356866e+01  -1.8590839607023064e+01  -1.8878924086514818e+01 
 -1.9163391561252713e+01  -1.9443660203220222e+01  -1.9719107754445925e+01  -1.9989071106697363e+01 
 -2.0252846051956219e+01  -2.0509687515805023e+01  -2.0758810328036986e+01  -2.0999390585309801e+01 
 -2.1230567652968613e+01  -2.1451446846422737e+01  -2.1661102824652751e+01  -2.1858583715889459e+01 
 -2.2042915984093433e+01  -2.2213110029216917e+01  -2.2368166498519880e+01  -2.2507083268799661e+01 
 -2.2628863039301230e+01  -2.2732521457754864e+01  -2.2817095680516367e+01  -2.2881653249723460e+01 
 -2.2925301151878216e+01  -2.2947194905577518e+01  -2.2946547512169772e+01  -2.2922638092670983e+01 
 -2.2874820025467926e+01  -2.2802528399080494e+01  -2.2705286594472714e+01  -2.2582711821312362e+01 
 -2.2434519446434198e+01  -2.2260525973734204e+01  -2.2060650562976175e+01  -2.1834915009415226e+01 
 -2.1583442147172828e+01  -2.1306452688154277e+01  -2.1004260558625603e+01  -2.0677266857531261e+01 
 -2.0325952617789998e+01  -1.9950870618504521e+01  -1.9552636556273381e+01  -1.9131919947548401e+01 
 -1.8689435186903705e+01  -1.8225933235182474e+01  -1.7742194446091233e+01  -1.7239023058823062e+01 
 -1.6717243884088930e+01  -1.6177701684284049e+01  -1.5621263694716674e+01  -1.5048825644776926e+01 
 -1.4461321513669546e+01  -1.3859737094271621e+01  -1.3245127235116630e+01  -1.2618636395623833e+01 
 -1.1981521873696954e+01  -1.1335178774192450e+01  -1.0681165472473245e+01  -1.0021228024024373e+01 
 -9.3573216857306143e+00  -8.6916274797352369e+00  -8.0265615714388865e+00  -7.3647751830293702e+00 
 -6.7091428551096328e+00  -6.0627371347174650e+00  -5.4287882369052385e+00  -4.8106279200738067e+00 
 -4.2116177420791372e+00  -3.6350630147005241e+00  -3.0841151172749273e+00  -2.5616663033906142e+00 
 -2.0702426412417818e+00  -1.6119021384628887e+00  -1.1881462414088619e+00  -7.9985357868843576e-01 
 -4.4724481197742560e-01  -1.2988656744735136e-01  1.5325953609146997e-01  4.0373986373111448e-01 
 6.2346511609772026e-01  8.1452667009530155e-01  9.7898538626774811e-01  1.1186512766141448e+00 
 1.2348776509676433e+00  1.3283970010090720e+00  1.3992270063520558e+00  1.4466727932999910e+00 
 1.4694453093203566e+00  1.4659051418664486e+00  1.4344265870140795e+00  1.3738591869698755e+00 
 1.2840449388711375e+00  1.1663312593289854e+00  1.0240054898518276e+00  8.6256952263799258e-01 
 6.8977626547520654e-01  5.1536581696010497e-01  3.5046964663429520e-01  2.0669544720965380e-01 
 9.4956106519488492e-02  2.4178930444194679e-02  1.9167861734585861e-05  -1.4535818280806458e-05 
 -6.8322229301082470e-06  -8.2587413306437290e-06  -8.2232141520986344e-06  -8.3159059586083129e-06 
 -8.3349501490010767e-06  -8.3113755899823490e-06  -8.2474043413771740e-06  -8.1481193344518836e-06 
 -8.0180034894642482e-06  -7.8611649262681667e-06  -7.6819182095523641e-06  -7.4774705803984633e-06 
 -7.2683432936422252e-06  -7.0391663837834784e-06  -6.8000650745382086e-06  -6.5527882490621403e-06 
 -6.2996342372002608e-06  -6.0426127424239343e-06  -5.7835395122194213e-06  -5.5240398946453858e-06 
 -5.2655619560164406e-06  -5.0093881405158427e-06  -4.7566454259302144e-06  -4.5083170102490143e-06 
 -4.2652518590114184e-06  -4.0281752062317845e-06  -3.7976974880185122e-06  -3.5743239551974573e-06 
 -3.3584629519280911e-06  -3.1504345267313639e-06  -2.9504779387663664e-06  -2.7587594277511819e-06 
 -2.5753806134511376e-06  -2.4003807124593941e-06  -2.2337480647525733e-06  -2.0754287524438421e-06 
 -1.9253175741667643e-06  -1.7832809032636617e-06  -1.6491568276513806e-06  -1.5227477135130415e-06 
 -1.4038423655298501e-06  -1.2922076098968684e-06  -1.1875961855256440e-06  -1.0897494026129509e-06 
 -9.9839958232917226e-07  -9.1327281705321281e-07  -8.3409109312125453e-07  -7.6057436684981603e-07 
 -6.9244230668875423e-07  0.0000000000000000e+00  0.0000000000000000e+00  0.0000000000000000e+00 
 0.0000000000000000e+00  0.0000000000000000e+00  0.0000000000000000e+00  0.0000000000000000e+00 
 0.0000000000000000e+00  0.0000000000000000e+00  0.0000000000000000e+00  0.0000000000000000e+00 
 0.0000000000000000e+00  0.0000000000000000e+00  0.0000000000000000e+00  0.0000000000000000e+00 
 0.0000000000000000e+00  0.0000000000000000e+00  0.0000000000000000e+00  0.0000000000000000e+00 
 0.0000000000000000e+00  0.0000000000000000e+00  0.0000000000000000e+00  0.0000000000000000e+00 
 0.0000000000000000e+00  0.0000000000000000e+00  0.0000000000000000e+00  0.0000000000000000e+00 
 0.0000000000000000e+00  0.0000000000000000e+00  0.0000000000000000e+00  0.0000000000000000e+00 
 0.0000000000000000e+00  0.0000000000000000e+00  0.0000000000000000e+00  0.0000000000000000e+00 
 0.0000000000000000e+00  0.0000000000000000e+00  0.0000000000000000e+00  0.0000000000000000e+00 
 0.0000000000000000e+00  0.0000000000000000e+00  0.0000000000000000e+00  0.0000000000000000e+00 
 0.0000000000000000e+00  0.0000000000000000e+00  0.0000000000000000e+00  0.0000000000000000e+00 
 0.0000000000000000e+00  0.0000000000000000e+00  0.0000000000000000e+00  0.0000000000000000e+00 
 0.0000000000000000e+00  0.0000000000000000e+00  0.0000000000000000e+00  0.0000000000000000e+00 
 0.0000000000000000e+00  0.0000000000000000e+00  0.0000000000000000e+00  0.0000000000000000e+00 
 0.0000000000000000e+00  0.0000000000000000e+00  0.0000000000000000e+00  0.0000000000000000e+00 
 0.0000000000000000e+00  0.0000000000000000e+00  0.0000000000000000e+00  0.0000000000000000e+00 
 0.0000000000000000e+00  0.0000000000000000e+00  0.0000000000000000e+00  0.0000000000000000e+00 
 0.0000000000000000e+00  0.0000000000000000e+00  0.0000000000000000e+00  0.0000000000000000e+00 
 0.0000000000000000e+00  0.0000000000000000e+00  0.0000000000000000e+00  0.0000000000000000e+00 
 0.0000000000000000e+00  0.0000000000000000e+00  0.0000000000000000e+00  0.0000000000000000e+00 
 0.0000000000000000e+00  0.0000000000000000e+00  0.0000000000000000e+00  0.0000000000000000e+00 
 0.0000000000000000e+00  0.0000000000000000e+00  0.0000000000000000e+00  0.0000000000000000e+00 
 0.0000000000000000e+00  0.0000000000000000e+00  0.0000000000000000e+00  0.0000000000000000e+00 
 0.0000000000000000e+00  0.0000000000000000e+00  0.0000000000000000e+00  0.0000000000000000e+00 
 0.0000000000000000e+00  0.0000000000000000e+00  0.0000000000000000e+00  0.0000000000000000e+00 
 0.0000000000000000e+00  0.0000000000000000e+00  0.0000000000000000e+00  0.0000000000000000e+00 
 0.0000000000000000e+00  0.0000000000000000e+00  0.0000000000000000e+00  0.0000000000000000e+00 
 0.0000000000000000e+00  0.0000000000000000e+00  0.0000000000000000e+00  0.0000000000000000e+00 
 0.0000000000000000e+00  0.0000000000000000e+00  0.0000000000000000e+00  0.0000000000000000e+00 
 0.0000000000000000e+00  0.0000000000000000e+00  0.0000000000000000e+00  0.0000000000000000e+00 
 0.0000000000000000e+00  0.0000000000000000e+00  0.0000000000000000e+00  0.0000000000000000e+00 
 0.0000000000000000e+00  0.0000000000000000e+00  0.0000000000000000e+00  0.0000000000000000e+00 
 0.0000000000000000e+00  0.0000000000000000e+00  0.0000000000000000e+00  0.0000000000000000e+00 
 0.0000000000000000e+00  0.0000000000000000e+00  0.0000000000000000e+00  0.0000000000000000e+00 
 0.0000000000000000e+00  0.0000000000000000e+00  0.0000000000000000e+00  0.0000000000000000e+00 
 0.0000000000000000e+00  0.0000000000000000e+00  0.0000000000000000e+00  0.0000000000000000e+00 
 0.0000000000000000e+00  0.0000000000000000e+00  0.0000000000000000e+00  0.0000000000000000e+00 
 0.0000000000000000e+00  0.0000000000000000e+00  0.0000000000000000e+00  0.0000000000000000e+00 
 0.0000000000000000e+00  0.0000000000000000e+00  0.0000000000000000e+00  0.0000000000000000e+00 
 0.0000000000000000e+00  0.0000000000000000e+00  0.0000000000000000e+00  0.0000000000000000e+00 
 0.0000000000000000e+00  0.0000000000000000e+00  0.0000000000000000e+00  0.0000000000000000e+00 
 0.0000000000000000e+00  0.0000000000000000e+00  0.0000000000000000e+00  0.0000000000000000e+00 
 0.0000000000000000e+00  0.0000000000000000e+00  0.0000000000000000e+00  0.0000000000000000e+00 
 0.0000000000000000e+00  0.0000000000000000e+00  0.0000000000000000e+00  0.0000000000000000e+00 
 0.0000000000000000e+00  0.0000000000000000e+00  0.0000000000000000e+00  0.0000000000000000e+00 
 0.0000000000000000e+00  0.0000000000000000e+00  0.0000000000000000e+00  0.0000000000000000e+00 
 0.0000000000000000e+00  0.0000000000000000e+00  0.0000000000000000e+00  0.0000000000000000e+00 
 0.0000000000000000e+00  0.0000000000000000e+00  0.0000000000000000e+00  0.0000000000000000e+00 
 0.0000000000000000e+00  0.0000000000000000e+00  0.0000000000000000e+00  0.0000000000000000e+00 
 0.0000000000000000e+00  0.0000000000000000e+00  0.0000000000000000e+00  0.0000000000000000e+00 
 0.0000000000000000e+00  0.0000000000000000e+00  0.0000000000000000e+00  0.0000000000000000e+00 
 0.0000000000000000e+00  0.0000000000000000e+00  0.0000000000000000e+00  0.0000000000000000e+00 
 0.0000000000000000e+00  0.0000000000000000e+00  0.0000000000000000e+00  0.0000000000000000e+00 
 0.0000000000000000e+00  0.0000000000000000e+00  0.0000000000000000e+00  0.0000000000000000e+00 
 0.0000000000000000e+00  0.0000000000000000e+00  0.0000000000000000e+00  0.0000000000000000e+00 
 0.0000000000000000e+00  0.0000000000000000e+00  0.0000000000000000e+00  0.0000000000000000e+00 
 0.0000000000000000e+00  0.0000000000000000e+00  0.0000000000000000e+00  0.0000000000000000e+00 
 0.0000000000000000e+00  0.0000000000000000e+00  0.0000000000000000e+00  0.0000000000000000e+00 
 0.0000000000000000e+00  0.0000000000000000e+00  0.0000000000000000e+00  0.0000000000000000e+00 
 0.0000000000000000e+00  0.0000000000000000e+00  0.0000000000000000e+00  0.0000000000000000e+00 
 0.0000000000000000e+00  0.0000000000000000e+00  0.0000000000000000e+00  0.0000000000000000e+00 
 0.0000000000000000e+00  0.0000000000000000e+00  0.0000000000000000e+00  0.0000000000000000e+00 
 0.0000000000000000e+00  0.0000000000000000e+00  0.0000000000000000e+00  0.0000000000000000e+00 
 0.0000000000000000e+00  0.0000000000000000e+00  0.0000000000000000e+00  0.0000000000000000e+00 
 0.0000000000000000e+00  0.0000000000000000e+00 
  </PP_BETA>
  <PP_BETA>
  4  2      Beta    L
  1177  
 -4.8314020203511684e-12  -5.0235492155656403e-12  -5.2233381976763354e-12  -5.4310728842447772e-12 
 -5.6470692797809570e-12  -5.8716559564470894e-12  -6.1051745538792769e-12  -6.3479802988872167e-12 
 -6.6004425458227019e-12  -6.8629453384388036e-12  -7.1358879940944824e-12  -7.4196857111932560e-12 
 -7.7147702007800127e-12  -8.0215903432568145e-12  -8.3406128712164900e-12  -8.6723230794329208e-12 
 -9.0172255630879790e-12  -9.3758449853580451e-12  -9.7487268755279202e-12  -1.0136438458846011e-11 
 -1.0539569519383364e-11  -1.0958733297208887e-11  -1.1394567421245763e-11  -1.1847734879228048e-11 
 -1.2318925026232820e-11  -1.2808854633322104e-11  -1.3318268977889958e-11  -1.3847942977373052e-11 
 -1.4398682368049548e-11  -1.4971324930719368e-11  -1.5566741765130150e-11  -1.6185838615088285e-11 
 -1.6829557246269509e-11  -1.7498876878826379e-11  -1.8194815676970851e-11  -1.8918432297798411e-11 
 -1.9670827501709499e-11  -2.0453145826878621e-11  -2.1266577330317349e-11  -2.2112359398180775e-11 
 -2.2991778628070227e-11  -2.3906172786196419e-11  -2.4856932842379938e-11  -2.5845505085984336e-11 
 -2.6873393326001480e-11  -2.7942161178634651e-11  -2.9053434445860581e-11  -3.0208903588587814e-11 
 -3.1410326298173452e-11  -3.2659530170210900e-11  -3.3958415484655494e-11  -3.5308958096515917e-11 
 -3.6713212441511757e-11  -3.8173314661265684e-11  -3.9691485852787021e-11  -4.1270035447188823e-11 
 -4.2911364722778059e-11  -4.4617970457862300e-11  -4.6392448728832029e-11  -4.8237498859292736e-11 
 -5.0155927526257332e-11  -5.2150653029642952e-11  -5.4224709731567535e-11  -5.6381252672200475e-11 
 -5.8623562369187046e-11  -6.0955049807948269e-11  -6.3379261630447787e-11  -6.5899885530318407e-11 
 -6.8520755862555020e-11  -7.1245859476308905e-11  -7.4079341779653379e-11  -7.7025513045549365e-11 
 -8.0088854968602844e-11  -8.3274027482584813e-11  -8.6585875849091656e-11  -9.0029438028121113e-11 
 -9.3609952341782097e-11  -9.7332865442792555e-11  -1.0120384059988909e-10  -1.0522876631275121e-10 
 -1.0941376526954570e-10  -1.1376520366071550e-10  -1.1828970086318442e-10  -1.2299413950970554e-10 
 -1.2788567595867465e-10  -1.3297175118033071e-10  -1.3826010207590818e-10  -1.4375877324695600e-10 
 -1.4947612923272775e-10  -1.5542086723426213e-10  -1.6160203034450034e-10  -1.6802902130457895e-10 
 -1.7471161680721055e-10  -1.8165998236892108e-10  -1.8888468779376194e-10  -1.9639672325202091e-10 
 -2.0420751599839299e-10  -2.1232894775503901e-10  -2.2077337278597778e-10  -2.2955363669030559e-10 
 -2.3868309594283368e-10  -2.4817563821186059e-10  -2.5804570348499844e-10  -2.6830830603518001e-10 
 -2.7897905726026614e-10  -2.9007418943099431e-10  -3.0161058038339605e-10  -3.1360577919324396e-10 
 -3.2607803287158002e-10  -3.3904631412194898e-10  -3.5253035020153437e-10  -3.6655065293012968e-10 
 -3.8112854989257546e-10  -3.9628621688213407e-10  -4.1204671163415130e-10  -4.2843400890132115e-10 
 -4.4547303692392288e-10  -4.6318971535047534e-10  -4.8161099466653779e-10  -5.0076489719159490e-10 
 -5.2068055970642225e-10  -5.4138827777575406e-10  -5.6291955183368883e-10  -5.8530713510192951e-10 
 -6.0858508341376670e-10  -6.3278880701957480e-10  -6.5795512445264163e-10  -6.8412231853727626e-10 
 -7.1133019462437160e-10  -7.3962014114304209e-10  -7.6903519256041334e-10  -7.9962009484536829e-10 
 -8.3142137353580215e-10  -8.6448740451297115e-10  -8.9886848759054417e-10  -9.3461692303033849e-10 
 -9.7178709110114312e-10  -1.0104355348015951e-09  -1.0506210458730340e-09  -1.0924047542330864e-09 
 -1.1358502209660964e-09  -1.1810235350118300e-09  -1.2279934136995172e-09  -1.2768313072802108e-09 
 -1.3276115076164286e-09  -1.3804112611944430e-09  -1.4353108866311336e-09  -1.4923938968541338e-09 
 -1.5517471261411544e-09  -1.6134608622117133e-09  -1.6776289835722315e-09  -1.7443491023233996e-09 
 -1.8137227126470932e-09  -1.8858553451986302e-09  -1.9608567276393617e-09  -2.0388409515536663e-09 
 -2.1199266460043350e-09  -2.2042371579903519e-09  -2.2919007400815731e-09  -2.3830507455157106e-09 
 -2.4778258310544354e-09  -2.5763701679071673e-09  -2.6788336610434483e-09  -2.7853721772273994e-09 
 -2.8961477821213119e-09  -3.0113289868188921e-09  -3.1310910041833478e-09  -3.2556160153800726e-09 
 -3.3850934470095566e-09  -3.5197202592619707e-09  -3.6597012455317917e-09  -3.8052493439483178e-09 
 -3.9565859612958691e-09  -4.1139413098164484e-09  -4.2775547574072459e-09  -4.4476751917457138e-09 
 -4.6245613988959728e-09  -4.8084824569727577e-09  -4.9997181454613911e-09  -5.1985593708168117e-09 
 -5.4053086089887659e-09  -5.6202803655465487e-09  -5.8438016541030463e-09  -6.0762124937660906e-09 
 -6.3178664263735871e-09  -6.5691310542994197e-09  -6.8303885996482377e-09  -7.1020364856895874e-09 
 -7.3844879414160426e-09  -7.6781726301450669e-09  -7.9835373031204912e-09  -8.3010464791081947e-09 
 -8.6311831510196483e-09  -8.9744495206383590e-09  -9.3313677625665642e-09  -9.7024808185547009e-09 
 -1.0088353223421701e-08  -1.0489571963822641e-08  -1.0906747371169899e-08  -1.1340514050066580e-08 
 -1.1791531843663978e-08  -1.2260486837411837e-08  -1.2748092402728593e-08  -1.3255090282178687e-08 
 -1.3782251717808092e-08  -1.4330378624354384e-08  -1.4900304809115958e-08  -1.5492897240336343e-08 
 -1.6109057366032679e-08  -1.6749722485274723e-08  -1.7415867174000637e-08  -1.8108504767538122e-08 
 -1.8828688902086220e-08  -1.9577515117503047e-08  -2.0356122523836812e-08  -2.1165695534136294e-08 
 -2.2007465666175831e-08  -2.2882713415836322e-08  -2.3792770204991197e-08  -2.4739020406861414e-08 
 -2.5722903451920017e-08  -2.6745916017549497e-08  -2.7809614304783440e-08  -2.8915616405595284e-08 
 -3.0065604764336127e-08  -3.1261328737064741e-08  -3.2504607252664154e-08  -3.3797331579792786e-08 
 -3.5141468203877774e-08  -3.6539061818529862e-08  -3.7992238435927171e-08  -3.9503208620902176e-08 
 -4.1074270853649387e-08  -4.2707815026170398e-08  -4.4406326077775662e-08  -4.6172387775171035e-08 
 -4.8008686642882439e-08  -4.9918016049994349e-08  -5.1903280459422870e-08  -5.3967499846182930e-08 
 -5.6113814291374499e-08  -5.8345488758874712e-08  -6.0665918062000961e-08  -6.3078632027703477e-08 
 -6.5587300866140350e-08  -6.8195740753804352e-08  -7.0907919638695386e-08  -7.3727963276367589e-08 
 -7.6660161506036476e-08  -7.9708974776288505e-08  -8.2879040930326220e-08  -8.6175182261064383e-08 
 -8.9602412846815428e-08  -9.3165946178718795e-08  -9.6871203091519636e-08  -1.0072382000976136e-07 
 -1.0472965752193328e-07  -1.0889480929562319e-07  -1.1322561134722741e-07  -1.1772865168032895e-07 
 -1.2241078030739976e-07  -1.2727911967007420e-07  -1.3234107547384692e-07  -1.3760434795367361e-07 
 -1.4307694358761631e-07  -1.4876718727634957e-07  -1.5468373500705393e-07  -1.6083558702097045e-07 
 -1.6723210150463112e-07  -1.7388300882560823e-07  -1.8079842633443205e-07  -1.8798887375519196e-07 
 -1.9546528918823708e-07  -2.0323904574931911e-07  -2.1132196887049360e-07  -2.1972635428908788e-07 
 -2.2846498675211132e-07  -2.3755115946456491e-07  -2.4699869431121499e-07  -2.5682196288262264e-07 
 -2.6703590833739320e-07  -2.7765606813390605e-07  -2.8869859766612082e-07  -3.0018029483939376e-07 
 -3.1211862562370944e-07  -3.2453175062318909e-07  -3.3743855270229728e-07  -3.5085866571077820e-07 
 -3.6481250435101302e-07  -3.7932129523323859e-07  -3.9440710916587128e-07  -4.1009289473004886e-07 
 -4.2640251318948796e-07  -4.4336077478873286e-07  -4.6099347649504413e-07  -4.7932744124133199e-07 
 -4.9839055872981927e-07  -5.1821182785854263e-07  -5.3882140083519042e-07  -5.6025062904543083e-07 
 -5.8253211074546178e-07  -6.0569974065140041e-07  -6.2978876150087301e-07  -6.5483581766531524e-07 
 -6.8087901089450544e-07  -7.0795795827813777e-07  -7.3611385251263439e-07  -7.6538952456484341e-07 
 -7.9582950882799870e-07  -8.2748011086900834e-07  -8.6038947787021391e-07  -8.9460767187267799e-07 
 -9.3018674593255034e-07  -9.6718082330625750e-07  -1.0056461797850637e-06  -1.0456413293042080e-06 
 -1.0872271129569006e-06  -1.1304667915485563e-06  -1.1754261418321094e-06  -1.2221735565707917e-06 
 -1.2707801485805921e-06  -1.3213198589107612e-06  -1.3738695693268140e-06  -1.4285092192672688e-06 
 -1.4853219274520086e-06  -1.5443941183272720e-06  -1.6058156535396598e-06  -1.6696799686391745e-06 
 -1.7360842152192738e-06  -1.8051294087101467e-06  -1.8769205820501701e-06  -1.9515669454692079e-06 
 -2.0291820526269167e-06  -2.1098839733588854e-06  -2.1937954732932492e-06  -2.2810442006112483e-06 
 -2.3717628802357529e-06  -2.4660895157432186e-06  -2.5641675993063047e-06  -2.6661463299865545e-06 
 -2.7721808407092019e-06  -2.8824324342655671e-06  -2.9970688287019562e-06  -3.1162644124685661e-06 
 -3.2402005097164433e-06  -3.3690656561463076e-06  -3.5030558858288318e-06  -3.6423750294327491e-06 
 -3.7872350243147159e-06  -3.9378562369425250e-06  -4.0944677981423852e-06  -4.2573079516803161e-06 
 -4.4266244167080447e-06  -4.6026747646248540e-06  -4.7857268109289015e-06  -4.9760590226540944e-06 
 -5.1739609420125496e-06  -5.3797336268873629e-06  -5.5936901088456722e-06  -5.8161558693691787e-06 
 -6.0474693350266938e-06  -6.2879823923421262e-06  -6.5380609231414714e-06  -6.7980853611932852e-06 
 -7.0684512709898476e-06  -7.3495699495494458e-06  -7.6418690521559900e-06  -7.9457932429877082e-06 
 -8.2618048716252448e-06  -8.5903846764685581e-06  -8.9320325161330833e-06  -9.2872681299382193e-06 
 -9.6566319286452847e-06  -1.0040685816648396e-05  -1.0440014046869521e-05  -1.0855224109658774e-05 
 -1.1286947657052431e-05  -1.1735841463795536e-05  -1.2202588426591699e-05  -1.2687898603100598e-05 
 -1.3192510292264675e-05  -1.3717191157609165e-05  -1.4262739395224939e-05  -1.4829984948212022e-05 
 -1.5419790769432112e-05  -1.6033054134491991e-05  -1.6670708006956063e-05  -1.7333722457866384e-05 
 -1.8023106141730530e-05  -1.8739907831223957e-05  -1.9485218012942860e-05  -2.0260170546636830e-05 
 -2.1065944390446035e-05  -2.1903765394770835e-05  -2.2774908167502412e-05  -2.3680698013455718e-05 
 -2.4622512950955531e-05  -2.5601785808646622e-05  -2.6620006405719816e-05  -2.7678723818872787e-05 
 -2.8779548739457326e-05  -2.9924155924400561e-05  -3.1114286744634134e-05  -3.2351751834907952e-05 
 -3.3638433849025653e-05  -3.4976290324695767e-05  -3.6367356662360669e-05  -3.7813749222538880e-05 
 -3.9317668546397892e-05  -4.0881402704460548e-05  -4.2507330778544202e-05  -4.4197926482236894e-05 
 -4.5955761925420938e-05  -4.7783511528579307e-05  -4.9683956092845850e-05  -5.1659987031995553e-05 
 -5.3714610772824367e-05  -5.5850953330616471e-05  -5.8072265066671245e-05  -6.0381925635134219e-05 
 -6.2783449126669596e-05  -6.5280489416805936e-05  -6.7876845727106536e-05  -7.0576468407632678e-05 
 -7.3383464949511589e-05  -7.6302106236767717e-05  -7.9336833046942545e-05  -8.2492262810408929e-05 
 -8.5773196638675673e-05  -8.9184626632395867e-05  -9.2731743480212105e-05  -9.6419944360018014e-05 
 -1.0025484115468045e-04  -1.0424226899473887e-04  -1.0838829514110477e-04  -1.1269922822129908e-04 
 -1.1718162783330547e-04  -1.2184231453167756e-04  -1.2668838021112681e-04  -1.3172719890341457e-04 
 -1.3696643800401552e-04  -1.4241406994566129e-04  -1.4807838433657255e-04  -1.5396800058187834e-04 
 -1.6009188100747673e-04  -1.6645934450634800e-04  -1.7308008072812854e-04  -1.7996416483359633e-04 
 -1.8712207283656308e-04  -1.9456469755658036e-04  -2.0230336520679761e-04  -2.1034985264227151e-04 
 -2.1871640529505168e-04  -2.2741575582340068e-04  -2.3646114350361279e-04  -2.4586633439401358e-04 
 -2.5564564230193298e-04  -2.6581395058563435e-04  -2.7638673482448766e-04  -2.8738008639199615e-04 
 -2.9881073696766066e-04  -3.1069608402510828e-04  -3.2305421733540496e-04  -3.3590394652602685e-04 
 -3.4926482973757244e-04  -3.6315720342200170e-04  -3.7760221332789544e-04  -3.9262184672010067e-04 
 -4.0823896588295760e-04  -4.2447734295832725e-04  -4.4136169617164234e-04  -4.5891772750135921e-04 
 -4.7717216184937189e-04  -4.9615278777228450e-04  -5.1588849983580593e-04  -5.3640934265703302e-04 
 -5.5774655670195799e-04  -5.7993262590826577e-04  -6.0300132720625280e-04  -6.2698778201361431e-04 
 -6.5192850978290976e-04  -6.7786148368363024e-04  -7.0482618850407192e-04  -7.3286368086167633e-04 
 -7.6201665181397336e-04  -7.9232949196600356e-04  -8.2384835917391225e-04  -8.5662124894841257e-04 
 -8.9069806766593556e-04  -9.2613070869964796e-04  -9.6297313158696550e-04  -1.0012814443548801e-03 
 -1.0411139891293097e-03  -1.0825314311596554e-03  -1.1255968513950894e-03  -1.1703758427545226e-03 
 -1.2169366102379186e-03  -1.2653500750324713e-03  -1.3156899827734118e-03  -1.3680330161255961e-03 
 -1.4224589118585278e-03  -1.4790505825947463e-03  -1.5378942434182694e-03  -1.5990795435376762e-03 
 -1.6626997032059942e-03  -1.7288516561076923e-03  -1.7976361974316015e-03  -1.8691581378572865e-03 
 -1.9435264636915724e-03  -2.0208545034013634e-03  -2.1012601007988959e-03  -2.1848657951456969e-03 
 -2.2717990084523561e-03  -2.3621922402621985e-03  -2.4561832702186918e-03  -2.5539153687283008e-03 
 -2.6555375160431135e-03  -2.7612046301005388e-03  -2.8710778034709756e-03  -2.9853245497784876e-03 
 -3.1041190599739622e-03  -3.2276424688558493e-03  -3.3560831322490170e-03  -3.4896369152692067e-03 
 -3.6285074921173291e-03  -3.7729066578659626e-03  -3.9230546527190095e-03  -4.0791804992443724e-03 
 -4.2415223531004267e-03  -4.4103278677968824e-03  -4.5858545740534058e-03  -4.7683702743413093e-03 
 -4.9581534532172544e-03  -5.1554937040827276e-03  -5.3606921730279438e-03  -5.5740620204456238e-03 
 -5.7959289011274761e-03  -6.0266314635850776e-03  -6.2665218693658317e-03  -6.5159663331667136e-03 
 -6.7753456845796242e-03  -7.0450559523362018e-03  -7.3255089719545608e-03  -7.6171330177263914e-03 
 -7.9203734600206549e-03  -8.2356934489187066e-03  -8.5635746252369395e-03  -8.9045178600343777e-03 
 -9.2590440237470904e-03  -9.6276947861366046e-03  -1.0011033448286142e-02  -1.0409645807929625e-02 
 -1.0824141059446226e-02  -1.1255152729909405e-02  -1.1703339652632693e-02  -1.2169386979711452e-02 
 -1.2654007235120824e-02  -1.3157941409989528e-02  -1.3681960101734794e-02  -1.4226864698809048e-02 
 -1.4793488612878398e-02  -1.5382698560324617e-02  -1.5995395895034403e-02  -1.6632517994520455e-02 
 -1.7295039701493417e-02  -1.7983974823090991e-02  -1.8700377690053355e-02  -1.9445344778222282e-02 
 -2.0220016394835557e-02  -2.1025578432180385e-02  -2.1863264191270659e-02  -2.2734356278310035e-02 
 -2.3640188576815515e-02  -2.4582148298375822e-02  -2.5561678115138653e-02  -2.6580278377233053e-02 
 -2.7639509418453619e-02  -2.8740993953658193e-02  -2.9886419571455606e-02  -3.1077541325894530e-02 
 -3.2316184430997139e-02  -3.3604247062122568e-02  -3.4943703268287198e-02  -3.6336605999716665e-02 
 -3.7785090255056115e-02  -3.9291376352819797e-02  -4.0857773331821279e-02  -4.2486682485485906e-02 
 -4.4180601035120524e-02  -4.5942125947375671e-02  -4.7773957901319775e-02  -4.9678905410715901e-02 
 -5.1659889107273399e-02  -5.3719946190831057e-02  -5.5862235052613521e-02  -5.8090040077891543e-02 
 -6.0406776634565722e-02  -6.2815996254384721e-02  -6.5321392013705640e-02  -6.7926804120886863e-02 
 -7.0636225717612203e-02  -7.3453808901618373e-02  -7.6383870978504118e-02  -7.9430900950473837e-02 
 -8.2599566250064108e-02  -8.5894719727065680e-02  -8.9321406897043681e-02  -9.2884873460007594e-02 
 -9.6590573097950591e-02  -1.0044417556012156e-01  -1.0445157504502396e-01  -1.0861889888825604e-01 
 -1.1295251656542248e-01  -1.1745904901940005e-01  -1.2214537832135661e-01  -1.2701865767490345e-01 
 -1.3208632177281313e-01  -1.3735609751570940e-01  -1.4283601510207353e-01  -1.4853441949882404e-01 
 -1.5445998230161853e-01  -1.6062171399380179e-01  -1.6702897661275076e-01  -1.7369149683204524e-01 
 -1.8061937946753942e-01  -1.8782312141504257e-01  -1.9531362602676972e-01  -2.0310221793319244e-01 
 -2.1120065831624779e-01  -2.1962116063913326e-01  -2.2837640683696314e-01  -2.3747956397179537e-01 
 -2.4694430135416739e-01  -2.5678480813235371e-01  -2.6701581134892094e-01  -2.7765259446289092e-01 
 -2.8871101633383445e-01  -3.0020753066291794e-01  -3.1215920588302754e-01  -3.2458374548880542e-01 
 -3.3749950879430268e-01  -3.5092553210369792e-01  -3.6488155027712860e-01  -3.7938801867134347e-01 
 -3.9446613543049208e-01  -4.1013786409949532e-01  -4.2642595652802440e-01  -4.4335397602872134e-01 
 -4.6094632074915259e-01  -4.7922824721181423e-01  -4.9822589397075051e-01  -5.1796630532879595e-01 
 -5.3847745505235711e-01  -5.5978827001501230e-01  -5.8192865369424662e-01  -6.0492950943844426e-01 
 -6.2882276341387067e-01  -6.5364138713380127e-01  -6.7941941946288664e-01  -7.0619198798246852e-01 
 -7.3399532959219504e-01  -7.6286681021538028e-01  -7.9284494346529644e-01  -8.2396940811898223e-01 
 -8.5628106423668449e-01  -8.8982196775338518e-01  -9.2463538335893114e-01  -9.6076579547244068e-01 
 -9.9825891710645775e-01  -1.0371616964055048e+00  -1.0775223206329154e+00  -1.1193902173708175e+00 
 -1.1628160526870248e+00  -1.2078517260136967e+00  -1.2545503614747826e+00  -1.3029662953894625e+00 
 -1.3531550596739363e+00  -1.4051733608562302e+00  -1.4590790544147683e+00  -1.5149311141486603e+00 
 -1.5727895962854643e+00  -1.6327155980332431e+00  -1.6947712102863899e+00  -1.7590194641989483e+00 
 -1.8255242713489324e+00  -1.8943503572250537e+00  -1.9655631877836746e+00  -2.0392288888398613e+00 
 -2.1154141580772943e+00  -2.1941861694878018e+00  -2.2756124700793752e+00  -2.3597608687256018e+00 
 -2.4466993170676496e+00  -2.5364957824224872e+00  -2.6292181126986303e+00  -2.7249338933740956e+00 
 -2.8237102966473824e+00  -2.9256139229361287e+00  -3.0307106349641528e+00  -3.1390653847496863e+00 
 -3.2507420338837929e+00  -3.3658031675670235e+00  -3.4843099029558657e+00  -3.6063216924565693e+00 
 -3.7318961226911891e+00  -3.8610887099500788e+00  -3.9939526930335960e+00  -4.1305388244733763e+00 
 -4.2708951612101842e+00  -4.4150668558847013e+00  -4.5630959499763355e+00  -4.7150211700908056e+00 
 -4.8708777287601190e+00  -5.0306971311640822e+00  -5.1945069892197369e+00  -5.3623308445035782e+00 
 -5.5341880014734617e+00  -5.7100933724387550e+00  -5.8900573356858388e+00  -6.0740856081002566e+00 
 -6.2621791335327801e+00  -6.4543339880344561e+00  -6.6505413029293408e+00  -6.8507872065065589e+00 
 -7.0550527848884794e+00  -7.2633140623711325e+00  -7.4755420012348770e+00  -7.6917025206856424e+00 
 -7.9117565342129224e+00  -8.1356600042351062e+00  -8.3633640124556088e+00  -8.5948148438643646e+00 
 -8.8299540818049458e+00  -9.0687187109796490e+00  -9.3110412246952929e+00  -9.5568497320638937e+00 
 -9.8060680602727519e+00  -1.0058615846434435e+01  -1.0314408612930052e+01  -1.0573357819578115e+01 
 -1.0835370885409237e+01  -1.1100351172317019e+01  -1.1368197922403825e+01  -1.1638806140460996e+01 
 -1.1912066412738024e+01  -1.2187864652980048e+01  -1.2466081766670465e+01  -1.2746593224526915e+01 
 -1.3029268536587207e+01  -1.3313970618707369e+01  -1.3600555044006219e+01  -1.3888869172745114e+01 
 -1.4178751155356078e+01  -1.4470028804843215e+01  -1.4762518336600740e+01  -1.5056022975829908e+01 
 -1.5350331435207359e+01  -1.5645216268262979e+01  -1.5940432107063700e+01  -1.6235713796260615e+01 
 -1.6530774439318307e+01  -1.6825303376777992e+01  -1.7118964120661364e+01  -1.7411392273545996e+01 
 -1.7702193465358167e+01  -1.7990941345446714e+01  -1.8277175671916439e+01  -1.8560400822526265e+01 
 -1.8840083139592679e+01  -1.9115651178356000e+01  -1.9386493662398017e+01  -1.9651959067017632e+01 
 -1.9911355373467057e+01  -2.0163950299862510e+01  -2.0408972064480356e+01  -2.0645610733453658e+01 
 -2.0873020201340097e+01  -2.1090320843011817e+01  -2.1296602870160747e+01  -2.1490930410941989e+01 
 -2.1672346322369535e+01  -2.1839877726931658e+01  -2.1992542251775166e+01  -2.2129354929714772e+01 
 -2.2249335701869523e+01  -2.2351517445597260e+01  -2.2434954427682445e+01  -2.2498731067771164e+01 
 -2.2541970875801653e+01  -2.2563845413120202e+01  -2.2563583110961673e+01  -2.2540477771541354e+01 
 -2.2493896566905693e+01  -2.2423287351277896e+01  -2.2328185102777748e+01  -2.2208217320446732e+01 
 -2.2063108216089059e+01  -2.1892681562455273e+01  -2.1696862086251798e+01  -2.1475675330264512e+01 
 -2.1229245949229085e+01  -2.0957794453166407e+01  -2.0661632462141000e+01  -2.0341156598655129e+01 
 -1.9996841200532817e+01  -1.9629230103535235e+01  -1.9238927804035775e+01  -1.8826590373229273e+01 
 -1.8392916549300086e+01  -1.7938639480111618e+01  -1.7464519624173320e+01  -1.6971339334614676e+01 
 -1.6459899650425388e+01  -1.5931019790452400e+01  -1.5385539791279429e+01  -1.4824326640722539e+01 
 -1.4248284133442819e+01  -1.3658366513724198e+01  -1.3055595767388485e+01  -1.2441082189948968e+01 
 -1.1816047584997852e+01  -1.1181850158211148e+01  -1.0540009862609246e+01  -9.8922326524826598e+00 
 -9.2404318245060288e+00  -8.5867443964540122e+00  -7.9335403225657197e+00  -7.2834223009625045e+00 
 -6.6392140262351642e+00  -6.0039350094698500e+00  -5.3807605585931917e+00  -4.7729662008939266e+00 
 -4.1838567487674583e+00  -3.6166813456683937e+00  -3.0745371523894538e+00  -2.5602657802306208e+00 
 -2.0763480532528971e+00  -1.6248040578806549e+00  -1.2071065428410652e+00  -8.2411638234328732e-01 
 -4.7604878750000185e-01  -1.6247805390071660e-01  1.1761331101194124e-01  3.6573831897425407e-01 
 5.8376353443506168e-01  7.7372801100447408e-01  9.3763548401837027e-01  1.0772379678940294e+00 
 1.1938340093095408e+00  1.2881083870618355e+00  1.3600411110355468e+00  1.4089113153546864e+00 
 1.4334154450039556e+00  1.4319087584765802e+00  1.4027648891216686e+00  1.3448309351245804e+00 
 1.2579368874181001e+00  1.1434004393384476e+00  1.0044542151325935e+00  8.4651541646633877e-01 
 6.7722100344870939e-01  5.0616741737825788e-01  3.4432374677753425e-01  2.0313084292553124e-01 
 9.3348670290426122e-02  2.3786179863963187e-02  3.4000545317960790e-05  -1.0624776351462435e-06 
 5.4051019620080776e-06  2.7598732446395289e-06  1.7062001790695316e-06  6.2145230845758107e-07 
 -2.9756546165464448e-07  -1.0901244443018884e-06  -1.7655848498412262e-06  -2.3356589421150274e-06 
 -2.8109378789566501e-06  -3.2011501952346851e-06  -3.5158111449140308e-06  -3.7565198299108329e-06 
 -3.9491736332492155e-06  -4.0813486586186961e-06  -4.1672859158945190e-06  -4.2120676678087305e-06 
 -4.2210874785387195e-06  -4.1991835506088788e-06  -4.1507567838839379e-06  -4.0797933211290549e-06 
 -3.9898944368858781e-06  -3.8843038021865610e-06  -3.7659334430019449e-06  -3.6373883511987663e-06 
 -3.5009900372423041e-06  -3.3587983888902189e-06  -3.2126322866492723e-06  -3.0640897755337933e-06 
 -2.9145661376186190e-06  -2.7652714749914445e-06  -2.6172472202483038e-06  -2.4713813618652825e-06 
 -2.3284245758703237e-06  -2.1889990562142728e-06  -2.0536165099117952e-06  -1.9226928385293286e-06 
 -1.7965438074773569e-06  -1.6754135623555321e-06  -1.5594792197114426e-06  -1.4488466239605248e-06 
 -1.3435773720519466e-06  -1.2436828569270478e-06  -1.1491353690856249e-06  -1.0598733507592466e-06 
 -9.7580606910012388e-07  -8.9681844021631486e-07  -8.2277488885756702e-07  -7.5352303657153303e-07 
 -6.8889678424116962e-07  0.0000000000000000e+00  0.0000000000000000e+00  0.0000000000000000e+00 
 0.0000000000000000e+00  0.0000000000000000e+00  0.0000000000000000e+00  0.0000000000000000e+00 
 0.0000000000000000e+00  0.0000000000000000e+00  0.0000000000000000e+00  0.0000000000000000e+00 
 0.0000000000000000e+00  0.0000000000000000e+00  0.0000000000000000e+00  0.0000000000000000e+00 
 0.0000000000000000e+00  0.0000000000000000e+00  0.0000000000000000e+00  0.0000000000000000e+00 
 0.0000000000000000e+00  0.0000000000000000e+00  0.0000000000000000e+00  0.0000000000000000e+00 
 0.0000000000000000e+00  0.0000000000000000e+00  0.0000000000000000e+00  0.0000000000000000e+00 
 0.0000000000000000e+00  0.0000000000000000e+00  0.0000000000000000e+00  0.0000000000000000e+00 
 0.0000000000000000e+00  0.0000000000000000e+00  0.0000000000000000e+00  0.0000000000000000e+00 
 0.0000000000000000e+00  0.0000000000000000e+00  0.0000000000000000e+00  0.0000000000000000e+00 
 0.0000000000000000e+00  0.0000000000000000e+00  0.0000000000000000e+00  0.0000000000000000e+00 
 0.0000000000000000e+00  0.0000000000000000e+00  0.0000000000000000e+00  0.0000000000000000e+00 
 0.0000000000000000e+00  0.0000000000000000e+00  0.0000000000000000e+00  0.0000000000000000e+00 
 0.0000000000000000e+00  0.0000000000000000e+00  0.0000000000000000e+00  0.0000000000000000e+00 
 0.0000000000000000e+00  0.0000000000000000e+00  0.0000000000000000e+00  0.0000000000000000e+00 
 0.0000000000000000e+00  0.0000000000000000e+00  0.0000000000000000e+00  0.0000000000000000e+00 
 0.0000000000000000e+00  0.0000000000000000e+00  0.0000000000000000e+00  0.0000000000000000e+00 
 0.0000000000000000e+00  0.0000000000000000e+00  0.0000000000000000e+00  0.0000000000000000e+00 
 0.0000000000000000e+00  0.0000000000000000e+00  0.0000000000000000e+00  0.0000000000000000e+00 
 0.0000000000000000e+00  0.0000000000000000e+00  0.0000000000000000e+00  0.0000000000000000e+00 
 0.0000000000000000e+00  0.0000000000000000e+00  0.0000000000000000e+00  0.0000000000000000e+00 
 0.0000000000000000e+00  0.0000000000000000e+00  0.0000000000000000e+00  0.0000000000000000e+00 
 0.0000000000000000e+00  0.0000000000000000e+00  0.0000000000000000e+00  0.0000000000000000e+00 
 0.0000000000000000e+00  0.0000000000000000e+00  0.0000000000000000e+00  0.0000000000000000e+00 
 0.0000000000000000e+00  0.0000000000000000e+00  0.0000000000000000e+00  0.0000000000000000e+00 
 0.0000000000000000e+00  0.0000000000000000e+00  0.0000000000000000e+00  0.0000000000000000e+00 
 0.0000000000000000e+00  0.0000000000000000e+00  0.0000000000000000e+00  0.0000000000000000e+00 
 0.0000000000000000e+00  0.0000000000000000e+00  0.0000000000000000e+00  0.0000000000000000e+00 
 0.0000000000000000e+00  0.0000000000000000e+00  0.0000000000000000e+00  0.0000000000000000e+00 
 0.0000000000000000e+00  0.0000000000000000e+00  0.0000000000000000e+00  0.0000000000000000e+00 
 0.0000000000000000e+00  0.0000000000000000e+00  0.0000000000000000e+00  0.0000000000000000e+00 
 0.0000000000000000e+00  0.0000000000000000e+00  0.0000000000000000e+00  0.0000000000000000e+00 
 0.0000000000000000e+00  0.0000000000000000e+00  0.0000000000000000e+00  0.0000000000000000e+00 
 0.0000000000000000e+00  0.0000000000000000e+00  0.0000000000000000e+00  0.0000000000000000e+00 
 0.0000000000000000e+00  0.0000000000000000e+00  0.0000000000000000e+00  0.0000000000000000e+00 
 0.0000000000000000e+00  0.0000000000000000e+00  0.0000000000000000e+00  0.0000000000000000e+00 
 0.0000000000000000e+00  0.0000000000000000e+00  0.0000000000000000e+00  0.0000000000000000e+00 
 0.0000000000000000e+00  0.0000000000000000e+00  0.0000000000000000e+00  0.0000000000000000e+00 
 0.0000000000000000e+00  0.0000000000000000e+00  0.0000000000000000e+00  0.0000000000000000e+00 
 0.0000000000000000e+00  0.0000000000000000e+00  0.0000000000000000e+00  0.0000000000000000e+00 
 0.0000000000000000e+00  0.0000000000000000e+00  0.0000000000000000e+00  0.0000000000000000e+00 
 0.0000000000000000e+00  0.0000000000000000e+00  0.0000000000000000e+00  0.0000000000000000e+00 
 0.0000000000000000e+00  0.0000000000000000e+00  0.0000000000000000e+00  0.0000000000000000e+00 
 0.0000000000000000e+00  0.0000000000000000e+00  0.0000000000000000e+00  0.0000000000000000e+00 
 0.0000000000000000e+00  0.0000000000000000e+00  0.0000000000000000e+00  0.0000000000000000e+00 
 0.0000000000000000e+00  0.0000000000000000e+00  0.0000000000000000e+00  0.0000000000000000e+00 
 0.0000000000000000e+00  0.0000000000000000e+00  0.0000000000000000e+00  0.0000000000000000e+00 
 0.0000000000000000e+00  0.0000000000000000e+00  0.0000000000000000e+00  0.0000000000000000e+00 
 0.0000000000000000e+00  0.0000000000000000e+00  0.0000000000000000e+00  0.0000000000000000e+00 
 0.0000000000000000e+00  0.0000000000000000e+00  0.0000000000000000e+00  0.0000000000000000e+00 
 0.0000000000000000e+00  0.0000000000000000e+00  0.0000000000000000e+00  0.0000000000000000e+00 
 0.0000000000000000e+00  0.0000000000000000e+00  0.0000000000000000e+00  0.0000000000000000e+00 
 0.0000000000000000e+00  0.0000000000000000e+00  0.0000000000000000e+00  0.0000000000000000e+00 
 0.0000000000000000e+00  0.0000000000000000e+00  0.0000000000000000e+00  0.0000000000000000e+00 
 0.0000000000000000e+00  0.0000000000000000e+00  0.0000000000000000e+00  0.0000000000000000e+00 
 0.0000000000000000e+00  0.0000000000000000e+00  0.0000000000000000e+00  0.0000000000000000e+00 
 0.0000000000000000e+00  0.0000000000000000e+00  0.0000000000000000e+00  0.0000000000000000e+00 
 0.0000000000000000e+00  0.0000000000000000e+00  0.0000000000000000e+00  0.0000000000000000e+00 
 0.0000000000000000e+00  0.0000000000000000e+00  0.0000000000000000e+00  0.0000000000000000e+00 
 0.0000000000000000e+00  0.0000000000000000e+00  0.0000000000000000e+00  0.0000000000000000e+00 
 0.0000000000000000e+00  0.0000000000000000e+00  0.0000000000000000e+00  0.0000000000000000e+00 
 0.0000000000000000e+00  0.0000000000000000e+00  0.0000000000000000e+00  0.0000000000000000e+00 
 0.0000000000000000e+00  0.0000000000000000e+00  0.0000000000000000e+00  0.0000000000000000e+00 
 0.0000000000000000e+00  0.0000000000000000e+00  0.0000000000000000e+00  0.0000000000000000e+00 
 0.0000000000000000e+00  0.0000000000000000e+00  0.0000000000000000e+00  0.0000000000000000e+00 
 0.0000000000000000e+00  0.0000000000000000e+00 
  </PP_BETA>
  <PP_DIJ>
 4   Number of nonzero Dij
 1 1 1.4114367358384355e+01 
 2 2 7.7236590748997793e+00 
 3 3 -7.1298785528976935e-02 
 4 4 -7.2848350218694388e-02 
  </PP_DIJ>
</PP_NONLOCAL>
<PP_PSWFC>
S    0   2.00          Wavefunction
 1.6942540334533535e-06  1.7164231229158806e-06  1.7388822919799151e-06  1.7616353362988219e-06 
 1.7846861011915945e-06  1.8080384822927265e-06  1.8316964262105827e-06  1.8556639311943924e-06 
 1.8799450478099494e-06  1.9045438796241879e-06  1.9294645838986603e-06  1.9547113722921690e-06 
 1.9802885115725242e-06  2.0062003243376378e-06  2.0324511897460593e-06  2.0590455442570619e-06 
 2.0859878823804083e-06  2.1132827574359528e-06  2.1409347823231540e-06  2.1689486303006583e-06 
 2.1973290357760953e-06  2.2260807951062324e-06  2.2552087674075314e-06  2.2847178753773778e-06 
 2.3146131061260060e-06  2.3448995120193730e-06  2.3755822115329816e-06  2.4066663901169431e-06 
 2.4381573010723131e-06  2.4700602664389104e-06  2.5023806778948082e-06  2.5351239976674490e-06 
 2.5682957594568654e-06  2.6019015693708375e-06  2.6359471068723474e-06  2.6704381257394390e-06 
 2.7053804550376336e-06  2.7407800001049943e-06  2.7766427435502368e-06  2.8129747462637094e-06 
 2.8497821484417864e-06  2.8870711706245209e-06  2.9248481147469511e-06  2.9631193652041742e-06 
 3.0018913899302510e-06  3.0411707414913878e-06  3.0809640581932977e-06  3.1212780652030681e-06 
 3.1621195756858084e-06  3.2034954919560297e-06  3.2454128066441397e-06  3.2878786038783108e-06 
 3.3309000604816068e-06  3.3744844471849683e-06  3.4186391298559612e-06  3.4633715707435977e-06 
 3.5086893297395022e-06  3.5546000656556140e-06  3.6011115375184320e-06  3.6482316058804101e-06 
 3.6959682341483663e-06  3.7443294899293116e-06  3.7933235463939781e-06  3.8429586836580053e-06 
 3.8932432901813645e-06  3.9441858641860328e-06  3.9957950150921921e-06  4.0480794649732776e-06 
 4.1010480500300331e-06  4.1547097220837975e-06  4.2090735500894865e-06  4.2641487216682196e-06 
 4.3199445446600154e-06  4.3764704486969640e-06  4.4337359867967517e-06  4.4917508369772049e-06 
 4.5505248038919030e-06  4.6100678204871692e-06  4.6703899496808240e-06  4.7315013860628313e-06 
 4.7934124576181497e-06  4.8561336274722972e-06  4.9196754956596238e-06  4.9840488009147194e-06 
 5.0492644224873328e-06  5.1153333819809936e-06  5.1822668452156735e-06  5.2500761241148942e-06 
 5.3187726786174929e-06  5.3883681186143044e-06  5.4588742059103977e-06  5.5303028562127565e-06 
 5.6026661411441358e-06  5.6759762902832035e-06  5.7502456932313959e-06  5.8254869017067653e-06 
 5.9017126316653066e-06  5.9789357654499901e-06  6.0571693539679294e-06  6.1364266188960711e-06 
 6.2167209549156228e-06  6.2980659319758981e-06  6.3804752975876687e-06  6.4639629791465163e-06 
 6.5485430862866502e-06  6.6342299132655316e-06  6.7210379413795665e-06  6.8089818414115869e-06 
 6.8980764761103081e-06  6.9883369027020479e-06  7.0797783754356472e-06  7.1724163481604074e-06 
 7.2662664769378943e-06  7.3613446226877954e-06  7.4576668538686591e-06  7.5552494491934609e-06 
 7.6541089003806683e-06  7.7542619149416213e-06  7.8557254190040598e-06  7.9585165601727600e-06 
 8.0626527104275836e-06  8.1681514690593787e-06  8.2750306656444042e-06  8.3833083630576573e-06 
 8.4930028605254607e-06  8.6041326967183114e-06  8.7167166528838490e-06  8.8307737560211406e-06 
 8.9463232820962312e-06  9.0633847592999918e-06  9.1819779713484712e-06  9.3021229608263625e-06 
 9.4238400325745889e-06  9.5471497571215598e-06  9.6720729741600567e-06  9.7986307960691890e-06 
 9.9268446114823528e-06  1.0056736088902323e-05  1.0188327180363138e-05  1.0321640125140318e-05 
 1.0456697453509393e-05  1.0593521990553624e-05  1.0732136860021700e-05  1.0872565488235790e-05 
 1.1014831608050687e-05  1.1158959262865051e-05  1.1304972810684659e-05  1.1452896928239328e-05 
 1.1602756615153373e-05  1.1754577198170749e-05  1.1908384335435514e-05  1.2064204020828347e-05 
 1.2222062588359460e-05  1.2381986716619690e-05  1.2544003433289105e-05  1.2708140119705053e-05 
 1.2874424515489822e-05  1.3042884723239044e-05  1.3213549213271043e-05  1.3386446828438833e-05 
 1.3561606789004806e-05  1.3739058697579198e-05  1.3918832544123237e-05  1.4100958711017870e-05 
 1.4285467978198622e-05  1.4472391528357869e-05  1.4661760952214856e-05  1.4853608253855201e-05 
 1.5047965856139651e-05  1.5244866606184195e-05  1.5444343780911521e-05  1.5646431092675255e-05 
 1.5851162694957778e-05  1.6058573188142652e-05  1.6268697625362535e-05  1.6481571518423631e-05 
 1.6697230843807770e-05  1.6915712048752774e-05  1.7137052057412911e-05  1.7361288277099212e-05 
 1.7588458604602212e-05  1.7818601432596977e-05  1.8051755656132218e-05  1.8287960679203840e-05 
 1.8527256421415342e-05  1.8769683324724772e-05  1.9015282360279855e-05  1.9264095035343257e-05 
 1.9516163400307920e-05  1.9771530055804242e-05  2.0030238159900590e-05  2.0292331435397863e-05 
 2.0557854177219512e-05  2.0826851259898129e-05  2.1099368145160477e-05  2.1375450889611314e-05 
 2.1655146152518177e-05  2.1938501203697413e-05  2.2225563931504672e-05  2.2516382850928398e-05 
 2.2811007111790356e-05  2.3109486507053436e-05  2.3411871481237462e-05  2.3718213138945951e-05 
 2.4028563253504131e-05  2.4342974275710006e-05  2.4661499342700025e-05  2.4984192286930749e-05 
 2.5311107645278225e-05  2.5642300668256435e-05  2.5977827329355935e-05  2.6317744334505746e-05 
 2.6662109131658130e-05  2.7010979920499169e-05  2.7364415662286811e-05  2.7722476089817062e-05 
 2.8085221717521146e-05  2.8452713851694524e-05  2.8825014600860251e-05  2.9202186886267417e-05 
 2.9584294452527390e-05  2.9971401878389346e-05  3.0363574587656711e-05  3.0760878860246673e-05 
 3.1163381843393865e-05  3.1571151563001996e-05  3.1984256935142877e-05  3.2402767777706462e-05 
 3.2826754822203779e-05  3.3256289725723571e-05  3.3691445083046522e-05  3.4132294438916782e-05 
 3.4578912300475791e-05  3.5031374149857367e-05  3.5489756456948749e-05  3.5954136692318436e-05 
 3.6424593340312818e-05  3.6901205912325342e-05  3.7384054960238346e-05  3.7873222090041820e-05 
 3.8368789975629978e-05  3.8870842372778186e-05  3.9379464133304229e-05  3.9894741219413600e-05 
 4.0416760718233388e-05  4.0945610856536749e-05  4.1481381015659180e-05  4.2024161746611814e-05 
 4.2574044785390663e-05  4.3131123068488523e-05  4.3695490748608106e-05  4.4267243210582419e-05 
 4.4846477087502978e-05  4.5433290277059669e-05  4.6027781958094472e-05  4.6630052607371115e-05 
 4.7240204016567700e-05  4.7858339309486685e-05  4.8484562959495988e-05  4.9118980807194386e-05 
 4.9761700078309858e-05  5.0412829401833933e-05  5.1072478828390636e-05  5.1740759848849161e-05 
 5.2417785413177952e-05  5.3103669949547583e-05  5.3798529383684359e-05  5.4502481158474345e-05 
 5.5215644253828982e-05  5.5938139206807667e-05  5.6670088132005313e-05  5.7411614742207066e-05 
 5.8162844369314454e-05  5.8923903985544378e-05  5.9694922224907146e-05  6.0476029404966121e-05 
 6.1267357548883196e-05  6.2069040407750190e-05  6.2881213483218499e-05  6.3704014050420453e-05 
 6.4537581181194190e-05  6.5382055767612647e-05  6.6237580545819991e-05  6.7104300120182720e-05 
 6.7982360987755639e-05  6.8871911563069953e-05  6.9773102203246664e-05  7.0686085233438519e-05 
 7.1611014972607168e-05  7.2548047759637564e-05  7.3497341979795344e-05  7.4459058091531639e-05 
 7.5433358653639740e-05  7.6420408352768365e-05  7.7420374031295981e-05  7.8433424715570343e-05 
 7.9459731644521023e-05  8.0499468298644427e-05  8.1552810429373846e-05  8.2619936088829975e-05 
 8.3701025659967902e-05  8.4796261887114146e-05  8.5905829906911298e-05  8.7029917279664060e-05 
 8.8168714021099801e-05  8.9322412634545845e-05  9.0491208143529862e-05  9.1675298124809906e-05 
 9.2874882741834984e-05  9.4090164778652571e-05  9.5321349674252977e-05  9.6568645557374146e-05 
 9.7832263281757989e-05  9.9112416461874937e-05  1.0040932150911479e-04  1.0172319766845767e-04 
 1.0305426705562443e-04  1.0440275469471751e-04  1.0576888855635764e-04  1.0715289959632305e-04 
 1.0855502179469637e-04  1.0997549219552706e-04  1.1141455094701940e-04  1.1287244134224622e-04 
 1.1434940986040135e-04  1.1584570620859582e-04  1.1736158336420440e-04  1.1889729761777162e-04 
 1.2045310861648302e-04  1.2202927940821004e-04  1.2362607648613651e-04  1.2524376983397319e-04 
 1.2688263297177282e-04  1.2854294300234225e-04  1.3022498065827804e-04  1.3192903034961592e-04 
 1.3365538021211149e-04  1.3540432215616206e-04  1.3717615191637060e-04  1.3897116910177053e-04 
 1.4078967724671064e-04  1.4263198386241506e-04  1.4449840048922705e-04  1.4638924274954149e-04 
 1.4830483040144198e-04  1.5024548739304549e-04  1.5221154191756927e-04  1.5420332646912764e-04 
 1.5622117789926762e-04  1.5826543747425630e-04  1.6033645093312736e-04  1.6243456854649903e-04 
 1.6456014517617207e-04  1.6671354033552231e-04  1.6889511825069172e-04  1.7110524792259807e-04 
 1.7334430318976526e-04  1.7561266279199358e-04  1.7791071043487484e-04  1.8023883485516855e-04 
 1.8259742988704903e-04  1.8498689452923551e-04  1.8740763301301777e-04  1.8986005487119150e-04 
 1.9234457500791086e-04  1.9486161376947763e-04  1.9741159701607558e-04  1.9999495619446185e-04 
 2.0261212841163508e-04  2.0526355650948876e-04  2.0794968914046401e-04  2.1067098084421614e-04 
 2.1342789212531069e-04  2.1622088953196524e-04  2.1905044573584148e-04  2.2191703961291912e-04 
 2.2482115632544859e-04  2.2776328740501618e-04  2.3074393083671977e-04  2.3376359114448420e-04 
 2.3682277947752506e-04  2.3992201369798285e-04  2.4306181846973910e-04  2.4624272534843180e-04 
 2.4946527287269518e-04  2.5273000665662642e-04  2.5603747948351699e-04  2.5938825140084620e-04 
 2.6278288981657067e-04  2.6622196959671978e-04  2.6970607316432403e-04  2.7323579059968493e-04 
 2.7681171974201557e-04  2.8043446629247033e-04  2.8410464391858065e-04  2.8782287436011407e-04 
 2.9158978753639491e-04  2.9540602165508973e-04  2.9927222332248236e-04  3.0318904765527083e-04 
 3.0715715839390082e-04  3.1117722801746113e-04  3.1524993786016250e-04  3.1937597822942682e-04 
 3.2355604852561171e-04  3.2779085736338987e-04  3.3208112269481223e-04  3.3642757193408780e-04 
 3.4083094208409062e-04  3.4529197986463324e-04  3.4981144184253224e-04  3.5439009456348871e-04 
 3.5902871468581683e-04  3.6372808911604810e-04  3.6848901514643711e-04  3.7331230059441166e-04 
 3.7819876394397237e-04  3.8314923448911037e-04  3.8816455247923682e-04  3.9324556926668085e-04 
 3.9839314745628279e-04  4.0360816105711959e-04  4.0889149563638516e-04  4.1424404847548147e-04 
 4.1966672872833193e-04  4.2516045758198099e-04  4.3072616841949269e-04  4.3636480698520447e-04 
 4.4207733155236204e-04  4.4786471309319692e-04  4.5372793545145291e-04  4.5966799551744119e-04 
 4.6568590340564220e-04  4.7178268263490484e-04  4.7795937031129456e-04  4.8421701731362552e-04 
 4.9055668848173100e-04  4.9697946280751750e-04  5.0348643362885443e-04  5.1007870882634687e-04 
 5.1675741102304173e-04  5.2352367778712462e-04  5.3037866183766136e-04  5.3732353125343006e-04 
 5.4435946968491771e-04  5.5148767656952276e-04  5.5870936735002638e-04  5.6602577369641027e-04 
 5.7343814373105560e-04  5.8094774225741499e-04  5.8855585099219711e-04  5.9626376880115412e-04 
 6.0407281193853191e-04  6.1198431429024757e-04  6.1999962762086965e-04  6.2812012182449854e-04 
 6.3634718517958217e-04  6.4468222460777622e-04  6.5312666593693057e-04  6.6168195416826503e-04 
 6.7034955374782774e-04  6.7913094884234195e-04  6.8802764361950190e-04  6.9704116253283249e-04 
 7.0617305061119518e-04  7.1542487375304408e-04  7.2479821902554067e-04  7.3429469496859453e-04 
 7.4391593190400085e-04  7.5366358224971612e-04  7.6353932083943080e-04  7.7354484524752890e-04 
 7.8368187611957732e-04  7.9395215750843176e-04  8.0435745721614722e-04  8.1489956714173321e-04 
 8.2558030363498718e-04  8.3640150785646474e-04  8.4736504614376642e-04  8.5847281038429883e-04 
 8.6972671839462387e-04  8.8112871430657863e-04  8.9268076896032290e-04  9.0438488030448419e-04 
 9.1624307380354755e-04  9.2825740285269905e-04  9.4042994920028739e-04  9.5276282337807341e-04 
 9.6525816513952584e-04  9.7791814390626812e-04  9.9074495922297058e-04  1.0037408412208390e-03 
 1.0169080510899671e-03  1.0302488815607397e-03  1.0437656573945588e-03  1.0574607358840966e-03 
 1.0713365073633492e-03  1.0853953957277592e-03  1.0996398589646743e-03  1.1140723896943471e-03 
 1.1286955157219134e-03  1.1435118006004640e-03  1.1585238442056820e-03  1.1737342833222297e-03 
 1.1891457922423038e-03  1.2047610833766527e-03  1.2205829078784233e-03  1.2366140562801837e-03 
 1.2528573591445186e-03  1.2693156877285644e-03  1.2859919546629275e-03  1.3028891146453423e-03 
 1.3200101651495285e-03  1.3373581471497499e-03  1.3549361458614225e-03  1.3727472914983596e-03 
 1.3907947600470753e-03  1.4090817740587329e-03  1.4276116034591978e-03  1.4463875663778066e-03 
 1.4654130299953942e-03  1.4846914114121691e-03  1.5042261785361000e-03  1.5240208509923910e-03 
 1.5440790010547579e-03  1.5644042545991609e-03  1.5850002920807173e-03  1.6058708495345696e-03 
 1.6270197196013862e-03  1.6484507525784254e-03  1.6701678574968523e-03  1.6921750032262374e-03 
 1.7144762196071978e-03  1.7370755986129041e-03  1.7599772955406380e-03  1.7831855302342641e-03 
 1.8067045883386973e-03  1.8305388225873893e-03  1.8546926541240817e-03  1.8791705738598031e-03 
 1.9039771438664570e-03  1.9291169988082479e-03  1.9545948474121123e-03  1.9804154739787006e-03 
 2.0065837399351341e-03  2.0331045854311805e-03  2.0599830309801677e-03  2.0872241791464121e-03 
 2.1148332162806492e-03  2.1428154143052634e-03  2.1711761325510517e-03  2.1999208196474269e-03 
 2.2290550154678897e-03  2.2585843531328187e-03  2.2885145610717457e-03  2.3188514651470422e-03 
 2.3496009908415831e-03  2.3807691655124679e-03  2.4123621207133294e-03  2.4443860945878877e-03 
 2.4768474343371417e-03  2.5097525987632157e-03  2.5431081608925216e-03  2.5769208106813071e-03 
 2.6111973578067760e-03  2.6459447345467857e-03  2.6811699987517755e-03  2.7168803369122035e-03 
 2.7530830673252521e-03  2.7897856433646822e-03  2.8269956568576084e-03  2.8647208415725134e-03 
 2.9029690768227661e-03  2.9417483911900765e-03  2.9810669663726326e-03  3.0209331411627776e-03 
 3.0613554155593421e-03  3.1023424550198934e-03  3.1439030948584900e-03  3.1860463447946534e-03 
 3.2287813936596600e-03  3.2721176142663246e-03  3.3160645684489265e-03  3.3606320122800321e-03 
 3.4058299014714057e-03  3.4516683969663562e-03  3.4981578707314110e-03  3.5453089117553301e-03 
 3.5931323322637961e-03  3.6416391741589979e-03  3.6908407156927459e-03  3.7407484783832474e-03 
 3.7913742341852950e-03  3.8427300129243898e-03  3.8948281100058208e-03  3.9476810944100481e-03 
 4.0013018169863272e-03  4.0557034190571422e-03  4.1108993413461956e-03  4.1669033332439754e-03 
 4.2237294624246557e-03  4.2813921248294820e-03  4.3399060550319384e-03  4.3992863370011922e-03 
 4.4595484152801564e-03  4.5207081065967184e-03  4.5827816119256492e-03  4.6457855290213271e-03 
 4.7097368654409194e-03  4.7746530520794521e-03  4.8405519572384996e-03  4.9074519012518684e-03 
 4.9753716716921959e-03  5.0443305391835004e-03  5.1143482738463834e-03  5.1854451624029872e-03 
 5.2576420259708417e-03  5.3309602385752759e-03  5.4054217464122502e-03  5.4810490878941624e-03 
 5.5578654145131308e-03  5.6358945125575708e-03  5.7151608257197950e-03  5.7956894786335925e-03 
 5.8775063013832554e-03  5.9606378550263643e-03  6.0451114581758303e-03  6.1309552146874341e-03 
 6.2181980425023665e-03  6.3068697036956171e-03  6.3970008357838492e-03  6.4886229843487747e-03 
 6.5817686370342379e-03  6.6764712589783099e-03  6.7727653297438677e-03  6.8706863818146849e-03 
 6.9702710407263530e-03  7.0715570669046685e-03  7.1745833992876481e-03  7.2793902008103989e-03 
 7.3860189058352690e-03  7.4945122696139900e-03  7.6049144198719202e-03  7.7172709106081878e-03 
 7.8316287782100123e-03  7.9480365999836620e-03  8.0665445552085876e-03  8.1872044888257941e-03 
 8.3100699778768938e-03  8.4351964008140927e-03  8.5626410098074372e-03  8.6924630061798770e-03 
 8.8247236191070239e-03  8.9594861877231782e-03  9.0968162467816790e-03  9.2367816160227063e-03 
 9.3794524934087669e-03  9.5249015523930884e-03  9.6732040433937985e-03  9.8244378996524221e-03 
 9.9786838476625898e-03  1.0136025522360844e-02  1.0296549587280166e-02  1.0460345859871864e-02 
 1.0627507442210509e-02  1.0798130857303483e-02  1.0972316191233712e-02  1.1150167241373108e-02 
 1.1331791670910321e-02  1.1517301169945907e-02  1.1706811623414602e-02  1.1900443286103023e-02 
 1.2098320965038658e-02  1.2300574209534046e-02  1.2507337509177811e-02  1.2718750500072012e-02 
 1.2934958179623189e-02  1.3156111130201103e-02  1.3382365751987767e-02  1.3613884505345437e-02 
 1.3850836163039783e-02  1.4093396072660096e-02  1.4341746429586216e-02  1.4596076560855459e-02 
 1.4856583220290306e-02  1.5123470895250809e-02  1.5396952125381376e-02  1.5677247833723738e-02 
 1.5964587670572388e-02  1.6259210370450413e-02  1.6561364122584785e-02  1.6871306955261952e-02 
 1.7189307134443176e-02  1.7515643577019412e-02  1.7850606279081856e-02  1.8194496759582929e-02 
 1.8547628519756557e-02  1.8910327518664227e-02  1.9282932665223230e-02  1.9665796327070544e-02 
 2.0059284856603809e-02  2.0463779134534874e-02  2.0879675131277305e-02  2.1307384486482096e-02 
 2.1747335107020666e-02  2.2199971783702969e-02  2.2665756827004464e-02  2.3145170722062871e-02 
 2.3638712803190357e-02  2.4146901948133320e-02  2.4670277292299373e-02  2.5209398963154557e-02 
 2.5764848834986229e-02  2.6337231304211291e-02  2.6927174085403027e-02  2.7535329028201321e-02 
 2.8162372955266832e-02  2.8809008521436971e-02  2.9475965094244858e-02  3.0163999655967461e-02 
 3.0873897727381087e-02  3.1606474313417156e-02  3.2362574870934809e-02  3.3143076298854511e-02 
 3.3948887950931976e-02  3.4780952671495703e-02  3.5640247854518525e-02  3.6527786526456933e-02 
 3.7444618453350675e-02  3.8391831272754633e-02  3.9370551651151650e-02  4.0381946467583106e-02 
 4.1427224024324187e-02  4.2507635285529081e-02  4.3624475144864547e-02  4.4779083723248840e-02 
 4.5972847697901463e-02  4.7207201663994600e-02  4.8483629530260697e-02  4.9803665949965763e-02 
 5.1168897788675373e-02  5.2580965630230923e-02  5.4041565322296259e-02  5.5552449562725911e-02 
 5.7115429527827444e-02  5.8732376543333090e-02  6.0405223798547118e-02  6.2135968103667442e-02 
 6.3926671689695291e-02  6.5779464049596600e-02  6.7696543818481753e-02  6.9680180689461954e-02 
 7.1732717360536088e-02  7.3856571506311863e-02  7.6054237766563421e-02  7.8328289741540866e-02 
 8.0681381981561481e-02  8.3116251955705309e-02  8.5635721981388094e-02  8.8242701093192433e-02 
 9.0940186825575087e-02  9.3731266879952757e-02  9.6619120642194523e-02  9.9607020511728733e-02 
 1.0269833299834372e-01  1.0589651953734351e-01  1.0920513696809157e-01  1.1262783761515868e-01 
 1.1616836890543115e-01  1.1983057244867847e-01  1.2361838250337645e-01  1.2753582374417904e-01 
 1.3158700824247005e-01  1.3577613156710522e-01  1.4010746790897674e-01  1.4458536413059261e-01 
 1.4921423264071693e-01  1.5399854299448548e-01  1.5894281212152503e-01  1.6405159308871839e-01 
 1.6932946231055318e-01  1.7478100512868372e-01  1.8041079969354584e-01  1.8622339909469188e-01 
 1.9222331170298751e-01  1.9841497970681293e-01  2.0480275584583885e-01  2.1139087836941955e-01 
 2.1818344427178990e-01  2.2518438088243400e-01  2.3239741591650057e-01  2.3982604611603095e-01 
 2.4747350463701134e-01  2.5534272735860736e-01  2.6343631830810355e-01  2.7175651440661819e-01 
 2.8030514974517784e-01  2.8908361959683748e-01  2.9809284435697903e-01  3.0733323357970654e-01 
 3.1680465024277160e-01  3.2650637532654636e-01  3.3643707273481949e-01  3.4659475451781213e-01 
 3.5697674628326759e-01  3.6757965260291731e-01  3.7839932214371663e-01  3.8943081218162895e-01 
 4.0066835209736124e-01  4.1210530541629342e-01  4.2373412994775078e-01  4.3554633561110057e-01 
 4.4753243961726746e-01  4.5968191881293391e-01  4.7198315919817618e-01  4.8442340290155034e-01 
 4.9698869324112732e-01  5.0966381891253765e-01  5.2243225881689526e-01  5.3527612955676629e-01 
 5.4817613816393551e-01  5.6111154314692868e-01  5.7406012741970847e-01  5.8699818704840723e-01 
 5.9990053997765269e-01  6.1274055891569768e-01  6.2549023231244427e-01  6.3812025680598994e-01 
 6.5060016360224593e-01  6.6289847996719431e-01  6.7498292535669790e-01  6.8682063972148011e-01 
 6.9837843928139209e-01  7.0962309268412760e-01  7.2052160811612564e-01  7.3104151982876975e-01 
 7.4115116092917943e-01  7.5081990843303181e-01  7.6001838676045252e-01  7.6871861732249236e-01 
 7.7689410478246912e-01  7.8451985507049549e-01  7.9157232622697138e-01  7.9802932041745944e-01 
 8.0386983355247377e-01  8.0907388719014262e-01  8.1362237490708988e-01  8.1749696101982461e-01 
 8.2068007224145723e-01  8.2315502138265906e-01  8.2490629551649919e-01  8.2592002841739764e-01 
 8.2618465837342248e-01  8.2569174819361479e-01  8.2443691579729261e-01  8.2242079355159825e-01 
 8.1964990583027320e-01  8.1613733119338117e-01  8.1190300267456272e-01  8.0697350138863777e-01 
 8.0138121878943058e-01  7.9516280366632852e-01  7.8835687132906740e-01  7.8100103138543842e-01 
 7.7312838067438794e-01  7.6476369951496859e-01  7.5591966992189097e-01  7.4659998594828647e-01 
 7.3682280506634901e-01  7.2661162009447877e-01  7.1599025943283279e-01  7.0498282549137659e-01 
 6.9361363340057847e-01  6.8190715023412996e-01  6.6988793496595544e-01  6.5758057937563263e-01 
 6.4500965010685440e-01  6.3219963207245744e-01  6.1917487338683586e-01  6.0595953199237074e-01 
 5.9257752410501074e-01  5.7905247475056387e-01  5.6540767022246230e-01  5.5166601285705275e-01 
 5.3784997805457635e-01  5.2398157363911235e-01  5.1008230160229118e-01  4.9617312225789734e-01 
 4.8227442081793886e-01  4.6840597638536074e-01  4.5458693334465899e-01  4.4083577511946814e-01 
 4.2717030025612102e-01  4.1360760078443082e-01  4.0016404280185980e-01  3.8685524922496051e-01 
 3.7369608465270077e-01  3.6070064228998278e-01  3.4788223288628167e-01  3.3525337565351293e-01 
 3.2282579113876919e-01  3.1061039604037211e-01  2.9861729996891456e-01  2.8685580416994838e-01 
 2.7533440223547023e-01  2.6406078284030515e-01  2.5304183455105872e-01  2.4228365275068536e-01 
 2.3179154872251095e-01  2.2157006093265585e-01  2.1162296852882065e-01  2.0195330706303927e-01 
 1.9256338641842111e-01  1.8345481089562352e-01  1.7462850138606445e-01  1.6608471952941503e-01 
 1.5782309372382552e-01  1.4984264682976037e-01  1.4214182538347689e-01  1.3471853011500012e-01 
 1.2757014754860996e-01  1.2069358245190601e-01  1.1408529089257627e-01  1.0774131366006166e-01 
 1.0165730981214255e-01  9.5828590114112544e-02  9.0250150149081526e-02  8.4916702892782178e-02 
 7.9822710564172589e-02  7.4962415582717740e-02  7.0329870483219092e-02  6.5918966664278100e-02 
 6.1723461867889469e-02  5.7737006308917753e-02  5.3953167398672813e-02  5.0365453030539360e-02 
 4.6967333408030006e-02  4.3752261421908425e-02  4.0713691602419562e-02  3.7845097677043249e-02 
 3.5139988783619167e-02  3.2591924403233871e-02  3.0194528073404732e-02  2.7941499949503654e-02 
 2.5826628296909775e-02  2.3843799972774637e-02  2.1987009974531173e-02  2.0250370116196872e-02 
 1.8628116890546612e-02  1.7114618569466378e-02  1.5704381586255107e-02  1.4392056236863229e-02 
 1.3172441730013784e-02  1.2040490609815730e-02  1.0991312569228476e-02  1.0020177668099404e-02 
 9.1225189668367491e-03  8.2939345842810361e-03  7.5301891879514665e-03  6.8272149244389931e-03 
 6.1811117999761916e-03  5.5881475211508099e-03  5.0447568103008751e-03  4.5475402110557823e-03 
 4.0932624035553405e-03  3.6788500514923009e-03  3.3013892061430311e-03  2.9581222953424628e-03 
 2.6464447277689145e-03  2.3639011450566683e-03  2.1081813559233687e-03  1.8771159877617768e-03 
 1.6686718919589679e-03  1.4809473395599000e-03  1.3121670438224892e-03  1.1606770457344164e-03 
 1.0249394977075374e-03  9.0352737947817306e-04  7.9511917875787228e-04  6.9849356744428352e-04 
 6.1252410225926869e-04  5.3617397657433358e-04  4.6849084795377112e-04  4.0860176363304869e-04 
 3.5570820379087902e-04  3.0908126010187174e-04  2.6805696470325865e-04  2.3203178240094994e-04 
 2.0045827670095385e-04  1.7284095810199298e-04  1.4873232104112793e-04  1.2772907395989700e-04 
 1.0946856516468617e-04  9.3625405499585040e-05  7.9908287338096602e-05  6.8056998034618965e-05 
 5.7839624758260940e-05  4.9049946559077780e-05  4.1505008587256255e-05  3.5042872594740877e-05 
 2.9520537190640768e-05  2.4812020789786565e-05  2.0806599780525667e-05  1.7407194135111091e-05 
 1.4528892485220304e-05  1.2097608577377972e-05  1.0048860999247555e-05  8.3266681188961024e-06 
 6.8825502962218465e-06  5.6746316000668776e-06  4.6668334876561312e-06  3.8281531668709860e-06 
 3.1320196588657640e-06  2.5557209015511604e-06  2.0798955769160367e-06  1.6880837010041939e-06 
 1.3663303791459412e-06  1.1028374958778789e-06  8.8765847455536977e-07  7.1243160221229697e-07 
 5.7014776754124390e-07  4.5494880125458250e-07  3.6195293633782362e-07  2.8710421906787114e-07 
 2.2704299881201253e-07  1.7899490460241530e-07  1.4067597869690730e-07  1.1021188149889855e-07 
 8.6069308296481100e-08  6.6997966504136366e-08  5.1981652858629619e-08  4.0197143908632818e-08 
 3.0979770840705422e-08  2.3794692001242746e-08  1.8213004332200615e-08  1.3891949208745574e-08 
 1.0558569658873997e-08  7.9962661890420818e-09  6.0337782021391371e-09  4.5361856947946613e-09 
 3.3975876768088783e-09  2.5351744809223727e-09  1.8844392694929573e-09  1.3953028622079567e-09 
 1.0290616680432176e-09  7.5598848421979442e-10  5.5312622455570017e-10  4.0282627128104425e-10 
 2.9255391935532053e-10  2.1204011904988134e-10  1.5065225047693085e-10  1.0774726281540849e-10 
 8.4531509942562669e-11  4.5542628718379702e-11  5.2908957123663224e-11  3.7236890651342190e-11 
 2.6086838241414999e-11  1.8190606910421928e-11  0.0000000000000000e+00  0.0000000000000000e+00 
 0.0000000000000000e+00  0.0000000000000000e+00  0.0000000000000000e+00  0.0000000000000000e+00 
 0.0000000000000000e+00  0.0000000000000000e+00  0.0000000000000000e+00  0.0000000000000000e+00 
 0.0000000000000000e+00  0.0000000000000000e+00  0.0000000000000000e+00  0.0000000000000000e+00 
 0.0000000000000000e+00  0.0000000000000000e+00  0.0000000000000000e+00  0.0000000000000000e+00 
 0.0000000000000000e+00  0.0000000000000000e+00  0.0000000000000000e+00  0.0000000000000000e+00 
 0.0000000000000000e+00  0.0000000000000000e+00  0.0000000000000000e+00  0.0000000000000000e+00 
 0.0000000000000000e+00  0.0000000000000000e+00  0.0000000000000000e+00  0.0000000000000000e+00 
 0.0000000000000000e+00  0.0000000000000000e+00  0.0000000000000000e+00  0.0000000000000000e+00 
 0.0000000000000000e+00  0.0000000000000000e+00  0.0000000000000000e+00  0.0000000000000000e+00 
 0.0000000000000000e+00  0.0000000000000000e+00  0.0000000000000000e+00  0.0000000000000000e+00 
 0.0000000000000000e+00  0.0000000000000000e+00  0.0000000000000000e+00  0.0000000000000000e+00 
 0.0000000000000000e+00  0.0000000000000000e+00  0.0000000000000000e+00  0.0000000000000000e+00 
 0.0000000000000000e+00  0.0000000000000000e+00  0.0000000000000000e+00  0.0000000000000000e+00 
 0.0000000000000000e+00  0.0000000000000000e+00  0.0000000000000000e+00  0.0000000000000000e+00 
 0.0000000000000000e+00  0.0000000000000000e+00  0.0000000000000000e+00  0.0000000000000000e+00 
 0.0000000000000000e+00  0.0000000000000000e+00  0.0000000000000000e+00  0.0000000000000000e+00 
 0.0000000000000000e+00  0.0000000000000000e+00  0.0000000000000000e+00  0.0000000000000000e+00 
 0.0000000000000000e+00  0.0000000000000000e+00  0.0000000000000000e+00  0.0000000000000000e+00 
 0.0000000000000000e+00  0.0000000000000000e+00  0.0000000000000000e+00  0.0000000000000000e+00 
 0.0000000000000000e+00  0.0000000000000000e+00  0.0000000000000000e+00  0.0000000000000000e+00 
 0.0000000000000000e+00  0.0000000000000000e+00  0.0000000000000000e+00  0.0000000000000000e+00 
 0.0000000000000000e+00  0.0000000000000000e+00  0.0000000000000000e+00  0.0000000000000000e+00 
 0.0000000000000000e+00  0.0000000000000000e+00  0.0000000000000000e+00  0.0000000000000000e+00 
 0.0000000000000000e+00  0.0000000000000000e+00  0.0000000000000000e+00  0.0000000000000000e+00 
 0.0000000000000000e+00  0.0000000000000000e+00  0.0000000000000000e+00  0.0000000000000000e+00 
 0.0000000000000000e+00  0.0000000000000000e+00  0.0000000000000000e+00  0.0000000000000000e+00 
 0.0000000000000000e+00  0.0000000000000000e+00  0.0000000000000000e+00  0.0000000000000000e+00 
 0.0000000000000000e+00  0.0000000000000000e+00  0.0000000000000000e+00  0.0000000000000000e+00 
 0.0000000000000000e+00  0.0000000000000000e+00  0.0000000000000000e+00  0.0000000000000000e+00 
 0.0000000000000000e+00  0.0000000000000000e+00 
P    1   1.67          Wavefunction
 9.9605237030290568e-11  1.0222893344983596e-10  1.0492174052175160e-10  1.0768547868618002e-10 
 1.1052201633538409e-10  1.1343327107685110e-10  1.1642121102966950e-10  1.1948785615505156e-10 
 1.2263527962190414e-10  1.2586560920837061e-10  1.2918102874028895e-10  1.3258377956754205e-10 
 1.3607616207929514e-10  1.3966053725914680e-10  1.4333932828124378e-10  1.4711502214843884e-10 
 1.5099017137359991e-10  1.5496739570520573e-10  1.5904938389839590e-10  1.6323889553267126e-10 
 1.6753876287747562e-10  1.7195189280691750e-10  1.7648126876492742e-10  1.8112995278218041e-10 
 1.8590108754614495e-10  1.9079789852565978e-10  1.9582369615147361e-10  2.0098187805422270e-10 
 2.0627593136135816e-10  2.1170943505457777e-10  2.1728606238935370e-10  2.2300958337819314e-10 
 2.2888386733931086e-10  2.3491288551243477e-10  2.4110071374351715e-10  2.4745153524016054e-10 
 2.5396964339962609e-10  2.6065944471133353e-10  2.6752546173581628e-10  2.7457233616214520e-10 
 2.8180483194588641e-10  2.8922783852971788e-10  2.9684637414887855e-10  3.0466558922368747e-10 
 3.1269076984142276e-10  3.2092734132992102e-10  3.2938087192530258e-10  3.3805707653631456e-10 
 3.4696182060782374e-10  3.5610112408608561e-10  3.6548116548845355e-10  3.7510828608029371e-10 
 3.8498899416192377e-10  3.9512996946846980e-10  4.0553806768562383e-10  4.1622032508434883e-10 
 4.2718396327766459e-10  4.3843639410273709e-10  4.4998522463156005e-10  4.6183826231362772e-10 
 4.7400352025406789e-10  4.8648922263080739e-10  4.9930381025443056e-10  5.1245594627448777e-10 
 5.2595452203611821e-10  5.3980866309093608e-10  5.5402773536625246e-10  5.6862135149680106e-10 
 5.8359937732324494e-10  5.9897193856186256e-10  6.1474942764991796e-10  6.3094251077134614e-10 
 6.4756213506750082e-10  6.6461953603783955e-10  6.8212624513554990e-10  7.0009409756325565e-10 
 7.1853524027406197e-10  7.3746214018336244e-10  7.5688759259695109e-10  7.7682472986113446e-10 
 7.9728703024070527e-10  8.1828832703075793e-10  8.3984281790853174e-10  8.6196507453157988e-10 
 8.8467005238876683e-10  9.0797310091075457e-10  9.3188997384679811e-10  9.5643683991489060e-10 
 9.8163029373242928e-10  1.0074873670348175e-09  1.0340255401895612e-09  1.0612627540136772e-09 
 1.0892174219023621e-09  1.1179084422771594e-09  1.1473552113620166e-09  1.1775776362958656e-09 
 1.2085961485906252e-09  1.2404317179436785e-09  1.2731058664141844e-09  1.3066406829728312e-09 
 1.3410588384348162e-09  1.3763836007861862e-09  1.4126388509138901e-09  1.4498490987501800e-09 
 1.4880394998422482e-09  1.5272358723583684e-09  1.5674647145419420e-09  1.6087532226253452e-09 
 1.6511293092156155e-09  1.6946216221644557e-09  1.7392595639352745e-09  1.7850733114803784e-09 
 1.8320938366417619e-09  1.8803529270892516e-09  1.9298832078102014e-09  1.9807181631652288e-09 
 2.0328921595249457e-09  2.0864404685029250e-09  2.1413992908006935e-09  2.1978057806807764e-09 
 2.2556980710844208e-09  2.3151152994109394e-09  2.3760976339760815e-09  2.4386863011673769e-09 
 2.5029236133147572e-09  2.5688529972953250e-09  2.6365190238915904e-09  2.7059674379230517e-09 
 2.7772451891714479e-09  2.8504004641206304e-09  2.9254827185324801e-09  3.0025427108809247e-09 
 3.0816325366666135e-09  3.1628056636355091e-09  3.2461169679251294e-09  3.3316227711629566e-09 
 3.4193808785420392e-09  3.5094506178995183e-09  3.6018928798245809e-09  3.6967701588228282e-09 
 3.7941465955649871e-09  3.8940880202485136e-09  3.9966619971013415e-09  4.1019378700579289e-09 
 4.2099868096384591e-09  4.3208818610628796e-09  4.4346979936322944e-09  4.5515121514111445e-09 
 4.6714033052444041e-09  4.7944525061449156e-09  4.9207429400870674e-09  5.0503599842437267e-09 
 5.1833912647045786e-09  5.3199267157147413e-09  5.4600586404738798e-09  5.6038817735367448e-09 
 5.7514933448574212e-09  5.9029931455206576e-09  6.0584835952044815e-09  6.2180698114199494e-09 
 6.3818596805747044e-09  6.5499639309084142e-09  6.7224962073494699e-09  6.8995731483433303e-09 
 7.0813144647048162e-09  7.2678430205472505e-09  7.4592849163435014e-09  7.6557695741748524e-09 
 7.8574298252254685e-09  8.0644019995815138e-09  8.2768260183956839e-09  8.4948454884794764e-09 
 8.7186077993870849e-09  8.9482642230565892e-09  9.1839700160757821e-09  9.4258845246418617e-09 
 9.6741712922857429e-09  9.9289981704340604e-09  1.0190537431883430e-08  1.0458965887263735e-08 
 1.0734465004569218e-08  1.1017221031838092e-08  1.1307425123063742e-08  1.1605273467422453e-08 
 1.1910967421905246e-08  1.2224713647443300e-08  1.2546724248619084e-08  1.2877216917057688e-08 
 1.3216415078595063e-08  1.3564548044323104e-08  1.3921851165613104e-08  1.4288565993223054e-08 
 1.4664940440595629e-08  1.5051228951457912e-08  1.5447692671835708e-08  1.5854599626598992e-08 
 1.6272224900657743e-08  1.6700850824930639e-08  1.7140767167212377e-08  1.7592271328068794e-08 
 1.8055668541891799e-08  1.8531272083250590e-08  1.9019403478678233e-08  1.9520392724037127e-08 
 2.0034578507609771e-08  2.0562308439066475e-08  2.1103939284463805e-08  2.1659837207433711e-08 
 2.2230378016725439e-08  2.2815947420268202e-08  2.3416941285925942e-08  2.4033765909121061e-08 
 2.4666838287507304e-08  2.5316586402878008e-08  2.5983449510500166e-08  2.6667878436069792e-08 
 2.7370335880489677e-08  2.8091296732675117e-08  2.8831248390599461e-08  2.9590691090796245e-08 
 3.0370138246541106e-08  3.1170116794941577e-08  3.1991167553169691e-08  3.2833845584078386e-08 
 3.3698720571448296e-08  3.4586377205119749e-08  3.5497415576268721e-08  3.6432451583095806e-08 
 3.7392117347200535e-08  3.8377061640924668e-08  3.9387950325951439e-08  4.0425466803458280e-08 
 4.1490312476127546e-08  4.2583207222326576e-08  4.3704889882778989e-08  4.4856118760055143e-08 
 4.6037672131219942e-08  4.7250348773984410e-08  4.8494968506717352e-08  4.9772372742680880e-08 
 5.1083425058866038e-08  5.2429011779811922e-08  5.3810042576803626e-08  5.5227451082853802e-08 
 5.6682195523884263e-08  5.8175259366532924e-08  5.9707651983025886e-08  6.1280409333562771e-08 
 6.2894594666677218e-08  6.4551299238046135e-08  6.6251643048233277e-08  6.7996775599866220e-08 
 6.9787876674759075e-08  7.1626157131504905e-08  7.3512859724079229e-08  7.5449259942005527e-08 
 7.7436666872654053e-08  7.9476424086252590e-08  8.1569910544212130e-08  8.3718541531378456e-08 
 8.5923769612840598e-08  8.8187085615944001e-08  9.0510019638171507e-08  9.2894142081573690e-08 
 9.5341064714447304e-08  9.7852441760982096e-08  1.0042997101960938e-07  1.0307539501081071e-07 
 1.0579050215516217e-07  1.0857712798240997e-07  1.1143715637239681e-07  1.1437252082867578e-07 
 1.1738520578567423e-07  1.2047724795029055e-07  1.2365073767883288e-07  1.2690782039022739e-07 
 1.3025069801645513e-07  1.3368163049119655e-07  1.3720293727768866e-07  1.4081699893683136e-07 
 1.4452625873660088e-07  1.4833322430385804e-07  1.5224046931966965e-07  1.5625063525928982e-07 
 1.6036643317797494e-07  1.6459064554384288e-07  1.6892612811901393e-07  1.7337581189030533e-07 
 1.7794270505078641e-07  1.8262989503353274e-07  1.8744055059895563e-07  1.9237792397711488e-07 
 1.9744535306647148e-07  2.0264626369055552e-07  2.0798417191408699e-07  2.1346268642010585e-07 
 2.1908551094972535e-07  2.2485644680615576e-07  2.3077939542469103e-07  2.3685836101039752e-07 
 2.4309745324528838e-07  2.4950089006681497e-07  2.5607300051954991e-07  2.6281822768199789e-07 
 2.6974113167050414e-07  2.7684639272230029e-07  2.8413881435976829e-07  2.9162332663806135e-07 
 2.9930498947828073e-07  3.0718899608846174e-07  3.1528067647468067e-07  3.2358550104465938e-07 
 3.3210908430630446e-07  3.4085718866368040e-07  3.4983572831298458e-07  3.5905077324116000e-07 
 3.6850855332985030e-07  3.7821546256746947e-07  3.8817806337223910e-07  3.9840309102911465e-07 
 4.0889745824359895e-07  4.1966825981553167e-07  4.3072277743600481e-07  4.4206848461065649e-07 
 4.5371305171266780e-07  4.6566435116888673e-07  4.7793046278257964e-07  4.9051967919641522e-07 
 5.0344051149937814e-07  5.1670169498139182e-07  5.3031219503956841e-07  5.4428121324005121e-07 
 5.5861819353956938e-07  5.7333282867091431e-07  5.8843506669663853e-07  6.0393511773543770e-07 
 6.1984346086573880e-07  6.3617085121118689e-07  6.5292832721280779e-07  6.7012721809278060e-07 
 6.8777915151485000e-07  7.0589606144659060e-07  7.2449019622880374e-07  7.4357412685754983e-07 
 7.6316075548437621e-07  7.8326332414052703e-07  8.0389542369102352e-07  8.2507100302466211e-07 
 8.4680437848617720e-07  8.6911024355691936e-07  8.9200367879062256e-07  9.1550016201097566e-07 
 9.3961557877789287e-07  9.6436623312958232e-07  9.8976885860766201e-07  1.0158406295728052e-06 
 1.0425991728185489e-06  1.0700625794911614e-06  1.0982494173235921e-06  1.1271787431918234e-06 
 1.1568701160021058e-06  1.1873436099177851e-06  1.2186198279347211e-06  1.2507199158144231e-06 
 1.2836655763844011e-06  1.3174790842153499e-06  1.3521833006851698e-06  1.3878016894399506e-06 
 1.4243583322624510e-06  1.4618779453587844e-06  1.5003858960743233e-06  1.5399082200501982e-06 
 1.5804716388319500e-06  1.6221035779422912e-06  1.6648321854301937e-06  1.7086863509089232e-06 
 1.7536957250958146e-06  1.7998907398671240e-06  1.8473026288414788e-06  1.8959634485058910e-06 
 1.9459060998986436e-06  1.9971643508637455e-06  2.0497728588920128e-06  2.1037671945642729e-06 
 2.1591838656125690e-06  2.2160603416156696e-06  2.2744350793456183e-06  2.3343475487824856e-06 
 2.3958382598149964e-06  2.4589487896450915e-06  2.5237218109149974e-06  2.5902011205759261e-06 
 2.6584316695178766e-06  2.7284595929807572e-06  2.8003322417673221e-06  2.8740982142791726e-06 
 2.9498073893975063e-06  3.0275109602309348e-06  3.1072614687532697e-06  3.1891128413547035e-06 
 3.2731204253306253e-06  3.3593410263326859e-06  3.4478329468076715e-06  3.5386560254500978e-06 
 3.6318716776955038e-06  3.7275429372817135e-06  3.8257344989064515e-06  3.9265127620101567e-06 
 4.0299458757138080e-06  4.1361037849421982e-06  4.2450582777639614e-06  4.3568830339807027e-06 
 4.4716536749979261e-06  4.5894478150118745e-06  4.7103451135469530e-06  4.8344273293795268e-06 
 4.9617783758845875e-06  5.0924843778430522e-06  5.2266337297482544e-06  5.3643171556512228e-06 
 5.5056277705856089e-06  5.6506611436137348e-06  5.7995153625370195e-06  5.9522911003144450e-06 
 6.1090916832345723e-06  6.2700231608872469e-06  6.4351943779827709e-06  6.6047170480673972e-06 
 6.7787058291853019e-06  6.9572784015386022e-06  7.1405555471983511e-06  7.3286612319206658e-06 
 7.5217226891239920e-06  7.7198705060844457e-06  7.9232387124082458e-06  8.1319648708414587e-06 
 8.3461901704789357e-06  8.5660595224360800e-06  8.7917216580488124e-06  9.0233292296686179e-06 
 9.2610389141215300e-06  9.5050115189016887e-06  9.7554120911721151e-06  1.0012410029646948e-05 
 1.0276179199431889e-05  1.0546898049901095e-05  1.0824749735691200e-05  1.1109922240895478e-05 
 1.1402608506542621e-05  1.1703006561447860e-05  1.2011319656525759e-05  1.2327756402656695e-05 
 1.2652530912201556e-05  1.2985862944261572e-05  1.3327978053782955e-05  1.3679107744608339e-05 
 1.4039489626580502e-05  1.4409367576805808e-05  1.4788991905188102e-05  1.5178619524347131e-05 
 1.5578514124037728e-05  1.5988946350190178e-05  1.6410193988694507e-05  1.6842542154055457e-05 
 1.7286283483047698e-05  1.7741718333505121e-05  1.8209154988380685e-05  1.8688909865217702e-05 
 1.9181307731177236e-05  1.9686681923769745e-05  2.0205374577443485e-05  2.0737736856186221e-05 
 2.1284129192300970e-05  2.1844921531520990e-05  2.2420493584633827e-05  2.3011235085788174e-05 
 2.3617546057663077e-05  2.4239837083682951e-05  2.4878529587467542e-05  2.5534056119710776e-05 
 2.6206860652687545e-05  2.6897398882593680e-05  2.7606138539928999e-05  2.8333559708139951e-05 
 2.9080155150743682e-05  2.9846430647161332e-05  3.0632905337495612e-05  3.1440112076493042e-05 
 3.2268597796938351e-05  3.3118923882735435e-05  3.3991666551935961e-05  3.4887417249983967e-05 
 3.5806783053453259e-05  3.6750387084559710e-05  3.7718868936741063e-05  3.8712885111602770e-05 
 3.9733109467538665e-05  4.0780233680341657e-05  4.1854967716130532e-05  4.2958040316926654e-05 
 4.4090199499223490e-05  4.5252213065903902e-05  4.6444869131866064e-05  4.7668976663732153e-05 
 4.8925366034024356e-05  5.0214889590200742e-05  5.1538422238958512e-05  5.2896862046219926e-05 
 5.4291130853231353e-05  5.5722174909214533e-05  5.7190965521025761e-05  5.8698499720286851e-05 
 6.0245800948469505e-05  6.1833919760424550e-05  6.3463934546865376e-05  6.5136952276326012e-05 
 6.6854109257130233e-05  6.8616571919926113e-05  7.0425537621351196e-05  7.2282235469416423e-05 
 7.4187927171206211e-05  7.6143907903516791e-05  7.8151507207067895e-05  8.0212089904944164e-05 
 8.2327057045939627e-05  8.4497846873500201e-05  8.6725935820979743e-05  8.9012839533941288e-05 
 9.1360113920267458e-05  9.3769356228852070e-05  9.6242206157680694e-05  9.8780346992125042e-05 
 1.0138550677430178e-04  1.0405945950437310e-04  1.0680402637469116e-04  1.0962107703771589e-04 
 1.1251253090866489e-04  1.1548035850388198e-04  1.1852658281593898e-04  1.2165328072652141e-04 
 1.2486258445817448e-04  1.2815668306602406e-04  1.3153782397061614e-04  1.3500831453306015e-04 
 1.3857052367369135e-04  1.4222688353550836e-04  1.4597989119368289e-04  1.4983211041247555e-04 
 1.5378617345093243e-04  1.5784478291878756e-04  1.6201071368403237e-04  1.6628681483366403e-04 
 1.7067601168917513e-04  1.7518130787838834e-04  1.7980578746530141e-04  1.8455261713965382e-04 
 1.8942504846798463e-04  1.9442642020800884e-04  1.9956016068819541e-04  2.0482979025449613e-04 
 2.1023892378623952e-04  2.1579127328325798e-04  2.2149065052640414e-04  2.2734096981366658e-04 
 2.3334625077418207e-04  2.3951062126250307e-04  2.4583832033557931e-04  2.5233370131497385e-04 
 2.5900123493693446e-04  2.6584551259302587e-04  2.7287124966411826e-04  2.8008328895062870e-04 
 2.8748660420200656e-04  2.9508630374856662e-04  3.0288763423886987e-04  3.1089598448597706e-04 
 3.1911688942600619e-04  3.2755603419255797e-04  3.3621925831068384e-04  3.4511256001422457e-04 
 3.5424210069046508e-04  3.6361420945620391e-04  3.7323538786948737e-04  3.8311231478139964e-04 
 3.9325185133248211e-04  4.0366104609850228e-04  4.1434714039048415e-04  4.2531757371409108e-04 
 4.3657998939362896e-04  4.4814224036616589e-04  4.6001239515143689e-04  4.7219874400345222e-04 
 4.8470980524992159e-04  4.9755433182587590e-04  5.1074131800807907e-04  5.2428000635711721e-04 
 5.3817989487428325e-04  5.5245074438068341e-04  5.6710258612627956e-04  5.8214572963686552e-04 
 5.9759077080734292e-04  6.1344860024993347e-04  6.2973041190637327e-04  6.4644771193347124e-04 
 6.6361232787178859e-04  6.8123641810762274e-04  6.9933248163888231e-04  7.1791336815587214e-04 
 7.3699228844848277e-04  7.5658282515174890e-04  7.7669894384224669e-04  7.9735500449832112e-04 
 8.1856577333769710e-04  8.4034643504660416e-04  8.6271260541512977e-04  8.8568034439419189e-04 
 9.0926616959013321e-04  9.3348707021369390e-04  9.5836052150079351e-04  9.8390449962336771e-04 
 1.0101374971092699e-03  1.0370785387911110e-03  1.0647471983048066e-03  1.0931636151594740e-03 
 1.1223485124013475e-03  1.1523232148953880e-03  1.1831096682492883e-03  1.2147304584057745e-03 
 1.2472088319301895e-03  1.2805687170216590e-03  1.3148347452773786e-03  1.3500322742409426e-03 
 1.3861874107670791e-03  1.4233270352365839e-03  1.4614788266569087e-03  1.5006712886854200e-03 
 1.5409337766141263e-03  1.5822965253564636e-03  1.6247906784786271e-03  1.6684483183199079e-03 
 1.7133024972486959e-03  1.7593872701028121e-03  1.8067377278653172e-03  1.8553900326292456e-03 
 1.9053814539073083e-03  1.9567504063451781e-03  2.0095364888998751e-03  2.0637805255475459e-03 
 2.1195246075880478e-03  2.1768121376170018e-03  2.2356878752391872e-03  2.2961979846008087e-03 
 2.3583900838216468e-03  2.4223132964122126e-03  2.4880183047647025e-03  2.5555574058110562e-03 
 2.6249845689456006e-03  2.6963554963143951e-03  2.7697276855783298e-03  2.8451604952616726e-03 
 2.9227152128033359e-03  3.0024551254334182e-03  3.0844455940030910e-03  3.1687541299021019e-03 
 3.2554504752039474e-03  3.3446066861854552e-03  3.4362972203739284e-03  3.5305990272819793e-03 
 3.6275916429972222e-03  3.7273572888015766e-03  3.8299809740023347e-03  3.9355506031652637e-03 
 4.0441570879480191e-03  4.1558944637408541e-03  4.2708600113298507e-03  4.3891543838073125e-03 
 4.5108817389629477e-03  4.6361498773986884e-03  4.7650703866200985e-03  4.8977587913667008e-03 
 5.0343347104539627e-03  5.1749220204097540e-03  5.3196490261986015e-03  5.4686486393371904e-03 
 5.6220585637159646e-03  5.7800214894514973e-03  5.9426852951054666e-03  6.1102032586169489e-03 
 6.2827342773049142e-03  6.4604430973086609e-03  6.6435005528442063e-03  6.8320838156648309e-03 
 7.0263766551236532e-03  7.2265697092456799e-03  7.4328607672259290e-03  7.6454550637781189e-03 
 7.8645655857669129e-03  8.0904133915631980e-03  8.3232279435684203e-03  8.5632474543590395e-03 
 8.8107192469063598e-03  9.0659001293298472e-03  9.3290567846439649e-03  9.6004661759578613e-03 
 9.8804159675866896e-03  1.0169204962528993e-02  1.0467143556760398e-02  1.0774554210785338e-02 
 1.1091771938880189e-02  1.1419144816448247e-02  1.1757034505893275e-02  1.2105816801400764e-02 
 1.2465882192997015e-02  1.2837636450231952e-02  1.3221501225807826e-02  1.3617914679445651e-02 
 1.4027332122250250e-02  1.4450226681799539e-02  1.4887089988145807e-02  1.5338432880875455e-02 
 1.5804786137329482e-02  1.6286701222040678e-02  1.6784751057392626e-02  1.7299530815455173e-02 
 1.7831658730895140e-02  1.8381776934806617e-02  1.8950552309246506e-02  1.9538677362204000e-02 
 2.0146871122673000e-02  2.0775880055438910e-02  2.1426478995134841e-02  2.2099472099064044e-02 
 2.2795693818235933e-02  2.3516009886010186e-02  2.4261318323700293e-02  2.5032550462445215e-02 
 2.5830671980624973e-02  2.6656683956064343e-02  2.7511623932252684e-02  2.8396566997786692e-02 
 2.9312626878242667e-02  3.0260957039683577e-02  3.1242751803013117e-02  3.2259247468404625e-02 
 3.3311723449054025e-02  3.4401503413521356e-02  3.5529956435955246e-02  3.6698498153501215e-02 
 3.7908591930217089e-02  3.9161750026797101e-02  4.0459534775385282e-02  4.1803559758702959e-02 
 4.3195490992599207e-02  4.4637048110996724e-02  4.6130005551965135e-02  4.7676193743362953e-02 
 4.9277500286075665e-02  5.0935871132349826e-02  5.2653311756063054e-02  5.4431888310926609e-02 
 5.6273728771602617e-02  5.8181024051480713e-02  6.0156029089373370e-02  6.2201063895656945e-02 
 6.4318514546337094e-02  6.6510834111167566e-02  6.8780543499269223e-02  7.1130232202640115e-02 
 7.3562558914557249e-02  7.6080251996095791e-02  7.8686109759861692e-02  8.1383000535582478e-02 
 8.4173862477421493e-02  8.7061703067871504e-02  9.0049598267880240e-02  9.3140691257578914e-02 
 9.6338190706713692e-02  9.9645368508813531e-02  1.0306555690836321e-01  1.0660214494607163e-01 
 1.1025857414388608e-01  1.1403833334901102e-01  1.1794495265509879e-01  1.2198199631929206e-01 
 1.2615305459624435e-01  1.3046173441489767e-01  1.3491164883102627e-01  1.3950640519857463e-01 
 1.4424959201593507e-01  1.4914476441963814e-01  1.5419542831762470e-01  1.5940502317725377e-01 
 1.6477690350934979e-01  1.7031431911854711e-01  1.7602039422142340e-01  1.8189810556666153e-01 
 1.8795025972471330e-01  1.9417946974689310e-01  2.0058813142392781e-01  2.0717839939992611e-01 
 2.1395216341742965e-01  2.2091102498041437e-01  2.2805627472245873e-01  2.3538887075432680e-01 
 2.4290941823672094e-01  2.5061815037781848e-01  2.5851491098993995e-01  2.6659913865440837e-01 
 2.7486985243846346e-01  2.8332563898430313e-01  2.9196464065075084e-01  3.0078454423722850e-01 
 3.0978256966416945e-01  3.1895545783232188e-01  3.2829945674628791e-01  3.3781030487789410e-01 
 3.4748321067703475e-01  3.5731282712723200e-01  3.6729322030644918e-01  3.7741783106629917e-01 
 3.8767942919844578e-01  3.9807005982581467e-01  4.0858098224326367e-01  4.1920260203505083e-01 
 4.2992439800317300e-01  4.4073484622852804e-01  4.5162134442032653e-01  4.6257014053913564e-01 
 4.7356627044272182e-01  4.8459350992653616e-01  4.9563434692779562e-01  5.0666997974434791e-01 
 5.1768034679913577e-01  5.2864419268059493e-01  5.3953917385177308e-01  5.5034200552151091e-01 
 5.6102864872948965e-01  5.7157453378910072e-01  5.8195481299981011e-01  5.9214463219712332e-01 
 6.0211940753846505e-01  6.1185509127520143e-01  6.2132840852824744e-01  6.3051704667643393e-01 
 6.3939978026717570e-01  6.4795651767466267e-01  6.5616826123096139e-01  6.6401698020769118e-01 
 6.7148540553653768e-01  6.7855676592312242e-01  6.8521449609617013e-01  6.9144195808884878e-01 
 6.9722222415897395e-01  7.0253797356384051e-01  7.0737155329064272e-01  7.1170524364527155e-01 
 7.1552175249671546e-01  7.1880493695983727e-01  7.2154071945973186e-01  7.2371812881402320e-01 
 7.2533035988565586e-01  7.2637571239185039e-01  7.2685824634048013e-01  7.2678798426296820e-01 
 7.2618050424730141e-01  7.2505580639696243e-01  7.2343639963205819e-01  7.2134464283787336e-01 
 7.1879947699092905e-01  7.1581279133010134e-01  7.1238576142553511e-01  7.0851158690380245e-01 
 7.0419710457493312e-01  6.9945422743353258e-01  6.9429532017576789e-01  6.8873316860384348e-01 
 6.8278094871550665e-01  6.7645219560536851e-01  6.6976077230062292e-01  6.6272083864786913e-01 
 6.5534682036035785e-01  6.4765337832590608e-01  6.3965537826469343e-01  6.3136786081497320e-01 
 6.2280601211243958e-01  6.1398513491413187e-01  6.0492062030399707e-01  5.9562792000291009e-01 
 5.8612251929068182e-01  5.7641991053349728e-01  5.6653556729630383e-01  5.5648491900704378e-01 
 5.4628332612857100e-01  5.3594605578519305e-01  5.2548825778460806e-01  5.1492494097313846e-01 
 5.0427094986313348e-01  4.9354094147669952e-01  4.8274936235983978e-01  4.7191042573579889e-01 
 4.6103808878581987e-01  4.5014603006923981e-01  4.3924762712218990e-01  4.2835593430410285e-01 
 4.1748366093817513e-01  4.0664315014018715e-01  3.9584635798931633e-01  3.8510483371442217e-01 
 3.7442970086559035e-01  3.6383163974085181e-01  3.5332087128553752e-01  3.4290714269142913e-01 
 3.3259971490319024e-01  3.2240735222227451e-01  3.1233831417014207e-01  3.0240034973821467e-01 
 2.9260069411269163e-01  2.8294606791957544e-01  2.7344267899084668e-01  2.6409622660833915e-01 
 2.5491190813897480e-01  2.4589442793510813e-01  2.3704800833773154e-01  2.2837640258902675e-01 
 2.1988290943469854e-01  2.1157038917696303e-01  2.0344128092369659e-01  1.9549762077074553e-01 
 1.8774106065224380e-01  1.8017288759588396e-01  1.7279404312388555e-01  1.6560514255935013e-01 
 1.5860649401100241e-01  1.5179811682496502e-01  1.4517975932350244e-01  1.3875091568495249e-01 
 1.3251084182646863e-01  1.2645857020196599e-01  1.2059292347051886e-01  1.1491252699328072e-01 
 1.0941582016813750e-01  1.0410106666035911e-01  9.8966363583058908e-02  9.4009649711503218e-02 
 8.9228712882744171e-02  8.4621196669737553e-02  8.0184606499559580e-02  7.5916315352487468e-02 
 7.1813569186885570e-02  6.7873492233238922e-02  6.4093092285714137e-02  6.0469266107339978e-02 
 5.6998805047508851e-02  5.3678400951141292e-02  5.0504652419249459e-02  4.7474071458558066e-02 
 4.4583090540188816e-02  4.1828070066116267e-02  3.9205306227297017e-02  3.6711039219138021e-02 
 3.4341461774015772e-02  3.2092727949892035e-02  2.9960962118638225e-02  2.7942268082366523e-02 
 2.6032738249103432e-02  2.4228462795963211e-02  2.2525538749183824e-02  2.0920078913055865e-02 
 1.9408220583053803e-02  1.7986133983455947e-02  1.6650030374979745e-02  1.5396169783925445e-02 
 1.4220868310650834e-02  1.3120504981588735e-02  1.2091528115478029e-02  1.1130461180828550e-02 
 1.0233908127747219e-02  9.3985581830942824e-03  8.6211901034173363e-03  7.8986758851971057e-03 
 7.2279839366025762e-03  6.6061817191755984e-03  6.0304378716412284e-03  5.4980238313708414e-03 
 5.0063149719187516e-03  4.5527912775234517e-03  4.1350375775294854e-03  3.7507433653645563e-03 
 3.3977022280242504e-03  3.0738109129939467e-03  2.7770680602029543e-03  2.5055726269817740e-03 
 2.2575220341067184e-03  2.0312100608910100e-03  1.8250245169422925e-03  1.6374447176770804e-03 
 1.4670387899851671e-03  1.3124608335937122e-03  1.1724479627117849e-03  1.0458172514611422e-03 
 9.3146260543677513e-04  8.2835158050795893e-04  7.3552216868355276e-04  6.5207956953954017e-04 
 5.7719296435493502e-04  5.1009230873874374e-04  4.5006515816519772e-04  3.9645353947978003e-04 
 3.4865088010217001e-04  3.0609900534439214e-04  2.6828521298958978e-04  2.3473943304628850e-04 
 2.0503147941032762e-04  1.7876839903665880e-04  1.5559192315021920e-04  1.3517602401223286e-04 
 1.1722457980826282e-04  1.0146914933887727e-04  8.7666857374313456e-05  7.5598390781354870e-05 
 6.5066104844108849e-05  5.5892238579702828e-05  4.7917237294370726e-05  4.0998180133360095e-05 
 3.5007309947889923e-05  2.9830662431773776e-05  2.5366791166864838e-05  2.1525584957448272e-05 
 1.8227173626129275e-05  1.5400918284537408e-05  1.2984481978006857e-05  1.0922976530936096e-05 
 9.1681813853497072e-06  7.6778302258267087e-06  6.4149612159690760e-06  5.3473267315565135e-06 
 4.4468585601163427e-06  3.6891846425857044e-06  3.0531935569160993e-06  2.5206430828345162e-06 
 2.0758093387923297e-06  1.7051731435952019e-06  1.3971404234758067e-06  1.1417936599995222e-06 
 9.3067154976215269e-07  7.5657421865143775e-07  6.1339153069587347e-07  4.9595217801917826e-07 
 3.9989135359808139e-07  3.2153529915895378e-07  2.5780064472136232e-07  2.0610608499926977e-07 
 1.6429874750357039e-07  1.3058585600955401e-07  1.0348103872635911e-07  8.1754379161607762e-08 
 6.4391655818187708e-08  5.0559058238250206e-08  3.9573224372546681e-08  3.0875856368231267e-08 
 2.4012285584213687e-08  1.8613432357313399e-08  1.4380673731255294e-08  1.1073193407192525e-08 
 8.4974429825376636e-09  6.4983925471825467e-09  4.9522923127781876e-09  3.7607055275944542e-09 
 2.8456070710910823e-09  2.1453722222069158e-09  1.6115056091019259e-09  1.2059833480710705e-09 
 8.9910408352507351e-10  6.6775557828825533e-10  4.9401355500245295e-10  3.6403919072770137e-10 
 2.6721461384764511e-10  1.9534852961270351e-10  1.4214859602594753e-10  1.0315143870382013e-10 
 7.4704989614987165e-11  5.3030841501136011e-11  3.7897524328555866e-11  2.9718784521125134e-11 
 1.5990864745132263e-11  1.8583221330738345e-11  1.3074218775915388e-11  9.1561388158080252e-12 
 6.3824102382710266e-12  0.0000000000000000e+00  0.0000000000000000e+00  0.0000000000000000e+00 
 0.0000000000000000e+00  0.0000000000000000e+00  0.0000000000000000e+00  0.0000000000000000e+00 
 0.0000000000000000e+00  0.0000000000000000e+00  0.0000000000000000e+00  0.0000000000000000e+00 
 0.0000000000000000e+00  0.0000000000000000e+00  0.0000000000000000e+00  0.0000000000000000e+00 
 0.0000000000000000e+00  0.0000000000000000e+00  0.0000000000000000e+00  0.0000000000000000e+00 
 0.0000000000000000e+00  0.0000000000000000e+00  0.0000000000000000e+00  0.0000000000000000e+00 
 0.0000000000000000e+00  0.0000000000000000e+00  0.0000000000000000e+00  0.0000000000000000e+00 
 0.0000000000000000e+00  0.0000000000000000e+00  0.0000000000000000e+00  0.0000000000000000e+00 
 0.0000000000000000e+00  0.0000000000000000e+00  0.0000000000000000e+00  0.0000000000000000e+00 
 0.0000000000000000e+00  0.0000000000000000e+00  0.0000000000000000e+00  0.0000000000000000e+00 
 0.0000000000000000e+00  0.0000000000000000e+00  0.0000000000000000e+00  0.0000000000000000e+00 
 0.0000000000000000e+00  0.0000000000000000e+00  0.0000000000000000e+00  0.0000000000000000e+00 
 0.0000000000000000e+00  0.0000000000000000e+00  0.0000000000000000e+00  0.0000000000000000e+00 
 0.0000000000000000e+00  0.0000000000000000e+00  0.0000000000000000e+00  0.0000000000000000e+00 
 0.0000000000000000e+00  0.0000000000000000e+00  0.0000000000000000e+00  0.0000000000000000e+00 
 0.0000000000000000e+00  0.0000000000000000e+00  0.0000000000000000e+00  0.0000000000000000e+00 
 0.0000000000000000e+00  0.0000000000000000e+00  0.0000000000000000e+00  0.0000000000000000e+00 
 0.0000000000000000e+00  0.0000000000000000e+00  0.0000000000000000e+00  0.0000000000000000e+00 
 0.0000000000000000e+00  0.0000000000000000e+00  0.0000000000000000e+00  0.0000000000000000e+00 
 0.0000000000000000e+00  0.0000000000000000e+00  0.0000000000000000e+00  0.0000000000000000e+00 
 0.0000000000000000e+00  0.0000000000000000e+00  0.0000000000000000e+00  0.0000000000000000e+00 
 0.0000000000000000e+00  0.0000000000000000e+00  0.0000000000000000e+00  0.0000000000000000e+00 
 0.0000000000000000e+00  0.0000000000000000e+00 
P    1   3.33          Wavefunction
 6.9389097574601524e-11  7.1216872222024199e-11  7.3092792187447256e-11  7.5018125664221805e-11 
 7.6994174251114989e-11  7.9022273832240673e-11  8.1103795480167666e-11  8.3240146382817722e-11 
 8.5432770794777549e-11  8.7683151013670237e-11  8.9992808382245159e-11  9.2363304316863075e-11 
 9.4796241363073501e-11  9.7293264278997117e-11  9.9856061147243809e-11  1.0248636451612177e-10 
 1.0518595257090586e-10  1.0795665033595872e-10  1.1080033090851672e-10  1.1371891672497543e-10 
 1.1671438086052966e-10  1.1978874836304743e-10  1.2294409762207970e-10  1.2618256177393117e-10 
 1.2950633014374149e-10  1.3291764972555230e-10  1.3641882670136206e-10  1.4001222800019114e-10 
 1.4370028289821806e-10  1.4748548466106173e-10  1.5137039222932412e-10  1.5535763194853220e-10 
 1.5944989934464762e-10  1.6364996094634438e-10  1.6796065615528871e-10  1.7238489916568324e-10 
 1.7692568093437142e-10  1.8158607120284100e-10  1.8636922057248453e-10  1.9127836263452772e-10 
 1.9631681615605866e-10  2.0148798732364258e-10  2.0679537204603381e-10  2.1224255831754231e-10 
 2.1783322864365655e-10  2.2357116253055654e-10  2.2946023904020446e-10  2.3550443941273924e-10 
 2.4170784975794625e-10  2.4807466381762395e-10  2.5460918580071383e-10  2.6131583329310887e-10 
 2.6819914024411166e-10  2.7526376003155626e-10  2.8251446860767000e-10  2.8995616772779969e-10 
 2.9759388826418523e-10  3.0543279360702220e-10  3.1347818315510808e-10  3.2173549589844352e-10 
 3.3021031409519200e-10  3.3890836704550462e-10  3.4783553496474171e-10  3.5699785295872553e-10 
 3.6640151510370335e-10  3.7605287863377780e-10  3.8595846823864145e-10  3.9612498047451627e-10 
 4.0655928829128094e-10  4.1726844567885053e-10  4.2825969243594081e-10  4.3954045906445024e-10 
 4.5111837179276428e-10  4.6300125773137624e-10  4.7519715016431529e-10  4.8771429397995320e-10 
 5.0056115124486353e-10  5.1374640692450375e-10  5.2727897475458704e-10  5.4116800326710357e-10 
 5.5542288197508338e-10  5.7005324772026440e-10  5.8506899118797020e-10  6.0048026359358587e-10 
 6.1629748354517634e-10  6.3253134408686072e-10  6.4919281992771978e-10  6.6629317486112399e-10 
 6.8384396937948508e-10  7.0185706848959805e-10  7.2034464973383525e-10  7.3931921142263690e-10 
 7.5879358108384912e-10  7.7878092413461921e-10  7.9929475278173582e-10  8.2034893515638426e-10 
 8.4195770468955009e-10  8.6413566973435655e-10  8.8689782344187735e-10  9.1025955389708049e-10 
 9.3423665452177231e-10  9.5884533475154705e-10  9.8410223099400449e-10  1.0100244178755870e-09 
 1.0366294197846928e-09  1.0639352227188370e-09  1.0919602864438774e-09  1.1207235569735320e-09 
 1.1502444793776062e-09  1.1805430109276211e-09  1.2116396345886914e-09  1.2435553728668019e-09 
 1.2763118020208356e-09  1.3099310666489582e-09  1.3444358946592181e-09  1.3798496126344965e-09 
 1.4161961616021787e-09  1.4535001132192065e-09  1.4917866863834857e-09  1.5310817642828197e-09 
 1.5714119118929603e-09  1.6128043939365554e-09  1.6552871933151601e-09  1.6988890300267634e-09 
 1.7436393805816210e-09  1.7895684979295206e-09  1.8367074319119518e-09  1.8850880502530126e-09 
 1.9347430601032155e-09  1.9857060301508083e-09  2.0380114133155078e-09  2.0916945700400138e-09 
 2.1467917921950541e-09  2.2033403276140980e-09  2.2613784052743540e-09  2.3209452611410298e-09 
 2.3820811646924164e-09  2.4448274461435869e-09  2.5092265243872707e-09  2.5753219356706795e-09 
 2.6431583630277068e-09  2.7127816664864168e-09  2.7842389140722273e-09  2.8575784136277413e-09 
 2.9328497454707401e-09  3.0101037959124446e-09  3.0893927916586539e-09  3.1707703351170574e-09 
 3.2542914406345846e-09  3.3400125716892575e-09  3.4279916790617637e-09  3.5182882400124436e-09 
 3.6109632984903109e-09  3.7060795064011235e-09  3.8037011659626258e-09  3.9038942731753682e-09 
 4.0067265624386007e-09  4.1122675523414910e-09  4.2205885926603997e-09  4.3317629125942021e-09 
 4.4458656702701460e-09  4.5629740035537739e-09  4.6831670821971583e-09  4.8065261613608831e-09 
 4.9331346365457677e-09  5.0630780999715802e-09  5.1964443984408341e-09  5.3333236927267550e-09 
 5.4738085185255975e-09  5.6179938490145656e-09  5.7659771590574601e-09  5.9178584911016889e-09 
 6.0737405228110161e-09  6.2337286364798182e-09  6.3979309902758367e-09  6.5664585913595108e-09 
 6.7394253709293693e-09  6.9169482612441531e-09  7.0991472746738739e-09  7.2861455848330627e-09 
 7.4780696098512578e-09  7.6750490978368466e-09  7.8772172145921854e-09  8.0847106336391786e-09 
 8.2976696286162651e-09  8.5162381681092689e-09  8.7405640129801383e-09  8.9707988162595006e-09 
 9.2070982256704345e-09  9.4496219888528914e-09  9.6985340613598989e-09  9.9540027174983211e-09 
 1.0216200664089502e-08  1.0485305157226446e-08  1.0761498122106373e-08  1.1044966276019986e-08 
 1.1335901254580452e-08  1.1634499741277089e-08  1.1940963600442102e-08  1.2255500013719469e-08 
 1.2578321620128800e-08  1.2909646659818426e-08  1.3249699121605413e-08  1.3598708894401757e-08 
 1.3956911922629381e-08  1.4324550365728981e-08  1.4701872761870447e-08  1.5089134195975859e-08 
 1.5486596472168136e-08  1.5894528290762362e-08  1.6313205429919369e-08  1.6742910932084046e-08 
 1.7183935295335007e-08  1.7636576669774427e-08  1.8101141059091129e-08  1.8577942527433153e-08 
 1.9067303411729522e-08  1.9569554539605048e-08  2.0085035453035107e-08  2.0614094637891839e-08 
 2.1157089759537158e-08  2.1714387904621092e-08  2.2286365829250155e-08  2.2873410213692136e-08 
 2.3475917923790621e-08  2.4094296279265412e-08  2.4728963329080437e-08  2.5380348134065177e-08 
 2.6048891056980729e-08  2.6735044060227005e-08  2.7439271011391457e-08  2.8162047996846764e-08 
 2.8903863643609400e-08  2.9665219449675718e-08  3.0446630123060483e-08  3.1248623929765752e-08 
 3.2071743050915824e-08  3.2916543949299834e-08  3.3783597745569803e-08  3.4673490604348068e-08 
 3.5586824130505896e-08  3.6524215775880289e-08  3.7486299256704639e-08  3.8473724982035549e-08 
 3.9487160493464560e-08  4.0527290916413200e-08  4.1594819423315940e-08  4.2690467709003840e-08 
 4.3814976478611260e-08  4.4969105948334634e-08  4.6153636359382455e-08  4.7369368505462944e-08 
 4.8617124274168376e-08  4.9897747202618841e-08  5.1212103047743997e-08  5.2561080371586567e-08 
 5.3945591142024440e-08  5.5366571349316713e-08  5.6824981638891222e-08  5.8321807960800847e-08 
 5.9858062236288131e-08  6.1434783041908438e-08  6.3053036311675316e-08  6.4713916057700618e-08 
 6.6418545109819514e-08  6.8168075874698009e-08  6.9963691114937680e-08  7.1806604748704011e-08 
 7.3698062670418507e-08  7.5639343593070493e-08  7.7631759912717681e-08  7.9676658595759256e-08 
 8.1775422089583381e-08  8.3929469257202061e-08  8.6140256336508738e-08  8.8409277924804409e-08 
 9.0738067989258613e-08  9.3128200903990311e-08  9.5581292514467432e-08  9.8099001229947066e-08 
 1.0068302914469253e-07  1.0333512318872863e-07  1.0605707630890965e-07  1.0885072868110237e-07 
 1.1171796895430117e-07  1.1466073552751746e-07  1.1768101786030675e-07  1.2078085781782006e-07 
 1.2396235105128899e-07  1.2722764841487756e-07  1.3057895741985927e-07  1.3401854372710233e-07 
 1.3754873267887540e-07  1.4117191087100279e-07  1.4489052776644123e-07  1.4870709735136191e-07 
 1.5262419983486207e-07  1.5664448339345463e-07  1.6077066596151451e-07  1.6500553706889488e-07 
 1.6935195972695205e-07  1.7381287236426099e-07  1.7839129081332386e-07  1.8309031034961959e-07 
 1.8791310778437216e-07  1.9286294361245300e-07  1.9794316421687037e-07  2.0315720413133703e-07 
 2.0850858836244701e-07  2.1400093477303036e-07  2.1963795652829961e-07  2.2542346460644151e-07 
 2.3136137037535547e-07  2.3745568823727445e-07  2.4371053834306623e-07  2.5013014937804440e-07 
 2.5671886142117520e-07  2.6348112887961745e-07  2.7042152350057591e-07  2.7754473746251002e-07 
 2.8485558654778431e-07  2.9235901339891406e-07  3.0006009086060031e-07  3.0796402540982234e-07 
 3.1607616067630462e-07  3.2440198105574335e-07  3.3294711541822981e-07  3.4171734091439023e-07 
 3.5071858688181139e-07  3.5995693885438859e-07  3.6943864267732926e-07  3.7917010873057158e-07 
 3.8915791626349197e-07  3.9940881784383328e-07  4.0992974392385792e-07  4.2072780752682227e-07 
 4.3181030905693825e-07  4.4318474123608494e-07  4.5485879417060096e-07  4.6684036055159897e-07 
 4.7913754099231097e-07  4.9175864950608252e-07  5.0471221912872378e-07  5.1800700768902251e-07 
 5.3165200373132273e-07  5.4565643259418022e-07  5.6002976264921328e-07  5.7478171170436330e-07 
 5.8992225357591242e-07  6.0546162483369502e-07  6.2141033172407551e-07  6.3777915727539005e-07 
 6.5457916859063933e-07  6.7182172433239404e-07  6.8951848240497074e-07  7.0768140783908197e-07 
 7.2632278088429550e-07  7.4545520531479591e-07  7.6509161695406315e-07  7.8524529242423835e-07 
 8.0592985812612498e-07  8.2715929945587615e-07  8.4894797026464103e-07  8.7131060256756401e-07 
 8.9426231650871618e-07  9.1781863058870384e-07  9.4199547216191387e-07  9.6680918821046173e-07 
 9.9227655640218574e-07  1.0184147964401617e-06  1.0452415817114195e-06  1.0727750512427985e-06 
 1.1010338219719840e-06  1.1300370013421048e-06  1.1598042002283820e-06  1.1903555462056363e-06 
 1.2217116971656001e-06  1.2538938552933110e-06  1.2869237814120532e-06  1.3208238097065529e-06 
 1.3556168628344396e-06  1.3913264674362354e-06  1.4279767700543371e-06  1.4655925534718509e-06 
 1.5041992534823502e-06  1.5438229761019005e-06  1.5844905152350955e-06  1.6262293708070145e-06 
 1.6690677673735080e-06  1.7130346732223269e-06  1.7581598199781780e-06  1.8044737227249448e-06 
 1.8520077006587299e-06  1.9007938982858469e-06  1.9508653071799982e-06  2.0022557883135775e-06 
 2.0550000949781633e-06  2.1091338963098048e-06  2.1646938014351340e-06  2.2217173842546454e-06 
 2.2802432088800103e-06  2.3403108557427746e-06  2.4019609483921100e-06  2.4652351809998909e-06 
 2.5301763465918087e-06  2.5968283660237000e-06  2.6652363177228264e-06  2.7354464682143329e-06 
 2.8075063034536839e-06  2.8814645609863669e-06  2.9573712629567855e-06  3.0352777499888445e-06 
 3.1152367159612500e-06  3.1973022437012430e-06  3.2815298416211110e-06  3.3679764813223921e-06 
 3.4567006361934641e-06  3.5477623210268020e-06  3.6412231326829097e-06  3.7371462918286973e-06 
 3.8355966857787984e-06  3.9366409124689783e-06  4.0403473255917191e-06  4.1467860809248449e-06 
 4.2560291838847023e-06  4.3681505383364770e-06  4.4832259966949825e-06  4.6013334113501817e-06 
 4.7225526874524997e-06  4.8469658370942443e-06  4.9746570349239501e-06  5.1057126752318774e-06 
 5.2402214305457241e-06  5.3782743117765678e-06  5.5199647299564221e-06  5.6653885596095288e-06 
 5.8146442038009448e-06  5.9678326609070301e-06  6.1250575931535288e-06  6.2864253969684711e-06 
 6.4520452751979993e-06  6.6220293112348183e-06  6.7964925451102935e-06  6.9755530516021911e-06 
 7.1593320204122432e-06  7.3479538384682731e-06  7.5415461744076521e-06  7.7402400653005298e-06 
 7.9441700056721651e-06  8.1534740388860541e-06  8.3682938509506457e-06  8.5887748668145652e-06 
 8.8150663492167171e-06  9.0473215001595279e-06  9.2856975650755912e-06  9.5303559397594987e-06 
 9.7814622801392614e-06  1.0039186614962832e-05  1.0303703461478099e-05  1.0575191944186607e-05 
 1.0853835916753053e-05  1.1139824087155557e-05  1.1433350146163290e-05  1.1734612899231174e-05 
 1.2043816401902749e-05  1.2361170098816372e-05  1.2686888966410673e-05  1.3021193659429377e-05 
 1.3364310661327380e-05  1.3716472438683371e-05  1.4077917599726438e-05  1.4448891057088434e-05 
 1.4829644194894798e-05  1.5220435040312033e-05  1.5621528439671611e-05  1.6033196239294021e-05 
 1.6455717471139887e-05  1.6889378543419125e-05  1.7334473436291995e-05  1.7791303902799952e-05 
 1.8260179675168594e-05  1.8741418676627536e-05  1.9235347238897746e-05  1.9742300325500198e-05 
 2.0262621761043662e-05  2.0796664466654810e-05  2.1344790701717681e-05  2.1907372312094554e-05 
 2.2484790985005031e-05  2.3077438510745005e-05  2.3685717051432687e-05  2.4310039416973326e-05 
 2.4950829348441295e-05  2.5608521809081786e-05  2.6283563283141463e-05  2.6976412082743312e-05 
 2.7687538663026694e-05  2.8417425945779620e-05  2.9166569651797889e-05  2.9935478642211254e-05 
 3.0724675269024019e-05  3.1534695735125639e-05  3.2366090464032385e-05  3.3219424479630104e-05 
 3.4095277796195679e-05  3.4994245818982544e-05  3.5916939755663715e-05  3.6863987038935844e-05 
 3.7836031760593790e-05  3.8833735117397414e-05  3.9857775869060515e-05  4.0908850808699489e-05 
 4.1987675246094245e-05  4.3094983504117717e-05  4.4231529428707834e-05  4.5398086912761006e-05 
 4.6595450434341190e-05  4.7824435609609475e-05  4.9085879760889899e-05  5.0380642500302421e-05 
 5.1709606329403097e-05  5.3073677255290442e-05  5.4473785423644185e-05  5.5910885769181870e-05 
 5.7385958684032618e-05  5.8900010704539938e-05  6.0454075217025175e-05  6.2049213183056130e-05 
 6.3686513884784890e-05  6.5367095690934180e-05  6.7092106844031304e-05  6.8862726269506224e-05 
 7.0680164407291269e-05  7.2545664066577163e-05  7.4460501304404159e-05  7.6425986328786279e-05 
 7.8443464427088009e-05  8.0514316920401443e-05  8.2639962144685775e-05  8.4821856459466220e-05 
 8.7061495284907460e-05  8.9360414168107591e-05  9.1720189879482671e-05  9.4142441540144597e-05 
 9.6628831781199484e-05  9.9181067935927755e-05  1.0180090326584066e-04  1.0449013822163379e-04 
 1.0725062174009977e-04  1.1008425257809438e-04  1.1299298068468697e-04  1.1597880861266547e-04 
 1.1904379297060380e-04  1.2219004591674509e-04  1.2541973669598911e-04  1.2873509322132757e-04 
 1.3213840370110622e-04  1.3563201831354651e-04  1.3921835093001035e-04  1.4289988088853959e-04 
 1.4667915481925703e-04  1.5055878852327406e-04  1.5454146890680481e-04  1.5862995597224931e-04 
 1.6282708486807274e-04  1.6713576799936788e-04  1.7155899720106390e-04  1.7609984597580848e-04 
 1.8076147179863145e-04  1.8554711849056682e-04  1.9046011866350016e-04  1.9550389623858129e-04 
 2.0068196904064116e-04  2.0599795147113381e-04  2.1145555726221957e-04  2.1705860231471230e-04 
 2.2281100762270434e-04  2.2871680228780760e-04  2.3478012662603724e-04  2.4100523537050591e-04 
 2.4739650097320670e-04  2.5395841700928012e-04  2.6069560168732423e-04  2.6761280146940839e-04 
 2.7471489480462543e-04  2.8200689598014897e-04  2.8949395909394222e-04  2.9718138215340130e-04 
 3.0507461130441677e-04  3.1317924519550086e-04  3.2150103948182013e-04  3.3004591147418118e-04 
 3.3881994493819645e-04  3.4782939504911497e-04  3.5708069350798413e-04  3.6658045382507716e-04 
 3.7633547677675560e-04  3.8635275604219198e-04  3.9663948402665882e-04  4.0720305787836039e-04 
 4.1805108570609707e-04  4.2919139300534945e-04  4.4063202930069256e-04  4.5238127501281273e-04 
 4.6444764855873118e-04  4.7683991369423074e-04  4.8956708710786042e-04  5.0263844627631855e-04 
 5.1606353759143402e-04  5.2985218476942365e-04  5.4401449755356508e-04  5.5856088072194583e-04 
 5.7350204341243916e-04  5.8884900877761884e-04  6.0461312398290884e-04  6.2080607056182711e-04 
 6.3743987514286546e-04  6.5452692056314351e-04  6.7207995738473422e-04  6.9011211583022713e-04 
 7.0863691815490108e-04  7.2766829147364286e-04  7.4722058106162876e-04  7.6730856414861841e-04 
 7.8794746422766032e-04  8.0915296590001161e-04  8.3094123027900157e-04  8.5332891097673641e-04 
 8.7633317069860832e-04  8.9997169847174535e-04  9.2426272753480011e-04  9.4922505391776440e-04 
 9.7487805574182314e-04  1.0012417132707499e-03  1.0283366297467657e-03  1.0561840530454436e-03 
 1.0848058981857832e-03  1.1142247707334164e-03  1.1444639911366359e-03  1.1755476200368700e-03 
 1.2075004845972569e-03  1.2403482058949830e-03  1.2741172274253190e-03  1.3088348447675455e-03 
 1.3445292364653895e-03  1.3812294961770991e-03  1.4189656661529398e-03  1.4577687721006997e-03 
 1.4976708595025770e-03  1.5387050314501021e-03  1.5809054880665874e-03  1.6243075675902417e-03 
 1.6689477891944464e-03  1.7148638976252088e-03  1.7620949097398972e-03  1.8106811630350637e-03 
 1.8606643662554439e-03  1.9120876521806539e-03  1.9649956326904215e-03  2.0194344562140883e-03 
 2.0754518676749847e-03  2.1330972710454144e-03  2.1924217946333383e-03  2.2534783592274882e-03 
 2.3163217492331951e-03  2.3810086869375997e-03  2.4475979100488572e-03  2.5161502526605557e-03 
 2.5867287297993841e-03  2.6593986257208205e-03  2.7342275861251307e-03  2.8112857144731952e-03 
 2.8906456725894393e-03  2.9723827857473144e-03  3.0565751524405335e-03  3.1433037590522005e-03 
 3.2326525996423019e-03  3.3247088010829903e-03  3.4195627537804713e-03  3.5173082482310171e-03 
 3.6180426176691156e-03  3.7218668870743102e-03  3.8288859288141438e-03  3.9392086252101124e-03 
 4.0529480383237632e-03  4.1702215872701813e-03  4.2911512333767155e-03  4.4158636735147066e-03 
 4.5444905419424276e-03  4.6771686210076565e-03  4.8140400610686921e-03  4.9552526100018739e-03 
 5.1009598526743057e-03  5.2513214607693938e-03  5.4065034533621300e-03  5.5666784686497607e-03 
 5.7320260472518026e-03  5.9027329275010490e-03  6.0789933531540689e-03  6.2610093939562874e-03 
 6.4489912795018204e-03  6.6431577468331173e-03  6.8437364022285955e-03  7.0509640976289265e-03 
 7.2650873221536370e-03  7.4863626091592481e-03  7.7150569592885224e-03  7.9514482799566723e-03 
 8.1958258417156003e-03  8.4484907519298408e-03  8.7097564461892096e-03  8.9799491978721866e-03 
 9.2594086462612132e-03  9.5484883435951462e-03  9.8475563214277008e-03  1.0156995676639817e-02 
 1.0477205177432777e-02  1.0808599889603773e-02  1.1151611823379112e-02  1.1506690601051557e-02 
 1.1874304145636595e-02  1.2254939390730107e-02  1.2649103011713460e-02  1.3057322178417265e-02 
 1.3480145329314649e-02  1.3918142967277352e-02  1.4371908476886734e-02  1.4842058963251142e-02 
 1.5329236112241282e-02  1.5834107072012982e-02  1.6357365355650060e-02  1.6899731764718783e-02 
 1.7461955333491281e-02  1.8044814293560939e-02  1.8649117058540551e-02  1.9275703228507992e-02 
 1.9925444613838054e-02  2.0599246278039746e-02  2.1298047599201311e-02  2.2022823349631862e-02 
 2.2774584793279373e-02  2.3554380800497581e-02  2.4363298979728526e-02  2.5202466825660762e-02 
 2.6073052883418726e-02  2.6976267928318788e-02  2.7913366160713434e-02  2.8885646415406269e-02 
 2.9894453385065543e-02  3.0941178856992078e-02  3.2027262962479597e-02  3.3154195437862757e-02 
 3.4323516896135546e-02  3.5536820107768534e-02  3.6795751289002233e-02  3.8102011395464937e-02 
 3.9457357418429102e-02  4.0863603680349907e-02  4.2322623125532685e-02  4.3836348600802488e-02 
 4.5406774119907130e-02  4.7035956104027818e-02  4.8726014589202088e-02  5.0479134389649641e-02 
 5.2297566203913862e-02  5.4183627648392831e-02  5.6139704200200612e-02  5.8168250028386041e-02 
 6.0271788689334027e-02  6.2452913658705443e-02  6.4714288668538289e-02  6.7058647814197958e-02 
 6.9488795391745753e-02  7.2007605422087728e-02  7.4618020814032446e-02  7.7323052114246685e-02 
 8.0125775788176284e-02  8.3029331972443665e-02  8.6036921636228267e-02  8.9151803086877368e-02 
 9.2377287753698828e-02  9.5716735183818513e-02  9.9173547185368957e-02  1.0275116105641645e-01 
 1.0645304184317762e-01  1.1028267357848384e-01  1.1424354946137806e-01  1.1833916095135544e-01 
 1.2257298576622969e-01  1.2694847479099100e-01  1.3146903792627024e-01  1.3613802892896268e-01 
 1.4095872932388168e-01  1.4593433149346746e-01  1.5106792108188180e-01  1.5636245887929764e-01 
 1.6182076238065862e-01  1.6744548723917166e-01  1.7323910885661209e-01  1.7920390436820985e-01 
 1.8534193528732493e-01  1.9165503107202425e-01  1.9814477385975893e-01  2.0481248458528351e-01 
 2.1165921064883225e-01  2.1868571523462488e-01  2.2589246829304635e-01  2.3327963909312571e-01 
 2.4084709012611338e-01  2.4859437199833243e-01  2.5652071879592370e-01  2.6462504324138275e-01 
 2.7290593079967262e-01  2.8136163174009793e-01  2.8999005003102513e-01  2.9878872785185662e-01 
 3.0775482446580243e-01  3.1688508822432498e-01  3.2617582058595346e-01  3.3562283124373499e-01 
 3.4522138377953288e-01  3.5496613170791885e-01  3.6485104533977492e-01  3.7486933057958755e-01 
 3.8501334155441119e-01  3.9527448982802788e-01  4.0564315383894761e-01  4.1610859305949677e-01 
 4.2665887213555664e-01  4.3728080085079929e-01  4.4795989607521108e-01  4.5868037181177623e-01 
 4.6942516295792602e-01  4.8017598737384853e-01  4.9091344924670965e-01  5.0161718454409554e-01 
 5.1226604659734332e-01  5.2283832664340524e-01  5.3331200065146189e-01  5.4366499021265480e-01 
 5.5387542199804762e-01  5.6392186767517161e-01  5.7378354464468007e-01  5.8344045795294464e-01 
 5.9287346565567633e-01  6.0206425406111574e-01  6.1099521582095739e-01  6.1964923268939243e-01 
 6.2800937557352088e-01  6.3605854655326866e-01  6.4377909979932513e-01  6.5115248936728909e-01 
 6.5815900002872185e-01  6.6477762080850245e-01  6.7098611797916741e-01  6.7676135346849109e-01 
 6.8207987511828205e-01  6.8691877705081872e-01  6.9125679280478913e-01  6.9507554353330836e-01 
 6.9836082249526288e-01  7.0110376069765812e-01  7.0330169313890956e-01  7.0495853716287238e-01 
 7.0608450975150594e-01  7.0669505311362768e-01  7.0680890859490164e-01  7.0644537457801304e-01 
 7.0562089671305617e-01  7.0434525570216744e-01  7.0261772205051454e-01  7.0042957502849879e-01 
 6.9778546172591271e-01  6.9469508402371871e-01  6.9116865405684991e-01  6.8721686725576736e-01 
 6.8285087489150931e-01  6.7808225624575469e-01  6.7292299052437554e-01  6.6738542862819217e-01 
 6.6148226488828887e-01  6.5522650886509681e-01  6.4863145730020710e-01  6.4171066629932683e-01 
 6.3447792381296975e-01  6.2694722246686307e-01  6.1913273278035630e-01  6.1104877679664305e-01 
 6.0270980213295955e-01  5.9413035644425760e-01  5.8532506227913361e-01  5.7630859229321618e-01 
 5.6709564477304975e-01  5.5770091941340771e-01  5.4813909328356825e-01  5.3842479691400780e-01 
 5.2857259043487481e-01  5.1859693970204357e-01  5.0851219235595335e-01  4.9833255377308494e-01 
 4.8807206288979033e-01  4.7774456790300701e-01  4.6736370188149551e-01  4.5694285835366949e-01 
 4.4649516697258340e-01  4.3603346939356508e-01  4.2557029553308001e-01  4.1511784033906396e-01 
 4.0468794163239952e-01  3.9429205860981564e-01  3.8394125189135414e-01  3.7364616506347770e-01 
 3.6341700802046106e-01  3.5326354233287377e-01  3.4319506884537365e-01  3.3322041767234184e-01 
 3.2334794072021350e-01  3.1358550682109249e-01  3.0394049951531377e-01  2.9441981747276685e-01 
 2.8502987749562275e-01  2.7577662000026931e-01  2.6666551683481549e-01  2.5770158125146497e-01 
 2.4888937982100157e-01  2.4023304605113846e-01  2.3173629544907023e-01  2.2340244175437951e-01 
 2.1523441406110164e-01  2.0723477454498446e-01  1.9940573651090021e-01  1.9174918249175013e-01 
 1.8426668214029779e-01  1.7695950966816948e-01  1.6982866061763438e-01  1.6287486778754345e-01 
 1.5609861613932846e-01  1.4950015656489610e-01  1.4307951844660199e-01  1.3683652094084334e-01 
 1.3077078297588982e-01  1.2488173201336589e-01  1.1916861161825471e-01  1.1363048791922195e-01 
 1.0826625512528071e-01  1.0307464019232246e-01  9.8054206833665558e-02  9.3203359033268998e-02 
 8.8520344234176956e-02  8.4003256377198868e-02  7.9650038950789454e-02  7.5458488202040749e-02 
 7.1426256640994668e-02  6.7550856949814844e-02  6.3829666386803763e-02  6.0259931749883131e-02 
 5.6838774943695589e-02  5.3563199168666920e-02  5.0430095732086240e-02  4.7436251457863662e-02 
 4.4578356663501073e-02  4.1853013644976185e-02  3.9256745614654746e-02  3.6786006015575926e-02 
 3.4437188137155919e-02  3.2206634950793706e-02  3.0090649082836658e-02  2.8085502843199064e-02 
 2.6187448229535854e-02  2.4392726830781843e-02  2.2697579558209970e-02  2.1098256137602897e-02 
 1.9591024302226940e-02  1.8172178632659804e-02  1.6838048996189608e-02  1.5585008545244606e-02 
 1.4409481240954716e-02  1.3307948874460329e-02  1.2276957564835139e-02  1.1313123718431572e-02 
 1.0413139440040207e-02  9.5737773914415149e-03  8.7918950977006263e-03  8.0644387059001146e-03 
 7.3884462049199828e-03  6.7610501183619932e-03  6.1794796857863165e-03  5.6410625500943820e-03 
 5.1432259711730911e-03  4.6834975878256762e-03  4.2595057515798949e-03  3.8689794572022308e-03 
 3.5097478956820634e-03  3.1797396561040114e-03  2.8769816032223616e-03  2.5995974577109541e-03 
 2.3458061060063697e-03  2.1139196664132390e-03  1.9023413377177556e-03  1.7095630559783993e-03 
 1.5341629844507466e-03  1.3748028607727103e-03  1.2302252246048850e-03  1.0992505479042948e-03 
 9.8077428892176283e-04  8.7376388987019538e-04  7.7725573702292069e-04  6.9035210078355433e-04 
 6.1221807202967073e-04  5.4207850978495186e-04  4.7921501402612099e-04  4.2296293619166730e-04 
 3.7270843873671078e-04  3.2788561387941327e-04  2.8797367051578972e-04  2.5249419714707544e-04 
 2.2100850757210329e-04  1.9311507505053623e-04  1.6844705964530533e-04  1.4666993250673325e-04 
 1.2747919996959294e-04  1.1059822949907900e-04  9.5776178744155638e-05  8.2786028237419594e-05 
 7.1422717620105085e-05  6.1501384668868162e-05  5.2855705857064219e-05  4.5336336696462853e-05 
 3.8809449674412392e-05  3.3155367224829935e-05  2.8267286847141020e-05  2.4050095213303281e-05 
 2.0419267876961572e-05  1.7299851018060483e-05  1.4625521518174699e-05  1.2337721563597220e-05 
 1.0384863911927977e-05  8.7216039305651202e-06  7.3081745191199384e-06  6.1097800592830904e-06 
 5.0960455922558262e-06  4.2405175024770105e-06  3.5202120832782957e-06  2.9152084761925893e-06 
 2.4082826031229820e-06  1.9845788355281488e-06  1.6313163407375651e-06  1.3375271488661610e-06 
 1.0938229633255137e-06  8.9218877681047559e-07  7.2580023603112858e-07  5.8885975888500672e-07 
 4.7646100289511255e-07  3.8445582844430218e-07  3.0935316867660691e-07  2.4821938505749038e-07 
 1.9859745625961168e-07  1.5843538007950982e-07  1.2602438622786877e-07  9.9945710357820380e-08 
 7.9024884684108685e-08  6.2292606257130060e-08  4.8951342111089836e-08  3.8346921206069799e-08 
 2.9944446499529200e-08  2.3307936841173434e-08  1.8083177961980702e-08  1.3983324938745169e-08 
 1.0776855500085734e-08  8.2775247613578677e-09  6.3360178290697095e-09  4.8330375604988176e-09 
 3.6736009391741485e-09  2.7823496095318986e-09  2.0997083804882179e-09  1.5787494795109199e-09 
 1.1826421834082676e-09  8.8258871766012436e-10  6.5615733088876683e-10  4.8593388399333188e-10 
 3.5845996387383994e-10  2.6339802515843857e-10  1.9276476660713156e-10  1.4042265341695361e-10 
 1.0201131983827293e-10  7.3959692180916781e-11  5.2567634477932327e-11  3.7610522998505044e-11 
 2.9521182057741791e-11  1.5921694003040981e-11  1.8494861341971710e-11  1.3027775069075411e-11 
 9.1347813730311356e-12  6.3754191445338704e-12  0.0000000000000000e+00  0.0000000000000000e+00 
 0.0000000000000000e+00  0.0000000000000000e+00  0.0000000000000000e+00  0.0000000000000000e+00 
 0.0000000000000000e+00  0.0000000000000000e+00  0.0000000000000000e+00  0.0000000000000000e+00 
 0.0000000000000000e+00  0.0000000000000000e+00  0.0000000000000000e+00  0.0000000000000000e+00 
 0.0000000000000000e+00  0.0000000000000000e+00  0.0000000000000000e+00  0.0000000000000000e+00 
 0.0000000000000000e+00  0.0000000000000000e+00  0.0000000000000000e+00  0.0000000000000000e+00 
 0.0000000000000000e+00  0.0000000000000000e+00  0.0000000000000000e+00  0.0000000000000000e+00 
 0.0000000000000000e+00  0.0000000000000000e+00  0.0000000000000000e+00  0.0000000000000000e+00 
 0.0000000000000000e+00  0.0000000000000000e+00  0.0000000000000000e+00  0.0000000000000000e+00 
 0.0000000000000000e+00  0.0000000000000000e+00  0.0000000000000000e+00  0.0000000000000000e+00 
 0.0000000000000000e+00  0.0000000000000000e+00  0.0000000000000000e+00  0.0000000000000000e+00 
 0.0000000000000000e+00  0.0000000000000000e+00  0.0000000000000000e+00  0.0000000000000000e+00 
 0.0000000000000000e+00  0.0000000000000000e+00  0.0000000000000000e+00  0.0000000000000000e+00 
 0.0000000000000000e+00  0.0000000000000000e+00  0.0000000000000000e+00  0.0000000000000000e+00 
 0.0000000000000000e+00  0.0000000000000000e+00  0.0000000000000000e+00  0.0000000000000000e+00 
 0.0000000000000000e+00  0.0000000000000000e+00  0.0000000000000000e+00  0.0000000000000000e+00 
 0.0000000000000000e+00  0.0000000000000000e+00  0.0000000000000000e+00  0.0000000000000000e+00 
 0.0000000000000000e+00  0.0000000000000000e+00  0.0000000000000000e+00  0.0000000000000000e+00 
 0.0000000000000000e+00  0.0000000000000000e+00  0.0000000000000000e+00  0.0000000000000000e+00 
 0.0000000000000000e+00  0.0000000000000000e+00  0.0000000000000000e+00  0.0000000000000000e+00 
 0.0000000000000000e+00  0.0000000000000000e+00  0.0000000000000000e+00  0.0000000000000000e+00 
 0.0000000000000000e+00  0.0000000000000000e+00 
D    2   4.00          Wavefunction
 9.5751483429857123e-14  9.9559566233601224e-14  1.0351909833206336e-13  1.0763610293693188e-13 
 1.1191684280593620e-13  1.1636782976970880e-13  1.2099583463753496e-13  1.2580789749705930e-13 
 1.3081133842361565e-13  1.3601376861547357e-13  1.4142310197193751e-13  1.4704756713191391e-13 
 1.5289571999125664e-13  1.5897645671793487e-13  1.6529902728481892e-13  1.7187304954067222e-13 
 1.7870852384075374e-13  1.8581584825928583e-13  1.9320583440693015e-13  2.0088972387733091e-13 
 2.0887920534774700e-13  2.1718643235978259e-13  2.2582404180726682e-13  2.3480517315940634e-13 
 2.4414348844844966e-13  2.5385319305227265e-13  2.6394905730349677e-13  2.7444643895801223e-13 
 2.8536130655708485e-13  2.9671026371858609e-13  3.0851057439429679e-13  3.2078018913170487e-13 
 3.3353777238024977e-13  3.4680273088354622e-13  3.6059524320078416e-13  3.7493629040220578e-13 
 3.8984768798535885e-13  4.0535211906067240e-13  4.2147316885684169e-13  4.3823536059850661e-13 
 4.5566419281080406e-13  4.7378617810753970e-13  4.9262888352198338e-13  5.1222097244164292e-13 
 5.3259224821079929e-13  5.5377369946713866e-13  5.7579754728144510e-13  5.9869729417205832e-13 
 6.2250777506866373e-13  6.4726521030293296e-13  6.7300726070663347e-13  6.9977308490100783e-13 
 7.2760339886458989e-13  7.5654053787005239e-13  7.8662852088431986e-13  8.1791311752989838e-13 
 8.5044191770929870e-13  8.8426440399844409e-13  9.1943202691921190e-13  9.5599828320559046e-13 
 9.9401879718252464e-13  1.0335514053812348e-12  1.0746562445197265e-12  1.1173958429823325e-12 
 1.1618352159374337e-12  1.2080419642380643e-12  1.2560863772558339e-12  1.3060415398046145e-12 
 1.3579834433166226e-12  1.4119911014400354e-12  1.4681466702339819e-12  1.5265355731437350e-12 
 1.5872466309462422e-12  1.6503721968636357e-12  1.7160082970502963e-12  1.7842547766671231e-12 
 1.8552154517652802e-12  1.9289982672104048e-12  2.0057154608875607e-12  2.0854837344366835e-12 
 2.1684244307782672e-12  2.2546637186993266e-12  2.3443327847804462e-12  2.4375680329558281e-12 
 2.5345112920099876e-12  2.6353100313266409e-12  2.7401175852180648e-12  2.8490933861761312e-12 
 2.9624032073998433e-12  3.0802194149683240e-12  3.2027212300428172e-12  3.3300950014966218e-12 
 3.4625344893876209e-12  3.6002411597046706e-12  3.7434244908361870e-12  3.8923022922271138e-12 
 4.0471010357090883e-12  4.2080562000076869e-12  4.3754126289509621e-12  4.5494249039240695e-12 
 4.7303577311365896e-12  4.9184863442916721e-12  5.1140969232695184e-12  5.3174870294621193e-12 
 5.5289660584214137e-12  5.7488557105095847e-12  5.9774904802672007e-12  6.2152181652439148e-12 
 6.4624003950654604e-12  6.7194131815420295e-12  6.9866474906545967e-12  7.2645098372895209e-12 
 7.5534229036259664e-12  7.8538261821168601e-12  8.1661766440416395e-12  8.4909494346474632e-12 
 8.8286385959367251e-12  9.1797578182000026e-12  9.5448412214379622e-12  9.9244441678606644e-12 
 1.0319144106700484e-11  1.0729541452623529e-11  1.1156260499075950e-11  1.1599950367954481e-11 
 1.2061285997045796e-11  1.2540969166736843e-11  1.3039729567557833e-11  1.3558325910182116e-11 
 1.4097547079571036e-11  1.4658213335019897e-11  1.5241177557930164e-11  1.5847326549206248e-11 
 1.6477582378250360e-11  1.7132903785607448e-11  1.7814287641394190e-11  1.8522770461730128e-11 
 1.9259429985478241e-11  2.0025386813693009e-11  2.0821806114270298e-11  2.1649899394391897e-11 
 2.2510926343460926e-11  2.3406196749331787e-11  2.4337072490749394e-11  2.5304969609028795e-11 
 2.6311360462126167e-11  2.7357775964378632e-11  2.8445807915319155e-11  2.9577111421109891e-11 
 3.0753407412276853e-11  3.1976485261575980e-11  3.3248205505973307e-11  3.4570502676879203e-11 
 3.5945388242942548e-11  3.7374953669881083e-11  3.8861373602002947e-11  4.0406909170258338e-11 
 4.2013911431854145e-11  4.3684824946663929e-11  4.5422191495873026e-11  4.7228653948515910e-11 
 4.9106960281787866e-11  5.1059967761245739e-11  5.3090647287258068e-11  5.5202087914314574e-11 
 5.7397501550071549e-11  5.9680227841279612e-11  6.2053739254027943e-11  6.4521646356031519e-11 
 6.7087703308997437e-11  6.9755813579425653e-11  7.2530035876529815e-11  7.5414590326313538e-11 
 7.8413864891190858e-11  8.1532422044919091e-11  8.4775005712995886e-11  8.8146548489080190e-11 
 9.1652179138412402e-11  9.5297230399649547e-11  9.9087247096983008e-11  1.0302799457487821e-10 
 1.0712546746826878e-10  1.1138589882154438e-10  1.1581576957020505e-10  1.2042181839960499e-10 
 1.2521105199578377e-10  1.3019075570397689e-10  1.3536850461101992e-10  1.4075217506850591e-10 
 1.4634995667422193e-10  1.5217036473009505e-10  1.5822225319559440e-10  1.6451482815629669e-10 
 1.7105766182810159e-10  1.7786070711840283e-10  1.8493431276636072e-10  1.9228923908531207e-10 
 1.9993667433126199e-10  2.0788825172235612e-10  2.1615606713522810e-10  2.2475269750513467e-10 
 2.3369121995787454e-10  2.4298523170258984e-10  2.5264887071571511e-10  2.6269683724753384e-10 
 2.7314441618406094e-10  2.8400750029826537e-10  2.9530261442600404e-10  3.0704694060344558e-10 
 3.1925834420421519e-10  3.3195540111602773e-10  3.4515742599814451e-10  3.5888450166264435e-10 
 3.7315750962419541e-10  3.8799816186480737e-10  4.0342903386187823e-10  4.1947359892977998e-10 
 4.3615626392722531e-10  4.5350240638472878e-10  4.7153841310864137e-10  4.9029172032048087e-10 
 5.0979085539262597e-10  5.3006548024384678e-10  5.5114643646069813e-10  5.7306579221340569e-10 
 5.9585689103761272e-10  6.1955440255620125e-10  6.4419437521833285e-10  6.6981429113594653e-10 
 6.9645312310111423e-10  7.2415139387101255e-10  7.5295123781066748e-10  7.8289646498725576e-10 
 8.1403262781346485e-10  8.4640709034127057e-10  8.8006910031157233e-10  9.1506986406924587e-10 
 9.5146262445760976e-10  9.8930274181076608e-10  1.0286477781670548e-09  1.0695575848316800e-09 
 1.1120943934217529e-09  1.1563229105322108e-09  1.2023104161666318e-09  1.2501268660826856e-09 
 1.2998449982078792e-09  1.3515404432874996e-09  1.4052918399330512e-09  1.4611809542462126e-09 
 1.5192928042002659e-09  1.5797157889682132e-09  1.6425418233943086e-09  1.7078664778135570e-09 
 1.7757891234318799e-09  1.8464130834880849e-09  1.9198457904275848e-09  1.9961989493269433e-09 
 2.0755887078178919e-09  2.1581358327692191e-09  2.2439658939953752e-09  2.3332094552711963e-09 
 2.4260022729433122e-09  2.5224855024404126e-09  2.6228059129964218e-09  2.7271161109132970e-09 
 2.8355747717029931e-09  2.9483468814617938e-09  3.0656039878441167e-09  3.1875244610176048e-09 
 3.3142937649964277e-09  3.4461047397655542e-09  3.5831578946251678e-09  3.7256617132013984e-09 
 3.8738329705873990e-09  4.0278970630971096e-09  4.1880883511334368e-09  4.3546505156922782e-09 
 4.5278369290447484e-09  4.7079110401614944e-09  4.8951467754653149e-09  5.0898289555217826e-09 
 5.2922537283016465e-09  5.5027290196740766e-09  5.7215750018160428e-09  5.9491245802503855e-09 
 6.1857239002533030e-09  6.4317328734017148e-09  6.6875257250613874e-09  6.9534915636486007e-09 
 7.2300349725313763e-09  7.5175766254705295e-09  7.8165539265367861e-09  8.1274216754772573e-09 
 8.4506527595436261e-09  8.7867388728340493e-09  9.1361912642433227e-09  9.4995415151588359e-09 
 9.8773423480853255e-09  1.0270168467428570e-08  1.0678617433716765e-08  1.1103310572589504e-08 
 1.1544893919937013e-08  1.2004039204627350e-08  1.2481444870316315e-08  1.2977837137894432e-08 
 1.3493971110187135e-08  1.4030631920588297e-08  1.4588635927374803e-08  1.5168831955518195e-08 
 1.5772102587882810e-08  1.6399365507774233e-08  1.7051574894880339e-08  1.7729722876727876e-08 
 1.8434841037863311e-08  1.9168001989052364e-08  1.9930320998886020e-08  2.0722957690274316e-08 
 2.1547117804408868e-08  2.2404055034876662e-08  2.3295072934715506e-08  2.4221526899311686e-08 
 2.5184826228155542e-08  2.6186436268592153e-08  2.7227880644826515e-08  2.8310743575574646e-08 
 2.9436672283885543e-08  3.0607379502799428e-08  3.1824646080653625e-08  3.3090323689998837e-08 
 3.4406337644246208e-08  3.5774689826328853e-08  3.7197461733833952e-08  3.8676817645235130e-08 
 4.0215007912042559e-08  4.1814372381877610e-08  4.3477343957678525e-08  4.5206452298451132e-08 
 4.7004327667192868e-08  4.8873704931843481e-08  5.0817427725346809e-08  5.2838452771153008e-08 
 5.4939854380737419e-08  5.7124829129979402e-08  5.9396700721512157e-08  6.1758925040439533e-08 
 6.4215095411109529e-08  6.6768948062939303e-08  6.9424367813605898e-08  7.2185393978244535e-08 
 7.5056226513645471e-08  7.8041232406789848e-08  8.1144952317444947e-08  8.4372107484919361e-08 
 8.7727606909483340e-08  9.1216554819376765e-08  9.4844258434760950e-08  9.8616236040422593e-08 
 1.0253822537950632e-07  1.0661619238104484e-07  1.1085634023455551e-07  1.1526511882550781e-07 
 1.1984923454601092e-07  1.2461566049564040e-07  1.2957164708791970e-07  1.3472473307858551e-07 
 1.4008275703240975e-07  1.4565386924601446e-07  1.5144654414481771e-07  1.5746959317295476e-07 
 1.6373217819578461e-07  1.7024382543535956e-07  1.7701443996005131e-07  1.8405432075036874e-07 
 1.9137417636387721e-07  1.9898514122304245e-07  2.0689879255076445e-07  2.1512716797936217e-07 
 2.2368278385977662e-07  2.3257865429884161e-07  2.4182831095356857e-07  2.5144582361254340e-07 
 2.6144582159573408e-07  2.7184351600524946e-07  2.8265472286087975e-07  2.9389588715559912e-07 
 3.0558410786761377e-07  3.1773716396697638e-07  3.3037354145631718e-07  3.4351246148680457e-07 
 3.5717390959208742e-07  3.7137866608466133e-07  3.8614833766088375e-07  4.0150539026268229e-07 
 4.1747318324591748e-07  4.3407600490736678e-07  4.5133910942431434e-07  4.6928875526293086e-07 
 4.8795224511382144e-07  5.0735796741546616e-07  5.2753543952866656e-07  5.4851535262764444e-07 
 5.7032961837603291e-07  5.9301141745870380e-07  6.1659525004323942e-07  6.4111698824771171e-07 
 6.6661393069456514e-07  6.9312485923350184e-07  7.2069009791960399e-07  7.4935157433633790e-07 
 7.7915288335664276e-07  8.1013935343903254e-07  8.4235811555944512e-07  8.7585817488365543e-07 
 9.1069048528912943e-07  9.4690802684961363e-07  9.8456588640020950e-07  1.0237213413053624e-06 
 1.0644339465570792e-06  1.1067656253357248e-06  1.1507807631710190e-06  1.1965463058463065e-06 
 1.2441318611949084e-06  1.2936098049431676e-06  1.3450553907610712e-06  1.3985468646876266e-06 
 1.4541655841048530e-06  1.5119961414411485e-06  1.5721264927919581e-06  1.6346480916531630e-06 
 1.6996560279703095e-06  1.7672491727149842e-06  1.8375303282078539e-06  1.9106063844167811e-06 
 1.9865884814673951e-06  2.0655921786129418e-06  2.1477376299200533e-06  2.2331497669372654e-06 
 2.3219584886236739e-06  2.4142988588261589e-06  2.5103113116051076e-06  2.6101418647203164e-06 
 2.7139423416013313e-06  2.8218706021391513e-06  2.9340907826498024e-06  3.0507735453739618e-06 
 3.1720963378915228e-06  3.2982436628447979e-06  3.4294073583797718e-06  3.5657868897312160e-06 
 3.7075896523940042e-06  3.8550312873408901e-06  4.0083360087650592e-06  4.1677369448447833e-06 
 4.3334764920472805e-06  4.5058066835093124e-06  4.6849895720534426e-06  4.8712976284209590e-06 
 5.0650141553256990e-06  5.2664337179566478e-06  5.4758625915823613e-06  5.6936192269360850e-06 
 5.9200347340872013e-06  6.1554533855328798e-06  6.4002331392725771e-06  6.6547461826585664e-06 
 6.9193794978467719e-06  7.1945354497053180e-06  7.4806323970715545e-06  7.7781053282841710e-06 
 8.0874065219533619e-06  8.4090062339703799e-06  8.7433934117971926e-06  9.0910764371185093e-06 
 9.4525838979810084e-06  9.8284653915891304e-06  1.0219292358973622e-05  1.0625658952796114e-05 
 1.1048182939604080e-05  1.1487506637901899e-05  1.1944297893457978e-05  1.2419251093323965e-05 
 1.2913088220100631e-05  1.3426559948045567e-05  1.3960446782680687e-05  1.4515560245623884e-05 
 1.5092744106436126e-05  1.5692875663347156e-05  1.6316867074796021e-05  1.6965666743799187e-05 
 1.7640260757238939e-05  1.8341674382246612e-05  1.9070973621941951e-05  1.9829266832878234e-05 
 2.0617706406636927e-05  2.1437490518110188e-05  2.2289864943111389e-05  2.3176124948056895e-05 
 2.4097617254571420e-05  2.5055742081980497e-05  2.6051955270771904e-05  2.7087770490228260e-05 
 2.8164761533559133e-05  2.9284564703993710e-05  3.0448881295428721e-05  3.1659480171370096e-05 
 3.2918200446053309e-05  3.4226954271779422e-05  3.5587729736664118e-05  3.7002593877160457e-05 
 3.8473695809889384e-05  4.0003269987487536e-05  4.1593639583371182e-05  4.3247220010501917e-05 
 4.4966522579444801e-05  4.6754158301213677e-05  4.8612841840615814e-05  5.0545395626031249e-05 
 5.2554754121795058e-05  5.4643968269593287e-05  5.6816210105532147e-05  5.9074777559805521e-05 
 6.1423099446150030e-05  6.3864740648565194e-05  6.6403407513063815e-05  6.9042953452523823e-05 
 7.1787384773026885e-05  7.4640866730396835e-05  7.7607729825992654e-05  8.0692476351159722e-05 
 8.3899787190117375e-05  8.7234528891431856e-05  9.0701761018628551e-05  9.4306743790902026e-05 
 9.8054946025312131e-05  1.0195205339229468e-04  1.0600397699677791e-04  1.1021686229767003e-04 
 1.1459709837898042e-04  1.1915132758635339e-04  1.2388645554332119e-04  1.2880966156214477e-04 
 1.3392840946467992e-04  1.3925045882930850e-04  1.4478387668058894e-04  1.5053704963892910e-04 
 1.5651869654824695e-04  1.6273788160027882e-04  1.6920402797491855e-04  1.7592693201670564e-04 
 1.8291677796836462e-04  1.9018415328309583e-04  1.9774006453815145e-04  2.0559595397309124e-04 
 2.1376371667701686e-04  2.2225571844999782e-04  2.3108481436488553e-04  2.4026436805669419e-04 
 2.4980827176777096e-04  2.5973096717805207e-04  2.7004746705081608e-04  2.8077337772549894e-04 
 2.9192492249033026e-04  3.0351896586879745e-04  3.1557303885522723e-04  3.2810536513609988e-04 
 3.4113488833511027e-04  3.5468130032139847e-04  3.6876507062187414e-04  3.8340747698008330e-04 
 3.9863063710565986e-04  4.1445754166005488e-04  4.3091208852593402e-04  4.4801911840941706e-04 
 4.6580445182612518e-04  4.8429492752395941e-04  5.0351844239740929e-04  5.2350399295029223e-04 
 5.4428171836587696e-04  5.6588294524553492e-04  5.8834023407929633e-04  6.1168742751402058e-04 
 6.3595970048728088e-04  6.6119361229754255e-04  6.8742716068381478e-04  7.1469983799053011e-04 
 7.4305268949624397e-04  7.7252837398748364e-04  8.0317122666207397e-04  8.3502732444922585e-04 
 8.6814455383683474e-04  9.0257268129962493e-04  9.3836342642509066e-04  9.7557053783765813e-04 
 1.0142498720249265e-03  1.0544594751736012e-03  1.0962596681263885e-03  1.1397131345750504e-03 
 1.1848850126087609e-03  1.2318429897410321e-03  1.2806574015426985e-03  1.3314013340127470e-03 
 1.3841507298233628e-03  1.4389844985799938e-03  1.4959846312421015e-03  1.5552363188550624e-03 
 1.6168280757486388e-03  1.6808518673626217e-03  1.7474032428654283e-03  1.8165814727368716e-03 
 1.8884896914917572e-03  1.9632350457267798e-03  2.0409288476786842e-03  2.1216867344879160e-03 
 2.2056288333677128e-03  2.2928799328850364e-03  2.3835696605657001e-03  2.4778326670431266e-03 
 2.5758088169756084e-03  2.6776433869650151e-03  2.7834872707154464e-03  2.8934971916778122e-03 
 3.0078359234334455e-03  3.1266725180763471e-03  3.2501825428615243e-03  3.3785483253935674e-03 
 3.5119592076372432e-03  3.6506118090392282e-03  3.7947102990573563e-03  3.9444666794012980e-03 
 4.1001010762962281e-03  4.2618420430877834e-03  4.4299268735153371e-03  4.6046019259871011e-03 
 4.7861229591959946e-03  4.9747554794279088e-03  5.1707750999153276e-03  5.3744679125970526e-03 
 5.5861308726575243e-03  5.8060721962155896e-03  6.0346117715485877e-03  6.2720815842359527e-03 
 6.5188261566197989e-03  6.7752030019750135e-03  7.0415830937976369e-03  7.3183513506130194e-03 
 7.6059071367205683e-03  7.9046647792832478e-03  8.2150541021809766e-03  8.5375209770452171e-03 
 8.8725278918889670e-03  9.2205545377561510e-03  9.5820984137968829e-03  9.9576754511918712e-03 
 1.0347820656325760e-02  1.0753088773618427e-02  1.1174054968406998e-02  1.1611315530268352e-02 
 1.2065488597159058e-02  1.2537214900731182e-02  1.3027158533182046e-02  1.3536007735963805e-02 
 1.4064475710665811e-02  1.4613301452360795e-02  1.5183250605677481e-02  1.5775116343835729e-02 
 1.6389720270850529e-02  1.7027913347061583e-02  1.7690576838135293e-02  1.8378623287597491e-02 
 1.9092997512953135e-02  1.9834677625360710e-02  2.0604676072792968e-02  2.1404040706530243e-02 
 2.2233855870782984e-02  2.3095243515151249e-02  2.3989364329547496e-02  2.4917418901115256e-02 
 2.5880648892591222e-02  2.6880338241424585e-02  2.7917814378895442e-02  2.8994449468297902e-02 
 3.0111661661156711e-02  3.1270916370297101e-02  3.2473727558420033e-02  3.3721659040668421e-02 
 3.5016325799518785e-02  3.6359395310098394e-02  3.7752588873862465e-02  3.9197682958335610e-02 
 4.0696510540372856e-02  4.2250962450172860e-02  4.3862988713001816e-02  4.5534599885301480e-02 
 4.7267868381568087e-02  4.9064929788059167e-02  5.0927984159074971e-02  5.2859297291182501e-02 
 5.4861201970388074e-02  5.6936099186872896e-02  5.9086459311501957e-02  6.1314823227834520e-02 
 6.3623803412980004e-02  6.6016084960074800e-02  6.8494426534730160e-02  7.1061661257209585e-02 
 7.3720697501581237e-02  7.6474519602491825e-02  7.9326188459608690e-02  8.2278842029160776e-02 
 8.5335695691338517e-02  8.8500042481651525e-02  9.1775253173639187e-02  9.5164776199585674e-02 
 9.8672137395172110e-02  1.0230093955321111e-01  1.0605486177078913e-01  1.0993765857338880e-01 
 1.1395315879866327e-01  1.1810526422172325e-01  1.2239794790289699e-01  1.2683525223807082e-01 
 1.3142128669077544e-01  1.3616022518431178e-01  1.4105630313126333e-01  1.4611381407682403e-01 
 1.5133710593143956e-01  1.5673057676733429e-01  1.6229867015256011e-01  1.6804586999528170e-01 
 1.7397669487012080e-01  1.8009569179745025e-01  1.8640742944568783e-01  1.9291649072576980e-01 
 1.9962746474613680e-01  2.0654493809583091e-01  2.1367348542247627e-01  2.2101765927128245e-01 
 2.2858197915049239e-01  2.3637091978816138e-01  2.4438889854457677e-01  2.5264026194422806e-01 
 2.6112927129084085e-01  2.6986008732875766e-01  2.7883675391377921e-01  2.8806318065657632e-01 
 2.9754312450190423e-01  3.0728017020714088e-01  3.1727770968415314e-01  3.2753892016917796e-01 
 3.3806674118637858e-01  3.4886385027191474e-01  3.5993263742694670e-01  3.7127517826991052e-01 
 3.8289320586073677e-01  3.9478808117254793e-01  4.0696076218976601e-01  4.1941177161563054e-01 
 4.3214116317692980e-01  4.4514848651939687e-01  4.5843275069385364e-01  4.7199238624089151e-01 
 4.8582520589084244e-01  4.9992836390614687e-01  5.1429831410512394e-01  5.2893076661979987e-01 
 5.4382064345601588e-01  5.5896203294166902e-01  5.7434814316894434e-01  5.8997125455874044e-01 
 6.0582267170062287e-01  6.2189267464944764e-01  6.3817046989057313e-01  6.5464414121934367e-01 
 6.7130060081729548e-01  6.8812554084732647e-01  7.0510338593269040e-01  7.2221724692999945e-01 
 7.3944887645402402e-01  7.5677862666159346e-01  7.7418540985263218e-01  7.9164666249763316e-01 
 8.0913831335163544e-01  8.2663475636399175e-01  8.4410882913949647e-01  8.6153179774833977e-01 
 8.7887334871820788e-01  8.9610158906971915e-01  9.1318305527456467e-01  9.3008273202196357e-01 
 9.4676408167157133e-01  9.6318908524771940e-01  9.7931829578923468e-01  9.9511090480955922e-01 
 1.0105248225425112e+00  1.0255167725493890e+00  1.0400424011434324e+00  1.0540564019491676e+00 
 1.0675126557588814e+00  1.0803643856797251e+00  1.0925643273870820e+00  1.1040649141184382e+00 
 1.1148184758637945e+00  1.1247774520413307e+00  1.1338946167990727e+00  1.1421233159633357e+00 
 1.1494177145715840e+00  1.1557330538885571e+00  1.1610259168163946e+00  1.1652545006755768e+00 
 1.1683788964537289e+00  1.1703613737892393e+00  1.1711666711659054e+00  1.1707622910267654e+00 
 1.1691187997460950e+00  1.1662101325971286e+00  1.1620139039812729e+00  1.1565117231984623e+00 
 1.1496895158898448e+00  1.1415378509241740e+00  1.1320522718820138e+00  1.1212336313791802e+00 
 1.1090884252386173e+00  1.0956291219651810e+00  1.0808744811250657e+00  1.0648498521403280e+00 
 1.0475874427786367e+00  1.0291265443924611e+00  1.0095136989280922e+00  9.8880279111122604e-01 
 9.6705504828130839e-01  9.4433893036557426e-01  9.2072989372231151e-01  8.9631001527091136e-01 
 8.7116746762094444e-01  8.4539584185957362e-01  8.1909332215093855e-01  7.9236172505112867e-01 
 7.6530542594488038e-01  7.3803020454210722e-01  7.1064205000620906e-01  6.8324597293685063e-01 
 6.5594487493619513e-01  6.2883852573339860e-01  6.0202269190972602e-01  5.7558844961905520e-01 
 5.4962169636918690e-01  5.2420285469958949e-01  4.9940673512009243e-01  4.7530249954959841e-01 
 4.5195364315713782e-01  4.2941789603591024e-01  4.0774694084506968e-01  3.8698585240692340e-01 
 3.6717219316469707e-01  3.4833474544702880e-01  3.3049192607630390e-01  3.1365000618256117e-01 
 2.9780134080733622e-01  2.8292288737476873e-01  2.6897534532580475e-01  2.5590326629361898e-01 
 2.4363645175431906e-01  2.3209286399460807e-01  2.2118312459034595e-01  2.1081647027113548e-01 
 2.0090779829112762e-01  1.9138519268870852e-01  1.8219711837714328e-01  1.7331841423666616e-01 
 1.6474367250433550e-01  1.5646973643711545e-01  1.4849308100045230e-01  1.4080983228922636e-01 
 1.3341578732397610e-01  1.2630643416076934e-01  1.1947697225060824e-01  1.1292233298238821e-01 
 1.0663720034224601e-01  1.0061603162113543e-01  9.4853078102397612e-02  8.9342405661353486e-02 
 8.4077915209094578e-02  7.9053362914534325e-02  7.4262380140050877e-02  6.9698493028063316e-02 
 6.5355141678935455e-02  6.1225698863200048e-02  5.7303488214694005e-02  5.3581801854908330e-02 
 5.0053917402911784e-02  4.6713114329514853e-02  4.3552689618859150e-02  4.0565972705293017e-02 
 3.7746339658181680e-02  3.5087226592148239e-02  3.2582142285100750e-02  3.0224679991217876e-02 
 2.8008528440789788e-02  2.5927482023386860e-02  2.3975450155203540e-02  2.2146465835542587e-02 
 2.0434693401229432e-02  1.8834435491202901e-02  1.7340139236591168e-02  1.5946401694337944e-02 
 1.4647974544589149e-02  1.3439768073866463e-02  1.2316854467728216e-02  1.1274470437342110e-02 
 1.0308019205377524e-02  9.4130718772379891e-03  8.5853682236721168e-03  7.8208169013878632e-03 
 7.1154951382598900e-03  6.4656479100026068e-03  5.8676866354152504e-03  5.3181874176294278e-03 
 4.8138888591996477e-03  4.3516894793601095e-03  3.9286447623064213e-03  3.5419638659137946e-03 
 3.1890060208319077e-03  2.8672766503581278e-03  2.5744232418391058e-03  2.3082310005466439e-03 
 2.0666183169843252e-03  1.8476320783885332e-03  1.6494428547557032e-03  1.4703399890777457e-03 
 1.3087266205920850e-03  1.1631146687491986e-03  1.0321198042864352e-03  9.1445643236382152e-04 
 8.0893271106303240e-04  7.1444562678915874e-04  6.2997614631708494e-04  5.5458446332937454e-04 
 4.8740535527384105e-04  4.2764366452039337e-04  3.7456991587071678e-04  3.2751608049898440e-04 
 2.8587149466593548e-04  2.4907893982480383e-04  2.1663088900101136e-04  1.8806592283780049e-04 
 1.6296531733984445e-04  1.4094980389673634e-04  1.2167650113463813e-04  1.0483601701046281e-04 
 9.0149718660328628e-05  7.7367166712110581e-05  6.6263710074279864e-05  5.6638236634361163e-05 
 4.8311074818648075e-05  4.1122040576016129e-05  3.4928624044161169e-05  2.9604309926224021e-05 
 2.5037025445033014e-05  2.1127709638272244e-05  1.7788997709543214e-05  1.4944014146086598e-05 
 1.2525268354176840e-05  1.0473646633629251e-05  8.7374944229775396e-06  7.2717828765559294e-06 
 6.0373539945844212e-06  5.0002387049489545e-06  4.1310424919005502e-06  3.4043933783318365e-06 
 2.7984472919599610e-06  2.2944460793017648e-06  1.8763236720749570e-06  1.5303561563724992e-06 
 1.2448517433311985e-06  1.0098768889163078e-06  8.1701505790287228e-07  6.5915487130732225e-07 
 5.3030461574531439e-07  4.2543032598450145e-07  3.4031487702640278e-07  2.7143573829058471e-07 
 2.1585924898111175e-07  1.7114946977574115e-07  1.3528985106435762e-07  1.0661613172245616e-07 
 8.3759044650133644e-08  6.5595555999447395e-08  5.1207504250519555e-08  3.9846633295269926e-08 
 3.0905130765388414e-08  2.3890889402546760e-08  1.8406805784425134e-08  1.4133517712771536e-08 
 1.0815059624036986e-08  8.2469850758902208e-09  6.2665672059540421e-09  4.7447429173764338e-09 
 3.5795150767880755e-09  2.6905682561770552e-09  2.0148905875716986e-09  1.5032313631649554e-09 
 1.1172420889621995e-09  8.2716342773346240e-10  6.1000338606258861e-10  4.4811091703112541e-10 
 3.2786063040354524e-10  2.3877295765968058e-10  1.7341544350372194e-10  1.2571166108001292e-10 
 8.9329260925418239e-11  6.3887446663996552e-11  5.0166179540916600e-11  2.7067439382368773e-11 
 3.1413789511475081e-11  2.2129525966827598e-11  1.5518647851719090e-11  1.0832750038163697e-11 
 0.0000000000000000e+00  0.0000000000000000e+00  0.0000000000000000e+00  0.0000000000000000e+00 
 0.0000000000000000e+00  0.0000000000000000e+00  0.0000000000000000e+00  0.0000000000000000e+00 
 0.0000000000000000e+00  0.0000000000000000e+00  0.0000000000000000e+00  0.0000000000000000e+00 
 0.0000000000000000e+00  0.0000000000000000e+00  0.0000000000000000e+00  0.0000000000000000e+00 
 0.0000000000000000e+00  0.0000000000000000e+00  0.0000000000000000e+00  0.0000000000000000e+00 
 0.0000000000000000e+00  0.0000000000000000e+00  0.0000000000000000e+00  0.0000000000000000e+00 
 0.0000000000000000e+00  0.0000000000000000e+00  0.0000000000000000e+00  0.0000000000000000e+00 
 0.0000000000000000e+00  0.0000000000000000e+00  0.0000000000000000e+00  0.0000000000000000e+00 
 0.0000000000000000e+00  0.0000000000000000e+00  0.0000000000000000e+00  0.0000000000000000e+00 
 0.0000000000000000e+00  0.0000000000000000e+00  0.0000000000000000e+00  0.0000000000000000e+00 
 0.0000000000000000e+00  0.0000000000000000e+00  0.0000000000000000e+00  0.0000000000000000e+00 
 0.0000000000000000e+00  0.0000000000000000e+00  0.0000000000000000e+00  0.0000000000000000e+00 
 0.0000000000000000e+00  0.0000000000000000e+00  0.0000000000000000e+00  0.0000000000000000e+00 
 0.0000000000000000e+00  0.0000000000000000e+00  0.0000000000000000e+00  0.0000000000000000e+00 
 0.0000000000000000e+00  0.0000000000000000e+00  0.0000000000000000e+00  0.0000000000000000e+00 
 0.0000000000000000e+00  0.0000000000000000e+00  0.0000000000000000e+00  0.0000000000000000e+00 
 0.0000000000000000e+00  0.0000000000000000e+00  0.0000000000000000e+00  0.0000000000000000e+00 
 0.0000000000000000e+00  0.0000000000000000e+00  0.0000000000000000e+00  0.0000000000000000e+00 
 0.0000000000000000e+00  0.0000000000000000e+00  0.0000000000000000e+00  0.0000000000000000e+00 
 0.0000000000000000e+00  0.0000000000000000e+00  0.0000000000000000e+00  0.0000000000000000e+00 
 0.0000000000000000e+00  0.0000000000000000e+00  0.0000000000000000e+00  0.0000000000000000e+00 
 0.0000000000000000e+00  0.0000000000000000e+00  0.0000000000000000e+00  0.0000000000000000e+00 
 0.0000000000000000e+00  0.0000000000000000e+00  0.0000000000000000e+00  0.0000000000000000e+00 
 0.0000000000000000e+00  0.0000000000000000e+00  0.0000000000000000e+00  0.0000000000000000e+00 
 0.0000000000000000e+00  0.0000000000000000e+00  0.0000000000000000e+00  0.0000000000000000e+00 
 0.0000000000000000e+00  0.0000000000000000e+00  0.0000000000000000e+00  0.0000000000000000e+00 
 0.0000000000000000e+00  0.0000000000000000e+00  0.0000000000000000e+00  0.0000000000000000e+00 
 0.0000000000000000e+00  0.0000000000000000e+00  0.0000000000000000e+00  0.0000000000000000e+00 
 0.0000000000000000e+00  0.0000000000000000e+00  0.0000000000000000e+00  0.0000000000000000e+00 
 0.0000000000000000e+00  0.0000000000000000e+00  0.0000000000000000e+00  0.0000000000000000e+00 
 0.0000000000000000e+00  0.0000000000000000e+00  0.0000000000000000e+00  0.0000000000000000e+00 
 0.0000000000000000e+00  0.0000000000000000e+00  0.0000000000000000e+00  0.0000000000000000e+00 
 0.0000000000000000e+00  0.0000000000000000e+00  0.0000000000000000e+00  0.0000000000000000e+00 
 0.0000000000000000e+00  0.0000000000000000e+00  0.0000000000000000e+00  0.0000000000000000e+00 
 0.0000000000000000e+00  0.0000000000000000e+00  0.0000000000000000e+00  0.0000000000000000e+00 
 0.0000000000000000e+00  0.0000000000000000e+00  0.0000000000000000e+00  0.0000000000000000e+00 
 0.0000000000000000e+00  0.0000000000000000e+00  0.0000000000000000e+00  0.0000000000000000e+00 
 0.0000000000000000e+00  0.0000000000000000e+00  0.0000000000000000e+00  0.0000000000000000e+00 
 0.0000000000000000e+00  0.0000000000000000e+00  0.0000000000000000e+00  0.0000000000000000e+00 
 0.0000000000000000e+00  0.0000000000000000e+00  0.0000000000000000e+00  0.0000000000000000e+00 
 0.0000000000000000e+00  0.0000000000000000e+00 
D    2   6.00          Wavefunction
 9.4531206486673763e-14  9.8290758286243840e-14  1.0219982927902683e-13  1.0626436591564092e-13 
 1.1049055113992050e-13  1.1488481379436584e-13  1.1945383839965194e-13  1.2420457532307321e-13 
 1.2914425135139161e-13  1.3428038068417340e-13  1.3962077636433419e-13  1.4517356216328449e-13 
 1.5094718493875092e-13  1.5695042748407661e-13  1.6319242188854197e-13  1.6968266342903340e-13 
 1.7643102501418965e-13  1.8344777220299960e-13  1.9074357882069638e-13  1.9832954319570254e-13 
 2.0621720504232803e-13  2.1441856301489980e-13  2.2294609296002792e-13  2.3181276689477402e-13 
 2.4103207273958900e-13  2.5061803483604088e-13  2.6058523528054151e-13  2.7094883610652662e-13 
 2.8172460234883106e-13  2.9292892602534594e-13  3.0457885107243824e-13  3.1669209927206318e-13 
 3.2928709721001107e-13  3.4238300430629542e-13  3.5599974196032598e-13  3.7015802385519625e-13 
 3.8487938746718825e-13  4.0018622682842633e-13  4.1610182659251630e-13  4.3265039745499261e-13 
 4.4985711298245300e-13  4.6774814790640571e-13  4.8635071794008078e-13  5.0569312117877911e-13 
 5.2580478114672629e-13  5.4671629155592746e-13  5.6845946284509888e-13  5.9106737056947778e-13 
 6.1457440571511767e-13  6.3901632701420613e-13  6.6443031534099120e-13  6.9085503027105437e-13 
 7.1833066888998135e-13  7.4689902694087381e-13  7.7660356240373249e-13  8.0748946160342024e-13 
 8.3960370794677351e-13  8.7299515339341834e-13  9.0771459276901711e-13  9.4381484103399019e-13 
 9.8135081362524888e-13  1.0203796099931620e-12  1.0609606004608225e-12  1.1031555165377519e-12 
 1.1470285448254271e-12  1.1926464246574706e-12  1.2400785496230382e-12  1.2893970731278472e-12 
 1.3406770181534073e-12  1.3939963913814376e-12  1.4494363018570655e-12  1.5070810843713120e-12 
 1.5670184277505646e-12  1.6293395082481795e-12  1.6941391282411410e-12  1.7615158604427390e-12 
 1.8315721978506670e-12  1.9044147096586223e-12  1.9801542033685890e-12  2.0589058933503983e-12 
 2.1407895761049905e-12  2.2259298124979747e-12  2.3144561172407203e-12  2.4065031559071707e-12 
 2.5022109497861526e-12  2.6017250888807224e-12  2.7051969533786197e-12  2.8127839439307043e-12 
 2.9246497210876751e-12  3.0409644542593005e-12  3.1619050805748768e-12  3.2876555740387055e-12 
 3.4184072253899815e-12  3.5543589330928843e-12  3.6957175058994559e-12  3.8426979774455423e-12 
 3.9955239333584179e-12  4.1544278513735593e-12  4.3196514549780982e-12  4.4914460811188028e-12 
 4.6700730625339942e-12  4.8558041252909878e-12  5.0489218021337811e-12  5.2497198622697965e-12 
 5.4585037582494048e-12  5.6755910906181460e-12  5.9013120910482692e-12  6.1360101246847778e-12 
 6.3800422124698956e-12  6.6337795742407417e-12  6.8976081934261548e-12  7.1719294042018418e-12 
 7.4571605019969788e-12  7.7537353782808627e-12  8.0621051805954862e-12  8.3827389988377326e-12 
 8.7161245788355376e-12  9.0627690643031140e-12  9.4231997683042972e-12  9.7979649753971679e-12 
 1.0187634775680488e-11  1.0592801932010490e-11  1.1014082781707307e-11  1.1452118174122680e-11 
 1.1907574445495231e-11  1.2381144432576150e-11  1.2873548526567199e-11  1.3385535768974568e-11 
 1.3917884991044968e-11  1.4471405998518074e-11  1.5046940803496781e-11  1.5645364905309719e-11 
 1.6267588622314244e-11  1.6914558476665772e-11  1.7587258634160244e-11  1.8286712401339546e-11 
 1.9013983782137797e-11  1.9770179096435892e-11  2.0556448662987063e-11  2.1373988549272931e-11 
 2.2224042390952188e-11  2.3107903283669751e-11  2.4026915750103897e-11  2.4982477785243989e-11 
 2.5976042983009504e-11  2.7009122747446233e-11  2.8083288591862171e-11  2.9200174529401702e-11 
 3.0361479558693670e-11  3.1568970248354879e-11  3.2824483424280762e-11  3.4129928963810474e-11 
 3.5487292701017629e-11  3.6898639447545398e-11  3.8366116133582140e-11  3.9891955073754585e-11 
 4.1478477362907291e-11  4.3128096406934116e-11  4.4843321594032120e-11  4.6626762111963067e-11 
 4.8481130917129282e-11  5.0409248861501211e-11  5.2414048983675340e-11  5.4498580970588864e-11 
 5.6666015796679281e-11  5.8919650547545027e-11  6.1262913435445993e-11  6.3699369014272098e-11 
 6.6232723601914027e-11  6.8866830918284045e-11  7.1605697947563028e-11  7.4453491033592817e-11 
 7.7414542217683944e-11  8.0493355828481525e-11  8.3694615333912708e-11  8.7023190465639981e-11 
 9.0484144626856140e-11  9.4082742594691529e-11  9.7824458528949037e-11  1.0171498429934986e-10 
 1.0576023814395840e-10  1.0996637367195617e-10  1.1433978922445965e-10  1.1888713760762246e-10 
 1.2361533621282789e-10  1.2853157753936495e-10  1.3364334013559660e-10  1.3895839997526330e-10 
 1.4448484228622584e-10  1.5023107384964500e-10  1.5620583578830232e-10  1.6241821686351997e-10 
 1.6887766730090317e-10  1.7559401316594129e-10  1.8257747131132938e-10  1.8983866491875358e-10 
 1.9738863965877998e-10  2.0523888049342676e-10  2.1340132914698632e-10  2.2188840227166523e-10 
 2.3071301033568188e-10  2.3988857726255057e-10  2.4942906085142960e-10  2.5934897400959476e-10 
 2.6966340682933629e-10  2.8038804954286484e-10  2.9153921639014146e-10  3.0313387043594506e-10 
 3.1518964937392092e-10  3.2772489235686917e-10  3.4075866789408263e-10  3.5431080285817794e-10 
 3.6840191264553445e-10  3.8305343253623023e-10  3.9828765030117352e-10  4.1412774010603200e-10 
 4.3059779776353876e-10  4.4772287738779220e-10  4.6552902950631484e-10  4.8404334068784008e-10 
 5.0329397474611785e-10  5.2331021558240510e-10  5.4412251173182275e-10  5.6576252268133664e-10 
 5.8826316702982122e-10  6.1165867256347139e-10  6.3598462832272728e-10  6.6127803873992545e-10 
 6.8757737993001414e-10  7.1492265821998684e-10  7.4335547100603907e-10  7.7291907003104145e-10 
 8.0365842717858364e-10  8.3562030288365837e-10  8.6885331726408405e-10  9.0340802408082561e-10 
 9.3933698763975967e-10  9.7669486275183365e-10  1.0155384778732891e-09  1.0559269215523740e-09 
 1.0979216323140906e-09  1.1415864921196742e-09  1.1869879235429896e-09  1.2341949908116722e-09 
 1.2832795048666923e-09  1.3343161326001812e-09  1.3873825104376706e-09  1.4425593624375419e-09 
 1.4999306230873134e-09  1.5595835649835810e-09  1.6216089315898212e-09  1.6861010752740014e-09 
 1.7531581008360027e-09  1.8228820147431513e-09  1.8953788803008891e-09  1.9707589789946119e-09 
 2.0491369782481440e-09  2.1306321058539667e-09  2.2153683313406089e-09  2.3034745545530448e-09 
 2.3950848017329722e-09  2.4903384293972754e-09  2.5893803363247334e-09  2.6923611839735224e-09 
 2.7994376256647237e-09  2.9107725448805501e-09  3.0265353030396939e-09  3.1469019971267726e-09 
 3.2720557275677145e-09  3.4021868767585972e-09  3.5374933986716433e-09  3.6781811199788405e-09 
 3.8244640531513388e-09  3.9765647220107732e-09  4.1347145002278968e-09  4.2991539632832472e-09 
 4.4701332544253691e-09  4.6479124651832185e-09  4.8327620310115384e-09  5.0249631426711196e-09 
 5.2248081739696582e-09  5.4326011265138352e-09  5.6486580921492636e-09  5.8733077337916428e-09 
 6.1068917853805661e-09  6.3497655717164817e-09  6.6022985489715574e-09  6.8648748666966394e-09 
 7.1378939521791942e-09  7.4217711180411368e-09  7.7169381940007625e-09  8.0238441837597244e-09 
 8.3429559480144893e-09  8.6747589146308919e-09  9.0197578170623186e-09  9.3784774621346722e-09 
 9.7514635283659154e-09  1.0139283396034741e-08  1.0542527010260813e-08  1.0961807778409533e-08 
 1.1397763503186288e-08  1.1851057352839778e-08  1.2322378869949871e-08  1.2812445020334687e-08 
 1.3322001283672420e-08  1.3851822787496654e-08  1.4402715486290446e-08  1.4975517387472359e-08 
 1.5571099826139426e-08  1.6190368790506167e-08  1.6834266300055680e-08  1.7503771838498844e-08 
 1.8199903843722071e-08  1.8923721256988967e-08  1.9676325133753111e-08  2.0458860318531759e-08 
 2.1272517186388303e-08  2.2118533453672194e-08  2.2998196060770910e-08  2.3912843129737535e-08 
 2.4863865999771305e-08  2.5852711343648497e-08  2.6880883368321143e-08  2.7949946103032063e-08 
 2.9061525778426190e-08  3.0217313300276782e-08  3.1419066821589447e-08  3.2668614416996142e-08 
 3.3967856863507021e-08  3.5318770531849453e-08  3.6723410392793029e-08  3.8183913143031878e-08 
 3.9702500455379902e-08  4.1281482358222071e-08  4.2923260749362051e-08  4.4630333049610971e-08 
 4.6405296001674008e-08  4.8250849620113444e-08  5.0169801298395445e-08  5.2165070079268559e-08 
 5.4239691094967037e-08  5.6396820183994741e-08  5.8639738691510052e-08  6.0971858460613776e-08 
 6.3396727022131023e-08  6.5918032990781498e-08  6.8539611675944490e-08  7.1265450915552037e-08 
 7.4099697141985520e-08  7.7046661689198009e-08  8.0110827350657786e-08  8.3296855198085985e-08 
 8.6609591671359245e-08  9.0054075950360367e-08  9.3635547619988959e-08  9.7359454639989505e-08 
 1.0123146163171747e-07  1.0525745849444887e-07  1.0944356936433392e-07  1.1379616192962264e-07 
 1.1832185711632918e-07  1.2302753915906376e-07  1.2792036607234998e-07  1.3300778053835126e-07 
 1.3829752122756516e-07  1.4379763456970030e-07  1.4951648699264179e-07  1.5546277764811068e-07 
 1.6164555164337653e-07  1.6807421379914150e-07  1.7475854295451957e-07  1.8170870684086509e-07 
 1.8893527754706861e-07  1.9644924759983976e-07  2.0426204668342614e-07  2.1238555902420243e-07 
 2.2083214146655444e-07  2.2961464226755381e-07  2.3874642063899983e-07  2.4824136706654517e-07 
 2.5811392443680162e-07  2.6837911000455526e-07  2.7905253823348870e-07  2.9015044454514311e-07 
 3.0168971001223746e-07  3.1368788703387947e-07  3.2616322603171975e-07  3.3913470320763092e-07 
 3.5262204940512502e-07  3.6664578011838430e-07  3.8122722669453724e-07  3.9638856877661906e-07 
 4.1215286803653351e-07  4.2854410324932786e-07  4.4558720676207336e-07  4.6330810241282023e-07 
 4.8173374495726496e-07  5.0089216106307376e-07  5.2081249193418073e-07  5.4152503762986185e-07 
 5.6306130314596207e-07  5.8545404632831188e-07  6.0873732769120300e-07  6.3294656221660923e-07 
 6.5811857321292993e-07  6.8429164831510572e-07  7.1150559771123288e-07  7.3980181468418505e-07 
 7.6922333856026225e-07  7.9981492016054574e-07  8.3162308985443201e-07  8.6469622831880323e-07 
 8.9908464011034486e-07  9.3484063016284879e-07  9.7201858332575843e-07  1.0106750470648223e-06 
 1.0508688174505500e-06  1.0926610285651360e-06  1.1361152454637194e-06  1.1812975608312282e-06 
 1.2282766954817233e-06  1.2771241028528889e-06  1.3279140776544919e-06  1.3807238688358734e-06 
 1.4356337970441073e-06  1.4927273767512923e-06  1.5520914432365038e-06  1.6138162846153407e-06 
 1.6779957791175994e-06  1.7447275378216853e-06  1.8141130530624985e-06  1.8862578527382746e-06 
 1.9612716607507607e-06  2.0392685638223950e-06  2.1203671849438565e-06  2.2046908637154343e-06 
 2.2923678438560638e-06  2.3835314681647851e-06  2.4783203812307396e-06  2.5768787401994223e-06 
 2.6793564339153097e-06  2.7859093107735071e-06  2.8966994156264612e-06  3.0118952361052832e-06 
 3.1316719587297279e-06  3.2562117351955555e-06  3.3857039592434556e-06  3.5203455545298943e-06 
 3.6603412739366639e-06  3.8059040107734751e-06  3.9572551223458485e-06  4.1146247663792876e-06 
 4.2782522508102882e-06  4.4483863974748282e-06  4.6252859202461911e-06  4.8092198181957012e-06 
 5.0004677843729662e-06  5.1993206308254353e-06  5.4060807305021143e-06  5.6210624767115713e-06 
 5.8445927608309740e-06  6.0770114689906297e-06  6.3186719984870325e-06  6.5699417947074743e-06 
 6.8312029093799995e-06  7.1028525809952651e-06  7.3853038382796615e-06  7.6789861276346029e-06 
 7.9843459654926603e-06  8.3018476165790950e-06  8.6319737991064331e-06  8.9752264179703911e-06 
 9.3321273270578190e-06  9.7032191218211331e-06  1.0089065963319901e-05  1.0490254434976951e-05 
 1.0907394433346428e-05  1.1341120094242424e-05  1.1792090755629833e-05  1.2260991958734953e-05 
 1.2748536488890722e-05  1.3255465457691571e-05  1.3782549428094791e-05  1.4330589584170902e-05 
 1.4900418947271451e-05  1.5492903640453904e-05  1.6108944203075073e-05  1.6749476957540546e-05 
 1.7415475430275916e-05  1.8107951829067019e-05  1.8827958579001679e-05  1.9576589919332750e-05 
 2.0354983563675284e-05  2.1164322426043759e-05  2.2005836415336365e-05  2.2880804300974371e-05 
 2.3790555652513073e-05  2.4736472856150067e-05  2.5719993211173701e-05  2.6742611109513175e-05 
 2.7805880301676716e-05  2.8911416252494663e-05  3.0060898590216861e-05  3.1256073652655291e-05 
 3.2498757134207807e-05  3.3790836837748768e-05  3.5134275535530575e-05  3.6531113943401982e-05 
 3.7983473812819287e-05  3.9493561145300856e-05  4.1063669534161318e-05  4.2696183638547083e-05 
 4.4393582794996669e-05  4.6158444771951204e-05  4.7993449672854812e-05  4.9901383993705603e-05 
 5.1885144841146999e-05  5.3947744317429316e-05  5.6092314078817246e-05  5.8322110074280448e-05 
 6.0640517471565871e-05  6.3051055778034918e-05  6.5557384163932364e-05  6.8163306996056659e-05 
 7.0872779590110859e-05  7.3689914190337409e-05  7.6618986185377343e-05  7.9664440569639000e-05 
 8.2830898659830841e-05  8.6123165076680327e-05  8.9546235002258389e-05  9.3105301723731609e-05 
 9.6805764474785673e-05  1.0065323658640063e-04  1.0465355395911387e-04  1.0881278386937627e-04 
 1.1313723412309641e-04  1.1763346256997980e-04  1.2230828699278848e-04  1.2716879538620496e-04 
 1.3222235664054165e-04  1.3747663164613672e-04  1.4293958483488012e-04  1.4861949617595656e-04 
 1.5452497364354568e-04  1.6066496617490541e-04  1.6704877713797850e-04  1.7368607832839067e-04 
 1.8058692451647815e-04  1.8776176856577723e-04  1.9522147714522194e-04  2.0297734705816296e-04 
 2.1104112221218886e-04  2.1942501125466371e-04  2.2814170589983751e-04  2.3720439997437789e-04 
 2.4662680920919217e-04  2.5642319180647216e-04  2.6660836981199179e-04  2.7719775132383406e-04 
 2.8820735356989852e-04  2.9965382688777568e-04  3.1155447964183300e-04  3.2392730411368752e-04 
 3.3679100340359687e-04  3.5016501938170674e-04  3.6406956172958181e-04  3.7852563811392877e-04 
 3.9355508553602669e-04  4.0918060290198423e-04  4.2542578486063910e-04  4.4231515695765226e-04 
 4.5987421215616680e-04  4.7812944877626901e-04  4.9710840990740816e-04  5.1683972434996527e-04 
 5.3735314914420183e-04  5.5867961374699590e-04  5.8085126591895717e-04  6.0390151938683769e-04 
 6.2786510334850696e-04  6.5277811389021759e-04  6.7867806738844069e-04  7.0560395597112936e-04 
 7.3359630511602499e-04  7.6269723346637981e-04  7.9295051494738698e-04  8.2440164326956283e-04 
 8.5709789890843805e-04  8.9108841865307711e-04  9.2642426781920574e-04  9.6315851522617291e-04 
 1.0013463110403872e-03  1.0410449675915213e-03  1.0823140432714695e-03  1.1252154296298707e-03 
 1.1698134417839432e-03  1.2161749122644320e-03  1.2643692884236714e-03  1.3144687335359968e-03 
 1.3665482317252813e-03  1.4206856968587589e-03  1.4769620855511090e-03  1.5354615144275183e-03 
 1.5962713817993422e-03  1.6594824939111246e-03  1.7251891959228461e-03  1.7934895077966629e-03 
 1.8644852652627919e-03  1.9382822660448998e-03  2.0149904215309156e-03  2.0947239140811738e-03 
 2.1776013601718285e-03  2.2637459795772268e-03  2.3532857708018764e-03  2.4463536929782035e-03 
 2.5430878544533478e-03  2.6436317082946877e-03  2.7481342549504489e-03  2.8567502523085737e-03 
 2.9696404334042044e-03  3.0869717320326480e-03  3.2089175165325029e-03  3.3356578320102204e-03 
 3.4673796512848030e-03  3.6042771348389468e-03  3.7465519000699238e-03  3.8944133001409934e-03 
 4.0480787127417242e-03  4.2077738390731241e-03  4.3737330133794307e-03  4.5461995233590860e-03 
 4.7254259417900185e-03  4.9116744697165230e-03  5.1052172915474897e-03  5.3063369424268415e-03 
 5.5153266882386155e-03  5.7324909186245113e-03  5.9581455533842852e-03  6.1926184626503811e-03 
 6.4362499012226545e-03  6.6893929574612029e-03  6.9524140171319535e-03  7.2256932426168277e-03 
 7.5096250678886502e-03  7.8046187096671620e-03  8.1110986951677833e-03  8.4295054068545851e-03 
 8.7602956446175533e-03  9.1039432057892292e-03  9.4609394834076540e-03  9.8317940831463557e-03 
 1.0217035459311269e-02  1.0617211570310064e-02  1.1032890553989500e-02  1.1464661423225740e-02 
 1.1913134782144423e-02  1.2378943563340308e-02  1.2862743786435616e-02  1.3365215338324542e-02 
 1.3887062775402309e-02  1.4429016148084549e-02  1.4991831847883970e-02  1.5576293477268582e-02 
 1.6183212742527795e-02  1.6813430369811387e-02  1.7467817044476780e-02  1.8147274373834260e-02 
 1.8852735873336877e-02  1.9585167976207147e-02  2.0345571066424969e-02  2.1134980534963273e-02 
 2.1954467859062392e-02  2.2805141704266736e-02  2.3688149048885235e-02  2.4604676330408772e-02 
 2.5555950613366716e-02  2.6543240777964557e-02  2.7567858728745377e-02  2.8631160622404721e-02 
 2.9734548113739986e-02  3.0879469618585988e-02  3.2067421592437431e-02  3.3299949823275700e-02 
 3.4578650736986634e-02  3.5905172713509341e-02  3.7281217411709477e-02  3.8708541100727946e-02 
 4.0188955995327118e-02  4.1724331592533526e-02  4.3316596006594453e-02  4.4967737299004058e-02 
 4.6679804800061148e-02  4.8454910418108885e-02  5.0295229932272138e-02  5.2203004264182618e-02 
 5.4180540723781957e-02  5.6230214223940901e-02  5.8354468458196154e-02  6.0555817035492045e-02 
 6.2836844565362829e-02  6.5200207686509332e-02  6.7648636031222564e-02  7.0184933117604681e-02 
 7.2811977160971472e-02  7.5532721795265767e-02  7.8350196694709148e-02  8.1267508085295453e-02 
 8.4287839135116047e-02  8.7414450211786371e-02  9.0650678994622799e-02  9.3999940428419262e-02 
 9.7465726505018974e-02  1.0105160585804605e-01  1.0476122315541793e-01  1.0859829827343916e-01 
 1.1256662523545255e-01  1.1667007089718329e-01  1.2091257336004332e-01  1.2529814009279705e-01 
 1.2983084574108117e-01  1.3451482960339442e-01  1.3935429275122579e-01  1.4435349477010562e-01 
 1.4951675009742199e-01  1.5484842393192091e-01  1.6035292768889317e-01  1.6603471397412933e-01 
 1.7189827104882971e-01  1.7794811675672728e-01  1.8418879188387238e-01  1.9062485292058859e-01 
 1.9726086419435698e-01  2.0410138934155550e-01  2.1115098208522623e-01  2.1841417628533760e-01 
 2.2589547522735359e-01  2.3359934011430997e-01  2.4153017772705879e-01  2.4969232721689730e-01 
 2.5809004599440827e-01  2.6672749467805829e-01  2.7560872106595535e-01  2.8473764309408528e-01 
 2.9411803074447840e-01  3.0375348686699682e-01  3.1364742687888336e-01  3.2380305730685421e-01 
 3.3422335313744772e-01  3.4491103394244443e-01  3.5586853874774538e-01  3.6709799961587775e-01 
 3.7860121391462548e-01  3.9037961524700093e-01  4.0243424302111885e-01  4.1476571064246243e-01 
 4.2737417231572306e-01  4.4025928844891488e-01  4.5342018965890435e-01  4.6685543938506807e-01 
 4.8056299512650313e-01  4.9454016832838266e-01  5.0878358295465365e-01  5.2328913279764810e-01 
 5.3805193759041536e-01  5.5306629800483298e-01  5.6832564963816157e-01  5.8382251611258273e-01 
 5.9954846143688545e-01  6.1549404180671408e-01  6.3164875704995749e-01  6.4800100195694610e-01 
 6.6453801777118338e-01  6.8124584415533684e-01  6.9810927198904527e-01  7.1511179739951514e-01 
 7.3223557747263701e-01  7.4946138814091545e-01  7.6676858479434495e-01  7.8413506621069751e-01 
 8.0153724245161473e-01  8.1895000741926760e-01  8.3634671681395845e-01  8.5369917227431924e-01 
 8.7097761251720884e-01  8.8815071232208898e-01  9.0518559022285261e-01  9.2204782577671318e-01 
 9.3870148727295422e-01  9.5510917072219792e-01  9.7123205092772624e-01  9.8702994538287059e-01 
 1.0024613916615783e+00  1.0174837388726159e+00  1.0320532536316802e+00  1.0461252408711494e+00 
 1.0596541796563395e+00  1.0725938740131424e+00  1.0848976185990891e+00  1.0965183788736510e+00 
 1.1074089852505953e+00  1.1175223405528412e+00  1.1268116399469716e+00  1.1352306024186347e+00 
 1.1427337127702353e+00  1.1492764730858782e+00  1.1548156626216679e+00  1.1593096051455181e+00 
 1.1627184428696800e+00  1.1650044162865900e+00  1.1661321494244228e+00  1.1660689402663900e+00 
 1.1647850563040616e+00  1.1622540353891591e+00  1.1584529921730642e+00  1.1533629304354818e+00 
 1.1469690614561834e+00  1.1392611282284557e+00  1.1302337347044977e+00  1.1198866783641919e+00 
 1.1082252831857613e+00  1.0952607285666662e+00  1.0810103679196008e+00  1.0654980286097722e+00 
 1.0487542827030853e+00  1.0308166758009305e+00  1.0117298992298567e+00  9.9154588925696152e-01 
 9.7032383606831718e-01  9.4813008524703901e-01  9.2503791568147820e-01  9.0112718044802786e-01 
 8.7648380140226501e-01  8.5119911402253534e-01  8.2536906638002083e-01  7.9909328467465190e-01 
 7.7247402708559665e-01  7.4561505703157194e-01  7.1862047541228580e-01  6.9159355794587640e-01 
 6.6463564719052137e-01  6.3784514814727211e-01  6.1131667058471184e-01  5.8514034987505958e-01 
 5.5940136121448336e-01  5.3417962037766031e-01  5.0954963924774022e-01  4.8558047879597815e-01 
 4.6233571932842510e-01  4.3987335165978808e-01  4.1824548763917963e-01  3.9749779803365254e-01 
 3.7766861303671839e-01  3.5878766665945289e-01  3.4087452945545188e-01  3.2393684972831044e-01 
 3.0796860342460614e-01  2.9294862595236038e-01  2.7883975143588269e-01  2.6558890186317946e-01 
 2.5312843706964550e-01  2.4137898756398868e-01  2.3025384392360831e-01  2.1966477652982544e-01 
 2.0952892655515987e-01  1.9977617312684981e-01  1.9035618090997819e-01  1.8124437227109960e-01 
 1.7243578243663774e-01  1.6392771284680538e-01  1.5571708138775667e-01  1.4780044107730014e-01 
 1.4017399919120521e-01  1.3283363677032031e-01  1.2577492844586249e-01  1.1899316251800093e-01 
 1.1248336122130340e-01  1.0624030110922458e-01  1.0025853348938014e-01  9.4532404841237080e-02 
 8.9056077147598472e-02  8.3823548072826312e-02  7.8828670921648691e-02  7.4065174314069657e-02 
 6.9526681514674143e-02  6.5206729356910256e-02  6.1098786706282833e-02  5.7196272409875133e-02 
 5.3492572683469547e-02  4.9981057891678546e-02  4.6655098680877853e-02  4.3508081429303277e-02 
 4.0533422983388155e-02  3.7724584654222140e-02  3.5075085452860956e-02  3.2578514548049761e-02 
 3.0228542934690631e-02  2.8018934306027650e-02  2.5943555126985030e-02  2.3996383910313501e-02 
 2.2171519701139689e-02  2.0463189779088169e-02  1.8865756590326771e-02  1.7373723924766358e-02 
 1.5981742355890449e-02  1.4684613962601028e-02  1.3477296354248625e-02  1.2354906020777578e-02 
 1.1312721030979913e-02  1.0346183102526897e-02  9.4508990674815798e-03  8.6226417576670319e-03 
 7.8573503342669153e-03  7.1511300863981546e-03  6.5002517237192844e-03  5.9011501885767393e-03 
 5.3504230137424681e-03  4.8448282524472764e-03  4.3812820081444732e-03  3.9568555922109110e-03 
 3.5687723385612893e-03  3.2144041048696782e-03  2.8912674907075517e-03  2.5970198033751172e-03 
 2.3294548024835756e-03  2.0864982544172906e-03  1.8662033276231798e-03  1.6667458592599070e-03 
 1.4864195230792358e-03  1.3236309274990306e-03  1.1768946716770284e-03  1.0448283861071840e-03 
 9.2614778271526586e-04  8.1966173775289541e-04  7.2426742905817702e-04  6.3894554739424932e-04 
 5.6275559955845981e-04  4.9483131911200076e-04  4.3437619862755466e-04  3.8065915531785806e-04 
 3.3301034012608903e-04  2.9081709856820776e-04  2.5352008978496540e-04  2.2060956869053927e-04 
 1.9162183466313036e-04  1.6613584864997701e-04  1.4377001945203621e-04  1.2417915870749043e-04 
 1.0705160309797365e-04  9.2106501406264207e-05  7.9091263264568910e-05  6.7779165767367622e-05 
 5.7967113558307894e-05  4.9473547533380389e-05  4.2136496923954782e-05  3.5811769222578151e-05 
 3.0371272187816717e-05  2.5701461997728448e-05  2.1701911514588595e-05  1.8283992563567000e-05 
 1.5369666116695194e-05  1.2890374294222378e-05  1.0786028161025998e-05  9.0040853823233248e-06 
 7.4987119244188751e-06  6.2300221281393762e-06  5.1633916471736895e-06  4.2688379264894777e-06 
 3.5204630946990073e-06  2.8959543563927051e-06  2.3761371932572144e-06  1.9445769139749099e-06 
 1.5872243300302433e-06  1.2921015753392405e-06  1.0490243299257599e-06  8.4935694963548602e-07 
 6.8579724321072699e-07  5.5218787322011510e-07  4.4335158679119806e-07  3.5494770446895362e-07 
 2.8334750965110742e-07  2.2552638596048091e-07  1.7897074482914900e-07  1.4159796990148109e-07 
 1.1168777820578033e-07  8.7823560157949673e-08  6.8842411260682248e-08  5.3792707902617777e-08 
 4.1898208120390867e-08  3.2527775846044807e-08  2.5169934397807394e-08  1.9411552223383186e-08 
 1.4920051673411615e-08  1.1428610443916848e-08  8.7238958079153483e-09  6.6359343762501966e-09 
 5.0297758286108778e-09  3.7986582352614241e-09  2.8584244154605068e-09  2.1429769979402990e-09 
 1.6005970669371378e-09  1.1909689002835521e-09  8.8277142479773168e-10  6.5177960671095247e-10 
 4.7937153750092318e-10  3.5115581316114904e-10  2.5605675721011096e-10  1.8620113929324784e-10 
 1.3514362932620199e-10  9.6170313077390006e-11  6.8878506427295994e-11  5.4139609252197624e-11 
 2.9286290894714766e-11  3.3988739560459319e-11  2.3977158663558221e-11  1.6838273481378421e-11 
 1.1770849071716952e-11  0.0000000000000000e+00  0.0000000000000000e+00  0.0000000000000000e+00 
 0.0000000000000000e+00  0.0000000000000000e+00  0.0000000000000000e+00  0.0000000000000000e+00 
 0.0000000000000000e+00  0.0000000000000000e+00  0.0000000000000000e+00  0.0000000000000000e+00 
 0.0000000000000000e+00  0.0000000000000000e+00  0.0000000000000000e+00  0.0000000000000000e+00 
 0.0000000000000000e+00  0.0000000000000000e+00  0.0000000000000000e+00  0.0000000000000000e+00 
 0.0000000000000000e+00  0.0000000000000000e+00  0.0000000000000000e+00  0.0000000000000000e+00 
 0.0000000000000000e+00  0.0000000000000000e+00  0.0000000000000000e+00  0.0000000000000000e+00 
 0.0000000000000000e+00  0.0000000000000000e+00  0.0000000000000000e+00  0.0000000000000000e+00 
 0.0000000000000000e+00  0.0000000000000000e+00  0.0000000000000000e+00  0.0000000000000000e+00 
 0.0000000000000000e+00  0.0000000000000000e+00  0.0000000000000000e+00  0.0000000000000000e+00 
 0.0000000000000000e+00  0.0000000000000000e+00  0.0000000000000000e+00  0.0000000000000000e+00 
 0.0000000000000000e+00  0.0000000000000000e+00  0.0000000000000000e+00  0.0000000000000000e+00 
 0.0000000000000000e+00  0.0000000000000000e+00  0.0000000000000000e+00  0.0000000000000000e+00 
 0.0000000000000000e+00  0.0000000000000000e+00  0.0000000000000000e+00  0.0000000000000000e+00 
 0.0000000000000000e+00  0.0000000000000000e+00  0.0000000000000000e+00  0.0000000000000000e+00 
 0.0000000000000000e+00  0.0000000000000000e+00  0.0000000000000000e+00  0.0000000000000000e+00 
 0.0000000000000000e+00  0.0000000000000000e+00  0.0000000000000000e+00  0.0000000000000000e+00 
 0.0000000000000000e+00  0.0000000000000000e+00  0.0000000000000000e+00  0.0000000000000000e+00 
 0.0000000000000000e+00  0.0000000000000000e+00  0.0000000000000000e+00  0.0000000000000000e+00 
 0.0000000000000000e+00  0.0000000000000000e+00  0.0000000000000000e+00  0.0000000000000000e+00 
 0.0000000000000000e+00  0.0000000000000000e+00  0.0000000000000000e+00  0.0000000000000000e+00 
 0.0000000000000000e+00  0.0000000000000000e+00  0.0000000000000000e+00  0.0000000000000000e+00 
 0.0000000000000000e+00  0.0000000000000000e+00  0.0000000000000000e+00  0.0000000000000000e+00 
 0.0000000000000000e+00  0.0000000000000000e+00  0.0000000000000000e+00  0.0000000000000000e+00 
 0.0000000000000000e+00  0.0000000000000000e+00  0.0000000000000000e+00  0.0000000000000000e+00 
 0.0000000000000000e+00  0.0000000000000000e+00  0.0000000000000000e+00  0.0000000000000000e+00 
 0.0000000000000000e+00  0.0000000000000000e+00  0.0000000000000000e+00  0.0000000000000000e+00 
 0.0000000000000000e+00  0.0000000000000000e+00  0.0000000000000000e+00  0.0000000000000000e+00 
 0.0000000000000000e+00  0.0000000000000000e+00  0.0000000000000000e+00  0.0000000000000000e+00 
 0.0000000000000000e+00  0.0000000000000000e+00  0.0000000000000000e+00  0.0000000000000000e+00 
 0.0000000000000000e+00  0.0000000000000000e+00  0.0000000000000000e+00  0.0000000000000000e+00 
 0.0000000000000000e+00  0.0000000000000000e+00  0.0000000000000000e+00  0.0000000000000000e+00 
 0.0000000000000000e+00  0.0000000000000000e+00  0.0000000000000000e+00  0.0000000000000000e+00 
 0.0000000000000000e+00  0.0000000000000000e+00  0.0000000000000000e+00  0.0000000000000000e+00 
 0.0000000000000000e+00  0.0000000000000000e+00  0.0000000000000000e+00  0.0000000000000000e+00 
 0.0000000000000000e+00  0.0000000000000000e+00  0.0000000000000000e+00  0.0000000000000000e+00 
 0.0000000000000000e+00  0.0000000000000000e+00  0.0000000000000000e+00  0.0000000000000000e+00 
 0.0000000000000000e+00  0.0000000000000000e+00  0.0000000000000000e+00  0.0000000000000000e+00 
 0.0000000000000000e+00  0.0000000000000000e+00  0.0000000000000000e+00  0.0000000000000000e+00 
 0.0000000000000000e+00  0.0000000000000000e+00  0.0000000000000000e+00  0.0000000000000000e+00 
 0.0000000000000000e+00  0.0000000000000000e+00 
</PP_PSWFC>


<PP_RHOATOM>
 5.7409934923308323e-12  5.8922167080847739e-12  6.0474232868788911e-12  6.2067181542794409e-12 
 6.3702089996919019e-12  6.5380063491631487e-12  6.7102236401013010e-12  6.8869772979637954e-12 
 7.0683868149653562e-12  7.2545748308594577e-12  7.4456672158472398e-12  7.6417931556709129e-12 
 7.8430852389481072e-12  8.0496795468068419e-12  8.2617157448816625e-12  8.4793371777329115e-12 
 8.7026909657531173e-12  8.9319281046261643e-12  9.1672035674061035e-12  9.4086764092848017e-12 
 9.6565098751193898e-12  9.9108715097922936e-12  1.0171933271477666e-11  1.0439871647891945e-11 
 1.0714867775606133e-11  1.0997107562501425e-11  1.1286781813449736e-11  1.1584086359305383e-11 
 1.1889222189294093e-11  1.2202395586889424e-11  1.2523818269268873e-11  1.2853707530441894e-11 
 1.3192286388149940e-11  1.3539783734634511e-11  1.3896434491377209e-11  1.4262479767915869e-11 
 1.4638167024844052e-11  1.5023750241103264e-11  1.5419490085683533e-11  1.5825654093844639e-11 
 1.6242516847981257e-11  1.6670360163250627e-11  1.7109473278090680e-11  1.7560153049756775e-11 
 1.8022704155007785e-11  1.8497439296080391e-11  1.8984679412087360e-11  1.9484753895984598e-11 
 1.9998000817254401e-11  2.0524767150452818e-11  2.1065409009777644e-11  2.1620291889816659e-11 
 2.2189790912634759e-11  2.2774291081372068e-11  2.3374187540520699e-11  2.3989885843057402e-11 
 2.4621802224613432e-11  2.5270363884866915e-11  2.5936009276344796e-11  2.6619188400835247e-11 
 2.7320363113605714e-11  2.8040007435634994e-11  2.8778607874071039e-11  2.9536663751127289e-11 
 3.0314687541644897e-11  3.1113205219545766e-11  3.1932756613411119e-11  3.2773895771427211e-11 
 3.3637191335943670e-11  3.4523226927897040e-11  3.5432601541363037e-11  3.6365929948499182e-11 
 3.7323843115154277e-11  3.8306988627428199e-11  3.9316031129463591e-11  4.0351652772772542e-11 
 4.1414553677397817e-11  4.2505452405221199e-11  4.3625086445740680e-11  4.4774212714642282e-11 
 4.5953608065503646e-11  4.7164069814979897e-11  4.8406416281820664e-11  4.9681487340085559e-11 
 5.0990144986933069e-11  5.2333273925364881e-11  5.3711782162319761e-11  5.5126601622523512e-11 
 5.6578688778507540e-11  5.8069025297220695e-11  5.9598618703678188e-11  6.1168503062086538e-11 
 6.2779739674913890e-11  6.4433417800373039e-11  6.6130655388804077e-11  6.7872599838453108e-11 
 6.9660428771160655e-11  7.1495350828481434e-11  7.3378606488775136e-11  7.5311468905820987e-11 
 7.7295244769519495e-11  7.9331275189270057e-11  8.1420936600615338e-11  8.3565641695766984e-11 
 8.5766840378644190e-11  8.8026020745069374e-11  9.0344710088779511e-11  9.2724475933941721e-11 
 9.5166927094865295e-11  9.7673714763622544e-11  1.0024653362632821e-10  1.0288712300881482e-10 
 1.0559726805249051e-10  1.0837880092116638e-10  1.1123360203968083e-10  1.1416360136514344e-10 
 1.1717077969166349e-10  1.2025716998945641e-10  1.2342485877921349e-10  1.2667598754267974e-10 
 1.3001275417038685e-10  1.3343741444751895e-10  1.3695228357892185e-10  1.4055973775428129e-10 
 1.4426221575452525e-10  1.4806222060055064e-10  1.5196232124536801e-10  1.5596515431082990e-10 
 1.6007342587009847e-10  1.6428991327707152e-10  1.6861746704399513e-10  1.7305901276853104e-10 
 1.7761755311159983e-10  1.8229616982729808e-10  1.8709802584631322e-10  1.9202636741420334e-10 
 1.9708452628599689e-10  2.0227592197862021e-10  2.0760406408263519e-10  2.1307255463488884e-10 
 2.1868509055365113e-10  2.2444546613789875e-10  2.3035757563243877e-10  2.3642541586059651e-10 
 2.4265308892624967e-10  2.4904480498705049e-10  2.5560488510067736e-10  2.6233776414608265e-10 
 2.6924799382167536e-10  2.7634024572248561e-10  2.8361931449838661e-10  2.9109012109551174e-10 
 2.9875771608303773e-10  3.0662728306763434e-10  3.1470414219781940e-10  3.2299375376064658e-10 
 3.3150172187312615e-10  3.4023379827089349e-10  3.4919588619665589e-10  3.5839404439109345e-10 
 3.6783449118887108e-10  3.7752360872254663e-10  3.8746794723721797e-10  3.9767422951883297e-10 
 4.0814935543913597e-10  4.1890040662034835e-10  4.2993465122270645e-10  4.4125954885814023e-10 
 4.5288275563335116e-10  4.6481212932576834e-10  4.7705573469582442e-10  4.8962184893917610e-10 
 5.0251896728254501e-10  5.1575580872696339e-10  5.2934132194230770e-10  5.4328469131710337e-10 
 5.5759534316770061e-10  5.7228295211099379e-10  5.8735744760504633e-10  6.0282902066195703e-10 
 6.1870813073760778e-10  6.3500551280287144e-10  6.5173218460110621e-10  6.6889945409679589e-10 
 6.8651892712046012e-10  7.0460251521490459e-10  7.2316244368814878e-10  7.4221125987853865e-10 
 7.6176184163753698e-10  7.8182740603597247e-10  8.0242151829965721e-10  8.2355810098037489e-10 
 8.4525144336845456e-10  8.6751621115328033e-10  8.9036745633832284e-10  9.1382062741731876e-10 
 9.3789157981854755e-10  9.6259658662418501e-10  9.8795234957214146e-10  1.0139760103475799e-09 
 1.0406851621719778e-09  1.0680978616974807e-09  1.0962326412145123e-09  1.1251085211810455e-09 
 1.1547450230819010e-09  1.1851621826267950e-09  1.2163805632960706e-09  1.2484212702432610e-09 
 1.2813059645639066e-09  1.3150568779402545e-09  1.3496968276717010e-09  1.3852492321012890e-09 
 1.4217381264484945e-09  1.4591881790591358e-09  1.4976247080834067e-09  1.5370736985931960e-09 
 1.5775618201504006e-09  1.6191164448380145e-09  1.6617656657662811e-09  1.7055383160663003e-09 
 1.7504639883840470e-09  1.7965730548879487e-09  1.8438966878035254e-09  1.8924668804890246e-09 
 1.9423164690661985e-09  1.9934791546210931e-09  2.0459895259895534e-09  2.0998830831430659e-09 
 2.1551962611907390e-09  2.2119664550135052e-09  2.2702320445474489e-09  2.3300324207330513e-09 
 2.3914080121482837e-09  2.4544003123431566e-09  2.5190519078945465e-09  2.5854065072001012e-09 
 2.6535089700306698e-09  2.7234053378614636e-09  2.7951428650021570e-09  2.8687700505472832e-09 
 2.9443366711683124e-09  3.0218938147696392e-09  3.1014939150314750e-09  3.1831907868626177e-09 
 3.2670396627873878e-09  3.3530972302912914e-09  3.4414216701504597e-09  3.5320726957712383e-09 
 3.6251115935659301e-09  3.7206012643927071e-09  3.8186062660870362e-09  3.9191928571139589e-09 
 4.0224290413704067e-09  4.1283846141680488e-09  4.2371312094276750e-09  4.3487423481169237e-09 
 4.4632934879648994e-09  4.5808620744857295e-09  4.7015275933476386e-09  4.8253716241211015e-09 
 4.9524778954435513e-09  5.0829323416379434e-09  5.2168231608226586e-09  5.3542408745532246e-09 
 5.4952783890351345e-09  5.6400310579500365e-09  5.7885967469375518e-09  5.9410758997756168e-09 
 6.0975716063057742e-09  6.2581896721477234e-09  6.4230386902512635e-09  6.5922301143338184e-09 
 6.7658783342534219e-09  6.9441007533676821e-09  7.1270178679316997e-09  7.3147533485884647e-09 
 7.5074341240069966e-09  7.7051904667239977e-09  7.9081560812491726e-09  8.1164681944914189e-09 
 8.3302676485689470e-09  8.5496989960654580e-09  8.7749105977966411e-09  9.0060547231540515e-09 
 9.2432876530932985e-09  9.4867697858371180e-09  9.7366657453646386e-09  9.9931444927600557e-09 
 1.0256379440496802e-08  1.0526548569733930e-08  1.0803834550704594e-08  1.1088424866278151e-08 
 1.1380511938779522e-08  1.1680293260151888e-08  1.1987971525550756e-08  1.2303754770459774e-08 
 1.2627856511422168e-08  1.2960495890481475e-08  1.3301897823431877e-08  1.3652293151975614e-08 
 1.4011918799894093e-08  1.4381017933334858e-08  1.4759840125327125e-08  1.5148641524633666e-08 
 1.5547685029056079e-08  1.5957240463309985e-08  1.6377584761591009e-08  1.6809002154955826e-08 
 1.7251784363643591e-08  1.7706230794472135e-08  1.8172648743437132e-08  1.8651353603658107e-08 
 1.9142669078807017e-08  1.9646927402168196e-08  2.0164469561475309e-08  2.0695645529680954e-08 
 2.1240814501812813e-08  2.1800345138079040e-08  2.2374615813387611e-08  2.2964014873449110e-08 
 2.3568940897636447e-08  2.4189802968780295e-08  2.4827020950085336e-08  2.5481025769352326e-08 
 2.6152259710701815e-08  2.6841176713997074e-08  2.7548242682169459e-08  2.8273935796655955e-08 
 2.9018746841162901e-08  2.9783179533976456e-08  3.0567750869046042e-08  3.1372991466072401e-08 
 3.2199445929840823e-08  3.3047673219038436e-08  3.3918247024816116e-08  3.4811756159343649e-08 
 3.5728804954627750e-08  3.6670013671865274e-08  3.7636018921606899e-08  3.8627474095022900e-08 
 3.9645049806560238e-08  4.0689434348295991e-08  4.1761334156297232e-08  4.2861474289303072e-08 
 4.3990598920059599e-08  4.5149471839639406e-08  4.6338876975093386e-08  4.7559618920787191e-08 
 4.8812523483785083e-08  5.0098438243655992e-08  5.1418233127082950e-08  5.2772800997670433e-08 
 5.4163058261352240e-08  5.5589945487816997e-08  5.7054428048372761e-08  5.8557496770693811e-08 
 6.0100168610892843e-08  6.1683487343384712e-08  6.3308524269011214e-08  6.4976378941916142e-08 
 6.6688179915668433e-08  6.8445085509146997e-08  7.0248284592713587e-08  7.2098997395216790e-08 
 7.3998476332378314e-08  7.5948006857137979e-08  7.7948908332540069e-08  8.0002534927761972e-08 
 8.2110276537909141e-08  8.4273559728207201e-08  8.6493848703244761e-08  8.8772646301937159e-08 
 9.1111495018901656e-08  9.3511978052952936e-08  9.5975720383437696e-08  9.8504389875169120e-08 
 1.0109969841271332e-07  1.0376340306483232e-07  1.0649730727987804e-07  1.0930326211298233e-07 
 1.1218316748589144e-07  1.1513897348032960e-07  1.1817268166579126e-07  1.2128634646269006e-07 
 1.2448207654182768e-07  1.2776203626114913e-07  1.3112844714081228e-07  1.3458358937758926e-07 
 1.3812980339967989e-07  1.4176949146302557e-07  1.4550511929025777e-07  1.4933921775342986e-07 
 1.5327438460173254e-07  1.5731328623541820e-07  1.6145865952718978e-07  1.6571331369234752e-07 
 1.7008013220904551e-07  1.7456207479001093e-07  1.7916217940713913e-07  1.8388356437042989e-07 
 1.8872943046274939e-07  1.9370306313195944e-07  1.9880783474199405e-07  2.0404720688451705e-07 
 2.0942473275283975e-07  2.1494405957981816e-07  2.2060893114151417e-07  2.2642319032846150e-07 
 2.3239078178640263e-07  2.3851575462845742e-07  2.4480226522072274e-07  2.5125458004336207e-07 
 2.5787707862931659e-07  2.6467425658282821e-07  2.7165072868003158e-07  2.7881123205396205e-07 
 2.8616062946634550e-07  2.9370391266870625e-07  3.0144620585529267e-07  3.0939276921049571e-07 
 3.1754900255347665e-07  3.2592044908281953e-07  3.3451279922409457e-07  3.4333189458336475e-07 
 3.5238373200969511e-07  3.6167446776990894e-07  3.7121042183886288e-07  3.8099808230868974e-07 
 3.9104410992052641e-07  4.0135534272242522e-07  4.1193880085717454e-07  4.2280169148401865e-07 
 4.3395141383829128e-07  4.4539556443318065e-07  4.5714194240799648e-07  4.6919855502743364e-07 
 4.8157362333653064e-07  4.9427558797617311e-07  5.0731311516418847e-07  5.2069510284725621e-07 
 5.3443068702906652e-07  5.4852924828037577e-07  5.6300041843682705e-07  5.7785408749061409e-07 
 5.9310041068236613e-07  6.0874981579982490e-07  6.2481301069018649e-07  6.4130099099331098e-07 
 6.5822504810319574e-07  6.7559677736555485e-07  6.9342808651956019e-07  7.1173120439226817e-07 
 7.3051868985455181e-07  7.4980344104776926e-07  7.6959870489082960e-07  7.8991808687781880e-07 
 8.1077556117665550e-07  8.3218548103992374e-07  8.5416258953948401e-07  8.7672203063697204e-07 
 8.9987936060295536e-07  9.2365055979818207e-07  9.4805204483089726e-07  9.7310068110505059e-07 
 9.9881379577488886e-07  1.0252091911222725e-06  1.0523051583739387e-06  1.0801204919766963e-06 
 1.1086745043498199e-06  1.1379870411345644e-06  1.1680784969621435e-06  1.1989698317625046e-06 
 1.2306825876376332e-06  1.2632389063242767e-06  1.2966615472727340e-06  1.3309739063694042e-06 
 1.3662000353330336e-06  1.4023646618157935e-06  1.4394932102425622e-06  1.4776118234237283e-06 
 1.5167473849788149e-06  1.5569275426107404e-06  1.5981807322729153e-06  1.6405362032740350e-06 
 1.6840240443681769e-06  1.7286752108810465e-06  1.7745215529263103e-06  1.8215958447694426e-06 
 1.8699318154005892e-06  1.9195641803813760e-06  1.9705286750356202e-06  2.0228620890579783e-06 
 2.0766023026199818e-06  2.1317883240579498e-06  2.1884603292333257e-06  2.2466597026618929e-06 
 2.3064290805152435e-06  2.3678123956049829e-06  2.4308549244678233e-06  2.4956033366777116e-06 
 2.5621057465210137e-06  2.6304117671789504e-06  2.7005725675733161e-06  2.7726409320413350e-06 
 2.8466713230184599e-06  2.9227199469202252e-06  3.0008448234284159e-06  3.0811058584016028e-06 
 3.1635649206464101e-06  3.2482859228029858e-06  3.3353349066171908e-06  3.4247801328916226e-06 
 3.5166921764297550e-06  3.6111440263110007e-06  3.7082111918588571e-06  3.8079718146925988e-06 
 3.9105067872813380e-06  4.0158998784516335e-06  4.1242378663331035e-06  4.2356106792639279e-06 
 4.3501115452172402e-06  4.4678371503522625e-06  4.5888878073403570e-06  4.7133676341652771e-06 
 4.8413847441510510e-06  4.9730514480283256e-06  5.1084844689125394e-06  5.2478051711347445e-06 
 5.3911398039377023e-06  5.5386197611295264e-06  5.6903818578699836e-06  5.8465686258569789e-06 
 6.0073286282791797e-06  6.1728167960050610e-06  6.3431947865960021e-06  6.5186313678523774e-06 
 6.6993028277360781e-06  6.8853934126563341e-06  7.0770957962622956e-06  7.2746115810513617e-06 
 7.4781518352856074e-06  7.6879376679029745e-06  7.9042008443198394e-06  8.1271844462516700e-06 
 8.3571435789213536e-06  8.5943461292928802e-06  8.8390735792513255e-06  9.0916218779623268e-06 
 9.3523023779750720e-06  9.6214428399949240e-06  9.8993885116395158e-06  1.0186503285912708e-05 
 1.0483170945582509e-05  1.0789796500139434e-05  1.1106807622540018e-05  1.1434656193507301e-05 
 1.1773819961780229e-05  1.2124804329363019e-05  1.2488144271545519e-05  1.2864406402240100e-05 
 1.3254191196012456e-05  1.3658135379090622e-05  1.4076914502605533e-05  1.4511245712370244e-05 
 1.4961890730639478e-05  1.5429659066512358e-05  1.5915411472968510e-05  1.6420063669949147e-05 
 1.6944590354438165e-05  1.7490029520160618e-05  1.8057487111306915e-05  1.8648142036631986e-05 
 1.9263251572366219e-05  1.9904157184630811e-05  2.0572290804485827e-05  2.1269181591366262e-05 
 2.1996463223497115e-05  2.2755881756938174e-05  2.3549304098212209e-05  2.4378727139032609e-05 
 2.5246287605493388e-05  2.6154272678230897e-05  2.7105131444546493e-05  2.8101487248306366e-05 
 2.9146151008648923e-05  3.0242135584149281e-05  3.1392671265159540e-05  3.2601222483582943e-05 
 3.3871505836398086e-05  3.5207509526869702e-05  3.6613514335580308e-05  3.8094116242290179e-05 
 3.9654250829172506e-05  4.1299219606277694e-05  4.3034718411189358e-05  4.4866868046811088e-05 
 4.6802247334140111e-05  4.8847928770811089e-05  5.1011517001201083e-05  5.3301190320081252e-05 
 5.5725745449236301e-05  5.8294645845286141e-05  6.1018073817207356e-05  6.3906986753903164e-05 
 6.6973177785692659e-05  7.0229341228982388e-05  7.3689143190677243e-05  7.7367297738363444e-05 
 8.1279649073986933e-05  8.5443260182934932e-05  8.9876508467204747e-05  9.4599188910990902e-05 
 9.9632625369680354e-05  1.0499979061918570e-04  1.1072543585203111e-04  1.1683623035982828e-04 
 1.2336091219909784e-04  1.3033045069907738e-04  1.3777822173651800e-04  1.4574019677387508e-04 
 1.5425514673414123e-04  1.6336486186816293e-04  1.7311438885919648e-04  1.8355228650497395e-04 
 1.9473090142032052e-04  2.0670666531379770e-04  2.1954041551056416e-04  2.3329774052118521e-04 
 2.4804935259322200e-04  2.6387148932963014e-04  2.8084634661611067e-04  2.9906254526950143e-04 
 3.1861563400129142e-04  3.3960863148647946e-04  3.6215261053754535e-04  3.8636732760886482e-04 
 4.1238190109850242e-04  4.4033554217363626e-04  4.7037834212327624e-04  5.0267212054039495e-04 
 5.3739133895437208e-04  5.7472408487655282e-04  6.1487313158781556e-04  6.5805707938946601e-04 
 7.0451158445780215e-04  7.5449068189202984e-04  8.0826821002532396e-04  8.6613934358187989e-04 
 9.2842224381207354e-04  9.9545983432446539e-04  1.0676217119577878e-03  1.1453062027076163e-03 
 1.2289425734327594e-03  1.3189934108295215e-03  1.4159571799723892e-03  1.5203709755844232e-03 
 1.6328134801216736e-03  1.7539081437364583e-03  1.8843266022265596e-03  2.0247923501887336e-03 
 2.1760846877699972e-03  2.3390429606664964e-03  2.5145711143464491e-03  2.7036425848804627e-03 
 2.9073055502622904e-03  3.1266885676790616e-03  3.3630066238694101e-03  3.6175676274718127e-03 
 3.8917793741423201e-03  4.1871570171895037e-03  4.5053310785559573e-03  4.8480560371698435e-03 
 5.2172195339930134e-03  5.6148522355147770e-03  6.0431383999889334e-03  6.5044271933662502e-03 
 7.0012448046786625e-03  7.5363074135321468e-03  8.1125350654187196e-03  8.7330665137183849e-03 
 9.4012750905569202e-03  1.0120785672104457e-02  1.0895492807433918e-02  1.1729580083701134e-02 
 1.2627540804192303e-02  1.3594200059611948e-02  1.4634738276966481e-02  1.5754716334415480e-02 
 1.6960102334550919e-02  1.8257300132720672e-02  1.9653179721165114e-02  2.1155109573905657e-02 
 2.2770991061465712e-02  2.4509295048576907e-02  2.6379100792009297e-02  2.8390137259508525e-02 
 3.0552826994460953e-02  3.2878332654339718e-02  3.5378606354080466e-02  3.8066441948258964e-02 
 4.0955530388263578e-02  4.4060518292363675e-02  4.7397069867732976e-02  5.0981932323862708e-02 
 5.4833004916347641e-02  5.8969411758597406e-02  6.3411578536476831e-02  6.8181313257071302e-02 
 7.3301891157551549e-02  7.8798143893225134e-02  8.4696553115278100e-02  9.1025348537950468e-02 
 9.7814610582090886e-02  1.0509637766656785e-01  1.1290475820090397e-01  1.2127604731137850e-01 
 1.3024884830832276e-01  1.3986419887426882e-01  1.5016570192051226e-01  1.6119966102331876e-01 
 1.7301522030988548e-01  1.8566450861812905e-01  1.9920278770272271e-01  2.1368860420242905e-01 
 2.2918394502001785e-01  2.4575439569561836e-01  2.6346930127675328e-01  2.8240192910309087e-01 
 3.0262963283075883e-01  3.2423401691924503e-01  3.4730110069348008e-01  3.7192148097360878e-01 
 3.9819049213548485e-01  4.2620836232532550e-01  4.5608036440190342e-01  4.8791696001923268e-01 
 5.2183393509129972e-01  5.5795252469824252e-01  5.9639952530014417e-01  6.3730739192077490e-01 
 6.8081431774892542e-01  7.2706429338020095e-01  7.7620714268762470e-01  8.2839853206579450e-01 
 8.8379994954189445e-01  9.4257864998844543e-01  1.0049075624091008e+00  1.0709651550016437e+00 
 1.1409352534343160e+00  1.2150068075044307e+00  1.2933736010864338e+00  1.3762339000223938e+00 
 1.4637900323667552e+00  1.5562478951733341e+00  1.6538163818121405e+00  1.7567067236328897e+00 
 1.8651317396587372e+00  1.9793049879061373e+00  2.0994398118942681e+00  2.2257482759411373e+00 
 2.3584399829546792e+00  2.4977207686298044e+00  2.6437912662700418e+00  2.7968453368818524e+00 
 2.9570683597576606e+00  3.1246353794880752e+00  3.2997091062457709e+00  3.4824377672809028e+00 
 3.6729528088850407e+00  3.8713664496359099e+00  4.0777690875516104e+00  4.2922265658798837e+00 
 4.5147773046438431e+00  4.7454293077764031e+00  4.9841570587128459e+00  5.2308983206813755e+00 
 5.4855508616349695e+00  5.7479691277954554e+00  6.0179608941135978e+00  6.2952839245559655e+00 
 6.5796426799646817e+00  6.8706851162380520e+00  7.1679996206691801e+00  7.4711121393560589e+00 
 7.7794835535419740e+00  8.0925073674162515e+00  8.4095077741446431e+00  8.7297381705226833e+00 
 9.0523801934597614e+00  9.3765433532962099e+00  9.7012653395160786e+00  1.0025513073529083e+01 
 1.0348184580650916e+01  1.0668111749027684e+01  1.0984064036872446e+01  1.1294753180901793e+01 
 1.1598838948223587e+01  1.1894935961149915e+01  1.2181621609585678e+01  1.2457445048953293e+01 
 1.2720937263327670e+01  1.2970622153928872e+01  1.3205028592791241e+01  1.3422703360791843e+01 
 1.3622224868822835e+01  1.3802217541273532e+01  1.3961366722671622e+01  1.4098433951764431e+01 
 1.4212272432834283e+01  1.4301842521813331e+01  1.4366227034780941e+01  1.4404646178468376e+01 
 1.4416471896032448e+01  1.4401241415979449e+01  1.4358669786988099e+01  1.4288661175729603e+01 
 1.4191318697943842e+01  1.4066952544587480e+01  1.3916086154837295e+01  1.3739460176739867e+01 
 1.3538033945752295e+01  1.3312984203622360e+01  1.3065700778243681e+01  1.2797778953389436e+01 
 1.2511008280309568e+01  1.2207357626058499e+01  1.1888956320785802e+01  1.1558071361734466e+01 
 1.1217080757179666e+01  1.0868443248152222e+01  1.0514664825241720e+01  1.0158262653822748e+01 
 9.8017272213576803e+00  9.4474837089445280e+00  9.0978537472211336e+00  8.7550188242394107e+00 
 8.4209866512273752e+00  8.0975617461824303e+00  7.7863213562189983e+00  7.4885976074037188e+00 
 7.2054664555457677e+00  6.9377436338824605e+00  6.6859873844261379e+00  6.4505073569799105e+00 
 6.2313787052467982e+00  6.0284601437166767e+00  5.8414145863089262e+00  5.6697309904408151e+00 
 5.5127461841772112e+00  5.3696657456460306e+00  5.2395833986514155e+00  5.1214988335576841e+00 
 5.0143342923331851e+00  4.9169506016856053e+00  4.8281635371312648e+00  4.7467614127320807e+00 
 4.6715246054047430e+00  4.6012473621007706e+00  4.5347617540214245e+00  4.4709631001270491e+00 
 4.4088356450111590e+00  4.3474767893649791e+00  4.2861177631027427e+00  4.2241383300657187e+00 
 4.1610729769968255e+00  4.0966061805096992e+00  4.0305549262778859e+00  3.9628576842300784e+00 
 3.8935728435042751e+00  3.8227478279840463e+00  3.7503664065088587e+00  3.6763674394590087e+00 
 3.6007957732092959e+00  3.5237411943484149e+00  3.4453050213711114e+00  3.3655988576061926e+00 
 3.2847433377741941e+00  3.2028668780238325e+00  3.1201044387026280e+00  3.0365963084603407e+00 
 2.9524869175138466e+00  2.8679236875444056e+00  2.7830559239009034e+00  2.6980337564063146e+00 
 2.6130071331758251e+00  2.5281248715079307e+00  2.4435337690658079e+00  2.3593777778217837e+00 
 2.2757972425237747e+00  2.1929282047773340e+00  2.1109017732182309e+00  2.0298435596881794e+00 
 1.9498731808233685e+00  1.8711038240250661e+00  1.7936418764053690e+00  1.7175866149889958e+00 
 1.6430299562021422e+00  1.5700562624882388e+00  1.4987422037524771e+00  1.4291566712450507e+00 
 1.3613607414386222e+00  1.2954076874280107e+00  1.2313430353688215e+00  1.1692046634686886e+00 
 1.1090229409576293e+00  1.0508209048865589e+00  9.9461447147335580e-01  9.4041267987460941e-01 
 8.8821796626024996e-01  8.3802646359089472e-01  7.8982832592343344e-01  7.4360807328418199e-01 
 6.9934495403904851e-01  6.5701332141235469e-01  6.1658302071033466e-01  5.7801978374867791e-01 
 5.4128562697286020e-01  5.0633924980068989e-01  4.7313642981245685e-01  4.4163041156546440e-01 
 4.1177228601376636e-01  3.8351135776600520e-01  3.5679549770648983e-01  3.3157147882848054e-01 
 3.0778529347433942e-01  2.8538245053768035e-01  2.6430825154126808e-01  2.4450804486075237e-01 
 2.2592745770855296e-01  2.0851260581268305e-01  1.9221028101262427e-01  1.7696811727693046e-01 
 1.6273473587081233e-01  1.4945987059010538e-01  1.3709447415697987e-01  1.2559080701051323e-01 
 1.1490250977200954e-01  1.0498466076265425e-01  9.5793819989355405e-02  8.7288060955805630e-02 
 7.9426991660992666e-02  7.2171766116628858e-02  6.5485087586366855e-02  5.9331204672846395e-02 
 5.3675901336743798e-02  4.8486481714013284e-02  4.3731750579914512e-02  3.9381990142940533e-02 
 3.5408933755993813e-02  3.1785737035053448e-02  2.8486946778880768e-02  2.5488468006160236e-02 
 2.2767529359775860e-02  2.0302647074764080e-02  1.8073587667081198e-02  1.6061329471313817e-02 
 1.4248023140354258e-02  1.2616951210388841e-02  1.1152486835829055e-02  9.8400518018635624e-03 
 8.6660739350781658e-03  7.6179440371940584e-03  6.6839724852589839e-03  5.8533456464703228e-03 
 5.1160822679481724e-03  4.4629900068959109e-03  3.8856222702629687e-03  3.3762355334577953e-03 
 2.9277473046643203e-03  2.5336948955463046e-03  2.1881951503679399e-03  1.8859052744380170e-03 
 1.6219848896299482e-03  1.3920594299524796e-03  1.1921849742471536e-03  1.0188145964897502e-03 
 8.6876629728475832e-04  7.3919256335687987e-04  6.2755158548745535e-04  5.3158014970561263e-04 
 4.4926820185850383e-04  3.7883507213619134e-04  3.1870733385074511e-04  2.6749825985619198e-04 
 2.2398883049548030e-04  1.8711023888534644e-04  1.5592783268103040e-04  1.2962642615476944e-04 
 1.0749691240811532e-04  8.8924102734190896e-05  7.3375718455940650e-05  6.0392459885039332e-05 
 4.9579077263599741e-05  4.0596369555275286e-05  3.3154038632718113e-05  2.7004328656522374e-05 
 2.1936383153378526e-05  1.7771255380988468e-05  1.4357510924285212e-05  1.1567365019519550e-05 
 9.2933007759935946e-06  7.4451181942754092e-06  5.9473676077504110e-06  4.7371248527297620e-06 
 3.7620690603035304e-06  2.9788274274619038e-06  2.3515546393225310e-06  1.8507177586018277e-06 
 1.4520603583897548e-06  1.1357224405779556e-06  8.8549525007794192e-07  6.8819246319776833e-07 
 5.3312139936146384e-07  4.1163988353914457e-07  3.1678617921498774e-07  2.4297102700924566e-07 
 1.8572227196694521e-07  1.4147385365292437e-07  1.0739207868877877e-07  8.1233106603892018e-08 
 6.1226468219219497e-08  4.5980212407010727e-08  3.4403952785839475e-08  2.5646671052500398e-08 
 1.9046637987496906e-08  1.4091245834176118e-08  1.0384915208462494e-08  7.6235537231016682e-09 
 5.5743091932825937e-09  4.0595840368444527e-09  2.9444650435749486e-09  2.1268791913429028e-09 
 1.5299161714539065e-09  1.0958657448260597e-09  7.8160647469300336e-10  5.5505480253204322e-10 
 3.9244246962046656e-10  2.7623818383119281e-10  1.9356810697932856e-10  1.3502081831507473e-10 
 9.3747266033399910e-11  6.4786000899662748e-11  4.4559653077934714e-11  3.0500960029315723e-11 
 2.0776334995513000e-11  1.4082519238338109e-11  9.4977259069709517e-12  6.3732108425214263e-12 
 4.2546842459737947e-12  2.8256443824859964e-12  1.8667219414995914e-12  1.2266522724555164e-12 
 8.0170710260927719e-13  5.2110872721382437e-13  3.3684515779271654e-13  2.1651584402106755e-13 
 1.3838030903535410e-13  8.7932930148156787e-14  5.5550553225770005e-14  3.4886014240550494e-14 
 2.1777424429418649e-14  1.3511995754553267e-14  8.3321192765312172e-15  5.1059805736702393e-15 
 3.1092438159463528e-15  1.8812482421358960e-15  1.1308797492675519e-15  6.7534943125057441e-16 
 4.0063118090416638e-16  2.3606242386933714e-16  1.3814532364790906e-16  8.0284833263682388e-17 
 4.6331793122689725e-17  2.6548060352766168e-17  1.5102666597851787e-17  8.5290406174961350e-18 
 4.7811478630118251e-18  2.6601445618395514e-18  1.4688185151838155e-18  8.0483949755392974e-19 
 4.3761321145707437e-19  2.3594884910841581e-19  1.2625455473406215e-19  6.7200415564548033e-20 
 3.5113877509316581e-20  1.8809013750031892e-20  9.4960793096858290e-21  4.8548962640941668e-21 
 2.9728925677037643e-21  8.4500113308823720e-22  1.1401996535291989e-21  5.6574307750140950e-22 
 2.7814743577692204e-22  1.3548656422829663e-22  0.0000000000000000e+00  0.0000000000000000e+00 
 0.0000000000000000e+00  0.0000000000000000e+00  0.0000000000000000e+00  0.0000000000000000e+00 
 0.0000000000000000e+00  0.0000000000000000e+00  0.0000000000000000e+00  0.0000000000000000e+00 
 0.0000000000000000e+00  0.0000000000000000e+00  0.0000000000000000e+00  0.0000000000000000e+00 
 0.0000000000000000e+00  0.0000000000000000e+00  0.0000000000000000e+00  0.0000000000000000e+00 
 0.0000000000000000e+00  0.0000000000000000e+00  0.0000000000000000e+00  0.0000000000000000e+00 
 0.0000000000000000e+00  0.0000000000000000e+00  0.0000000000000000e+00  0.0000000000000000e+00 
 0.0000000000000000e+00  0.0000000000000000e+00  0.0000000000000000e+00  0.0000000000000000e+00 
 0.0000000000000000e+00  0.0000000000000000e+00  0.0000000000000000e+00  0.0000000000000000e+00 
 0.0000000000000000e+00  0.0000000000000000e+00  0.0000000000000000e+00  0.0000000000000000e+00 
 0.0000000000000000e+00  0.0000000000000000e+00  0.0000000000000000e+00  0.0000000000000000e+00 
 0.0000000000000000e+00  0.0000000000000000e+00  0.0000000000000000e+00  0.0000000000000000e+00 
 0.0000000000000000e+00  0.0000000000000000e+00  0.0000000000000000e+00  0.0000000000000000e+00 
 0.0000000000000000e+00  0.0000000000000000e+00  0.0000000000000000e+00  0.0000000000000000e+00 
 0.0000000000000000e+00  0.0000000000000000e+00  0.0000000000000000e+00  0.0000000000000000e+00 
 0.0000000000000000e+00  0.0000000000000000e+00  0.0000000000000000e+00  0.0000000000000000e+00 
 0.0000000000000000e+00  0.0000000000000000e+00  0.0000000000000000e+00  0.0000000000000000e+00 
 0.0000000000000000e+00  0.0000000000000000e+00  0.0000000000000000e+00  0.0000000000000000e+00 
 0.0000000000000000e+00  0.0000000000000000e+00  0.0000000000000000e+00  0.0000000000000000e+00 
 0.0000000000000000e+00  0.0000000000000000e+00  0.0000000000000000e+00  0.0000000000000000e+00 
 0.0000000000000000e+00  0.0000000000000000e+00  0.0000000000000000e+00  0.0000000000000000e+00 
 0.0000000000000000e+00  0.0000000000000000e+00 
</PP_RHOATOM>


<PP_ADDINFO>
 1S  1  0   0.50  2.00 
 2P  2  1   0.50  1.67 
 2P  2  1   1.50  3.33 
 3D  3  2   1.50  4.00 
 3D  3  2   2.50  6.00 
  1   0.50 
  1   1.50 
  2   1.50 
  2   2.50 
 -6.56347910,  117.59293889,   53.00000000,    0.01300000 
</PP_ADDINFO>
