  <PP_INFO>

############################################################
#    Opium Parameter File                                  #
############################################################
#-----------------------------------------------------------
#Command line   : opium n_srl_gga log all rpt upf 
 
#Opium version  : 3.6 
#Compile Host   : whoville2.chem.upenn.edu 
#Compile OS     : Linux 2.6.18-92.1.13.el5 x86_64 
#Compile Date   : Wed Jan 19 10:47:14 EST 2011 
#-----------------------------------------------------------
#Execution Host : whoville2.chem.upenn.edu 
#Execution Date : Thu Sep 29 14:42:18 2011
 
#-----------------------------------------------------------
############################################################
[Atom]
N  
3
100   2.00   -
200   2.00   -
210   3.00   -

[Pseudo]
2  1.35 1.54
opt

[Optinfo]
7.07  10
7.07  10
conmax

[Configs]
2
#
200  2.00  -
210  3.20  -
#
200  2.00  -
210  3.40  -

[Relativity]
srl

[XC]
gga
############################################################
  </PP_INFO>



<PP_HEADER>
   0         Version Number
   N        Element
   NC        Norm - Conserving pseudopotential
    F      Nonlinear Core Correction
SLA  PW   PBE  PBE     PBE  Exchange-Correlation functional
 5          Z valence
 0          Total energy
 0.000000   0.000000     Suggested cutoff for wfc and rho
 1           Max angular momentum component
 1126           Number of points in mesh
 2  1     Number of Wavefuncitons, Number of Projectors
 Wavefunctions         nl  l   occ
                       S  0  2.000000
                       P  1  3.000000
</PP_HEADER>
<PP_MESH>
  <PP_R>
 5.2275795857471007e-05  5.2959817712394479e-05  5.3652789902560828e-05  5.4354829541919533e-05 
 5.5066055276840584e-05  5.5786587306166012e-05  5.6516547401523597e-05  5.7256058927906895e-05 
 5.8005246864523965e-05  5.8764237825919238e-05  5.9533160083371669e-05  6.0312143586572870e-05 
 6.1101319985588926e-05  6.1900822653109601e-05  6.2710786706988685e-05  6.3531349033078900e-05 
 6.4362648308366468e-05  6.5204825024407483e-05  6.6058021511071417e-05  6.6922381960595199e-05 
 6.7798052451952060e-05  6.8685180975539226e-05  6.9583917458188632e-05  7.0494413788505013e-05 
 7.1416823842535067e-05  7.2351303509773492e-05  7.3298010719508182e-05  7.4257105467510814e-05 
 7.5228749843076539e-05  7.6213108056417462e-05  7.7210346466414451e-05  7.8220633608732396e-05 
 7.9244140224302956e-05  8.0281039288180076e-05  8.1331506038773518e-05  8.2395718007464411e-05 
 8.3473855048608298e-05  8.4566099369931259e-05  8.5672635563323245e-05  8.6793650636034572e-05 
 8.7929334042280685e-05  8.9079877715260368e-05  9.0245476099592572e-05  9.1426326184178560e-05 
 9.2622627535493169e-05  9.3834582331312087e-05  9.5062395394880390e-05  9.6306274229528119e-05 
 9.7566429053738915e-05  9.8843072836677406e-05  1.0013642133418123e-04  1.0144669312522498e-04 
 1.0277410964885979e-04  1.0411889524163760e-04  1.0548127717552426e-04  1.0686148569630928e-04 
 1.0825975406251761e-04  1.0967631858483120e-04  1.1111141866602588e-04  1.1256529684143115e-04 
 1.1403819881991879e-04  1.1553037352542897e-04  1.1704207313903840e-04  1.1857355314157979e-04 
 1.2012507235681864e-04  1.2169689299519506e-04  1.2328928069813805e-04  1.2490250458295957e-04 
 1.2653683728833554e-04  1.2819255502038315e-04  1.2986993759933990e-04  1.3156926850685393e-04 
 1.3329083493389323e-04  1.3503492782928142e-04  1.3680184194886895e-04  1.3859187590534747e-04 
 1.4040533221871607e-04  1.4224251736740789e-04  1.4410374184008591e-04  1.4598932018811556e-04 
 1.4789957107872579e-04  1.4983481734886359e-04  1.5179538605975465e-04  1.5378160855217756e-04 
 1.5579382050246086e-04  1.5783236197921359e-04  1.5989757750079698e-04  1.6198981609354970e-04 
 1.6410943135077366e-04  1.6625678149249224e-04  1.6843222942599024e-04  1.7063614280714623e-04 
 1.7286889410256720e-04  1.7513086065253618e-04  1.7742242473478383e-04  1.7974397362909418e-04 
 1.8209589968275604e-04  1.8447860037686998e-04  1.8689247839352455e-04  1.8933794168384980e-04 
 1.9181540353696222e-04  1.9432528264981164e-04  1.9686800319794186e-04  1.9944399490717752e-04 
 2.0205369312624843e-04  2.0469753890036492e-04  2.0737597904575553e-04  2.1008946622517983e-04 
 2.1283845902442941e-04  2.1562342202983018e-04  2.1844482590675863e-04  2.2130314747918515e-04 
 2.2419886981025857e-04  2.2713248228394488e-04  2.3010448068773467e-04  2.3311536729643144e-04 
 2.3616565095703839e-04  2.3925584717475424e-04  2.4238647820009460e-04  2.4555807311715409e-04 
 2.4877116793302237e-04  2.5202630566837102e-04  2.5532403644922431e-04  2.5866491759993346e-04 
 2.6204951373736459e-04  2.6547839686632033e-04  2.6895214647621097e-04  2.7247134963898810e-04 
 2.7603660110836237e-04  2.7964850342031787e-04  2.8330766699494192e-04  2.8701471023958762e-04 
 2.9077025965338688e-04  2.9457494993312871e-04  2.9842942408052608e-04  3.0233433351088397e-04 
 3.0629033816319013e-04  3.1029810661164657e-04  3.1435831617865985e-04  3.1847165304931083e-04 
 3.2263881238732027e-04  3.2686049845253456e-04  3.3113742471994710e-04  3.3547031400027634e-04 
 3.3985989856212350e-04  3.4430692025572699e-04  3.4881213063833754e-04  3.5337629110123256e-04 
 3.5800017299839353e-04  3.6268455777686614e-04  3.6743023710882782e-04  3.7223801302537992e-04 
 3.7710869805209591e-04  3.8204311534633788e-04  3.8704209883637304e-04  3.9210649336230937e-04 
 3.9723715481887505e-04  4.0243495030006798e-04  4.0770075824569577e-04  4.1303546858983427e-04 
 4.1843998291122891e-04  4.2391521458566301e-04  4.2946208894032139e-04  4.3508154341017193e-04 
 4.4077452769639510e-04  4.4654200392688499e-04  4.5238494681885158e-04  4.5830434384355051e-04 
 4.6430119539316760e-04  4.7037651494988845e-04  4.7653132925717706e-04  4.8276667849330064e-04 
 4.8908361644712107e-04  4.9548321069618783e-04  5.0196654278715969e-04  5.0853470841859163e-04 
 5.1518881762610807e-04  5.2192999497000262e-04  5.2875937972529099e-04  5.3567812607425123e-04 
 5.4268740330148393e-04  5.4978839599152305e-04  5.5698230422903425e-04  5.6427034380163198e-04 
 5.7165374640535005e-04  5.7913375985280222e-04  5.8671164828406365e-04  5.9438869238031601e-04 
 6.0216618958028290e-04  6.1004545429950235e-04  6.1802781815246586e-04  6.2611463017766351e-04 
 6.3430725706557420e-04  6.4260708338964156e-04  6.5101551184026875e-04  6.5953396346187692e-04 
 6.6816387789306482e-04  6.7690671360991130e-04  6.8576394817246116e-04  6.9473707847443676e-04 
 7.0382762099621611e-04  7.1303711206112147e-04  7.2236710809506254e-04  7.3181918588957531e-04 
 7.4139494286830376e-04  7.5109599735696949e-04  7.6092398885686883e-04  7.7088057832195786e-04 
 7.8096744843955364e-04  7.9118630391471461e-04  8.0153887175833595e-04  8.1202690157902474e-04 
 8.2265216587878304e-04  8.3341646035256674e-04  8.4432160419176149e-04  8.5536944039163183e-04 
 8.6656183606279046e-04  8.7790068274674470e-04  8.8938789673557170e-04  9.0102541939577621e-04 
 9.1281521749638633e-04  9.2475928354134160e-04  9.3685963610623221e-04  9.4911832017944198e-04 
 9.6153740750775491e-04  9.7411899694648842e-04  9.8686521481420350e-04  9.9977821525205771e-04 
 1.0128601805878576e-03  1.0261133217048821e-03  1.0395398784155234e-03  1.0531421198398225e-03 
 1.0669223447889551e-03  1.0808828821537346e-03  1.0950260912982045e-03  1.1093543624583716e-03 
 1.1238701171461651e-03  1.1385758085586757e-03  1.1534739219927533e-03  1.1685669752650272e-03 
 1.1838575191374233e-03  1.1993481377482501e-03  1.2150414490489200e-03  1.2309401052463954e-03 
 1.2470467932514135e-03  1.2633642351325847e-03  1.2798951885764213e-03  1.2966424473534015e-03 
 1.3136088417901193e-03  1.3307972392476149e-03  1.3482105446059704e-03  1.3658517007552353e-03 
 1.3837236890927873e-03  1.4018295300271923e-03  1.4201722834886615e-03  1.4387550494461877e-03 
 1.4575809684314466e-03  1.4766532220695540e-03  1.4959750336167687e-03  1.5155496685052314e-03 
 1.5353804348948246e-03  1.5554706842322698e-03  1.5758238118175204e-03  1.5964432573775825e-03 
 1.6173325056478300e-03  1.6384950869609393e-03  1.6599345778435220e-03  1.6816546016205655e-03 
 1.7036588290277831e-03  1.7259509788319788e-03  1.7485348184595282e-03  1.7714141646330791e-03 
 1.7945928840165898e-03  1.8180748938688041e-03  1.8418641627052765e-03  1.8659647109690604e-03 
 1.8903806117101750e-03  1.9151159912739592e-03  1.9401750299984281e-03  1.9655619629207715e-03 
 1.9912810804930754e-03  2.0173367293074263e-03  2.0437333128304849e-03  2.0704752921476949e-03 
 2.0975671867172097e-03  2.1250135751336918e-03  2.1528190959021099e-03  2.1809884482216534e-03 
 2.2095263927799087e-03  2.2384377525574315e-03  2.2677274136428350e-03  2.2974003260585541e-03 
 2.3274615045974123e-03  2.3579160296701316e-03  2.3887690481639327e-03  2.4200257743123774e-03 
 2.4516914905765735e-03  2.4837715485379404e-03  2.5162713698026269e-03  2.5491964469177815e-03 
 2.5825523442997976e-03  2.6163446991747242e-03  2.6505792225309638e-03  2.6852617000844479e-03 
 2.7203979932564301e-03  2.7559940401640807e-03  2.7920558566240515e-03  2.8285895371691554e-03 
 2.8656012560783575e-03  2.9030972684202442e-03  2.9410839111101506e-03  2.9795676039810945e-03 
 3.0185548508687718e-03  3.0580522407106978e-03  3.0980664486597647e-03  3.1386042372123515e-03 
 3.1796724573512104e-03  3.2212780497032890e-03  3.2634280457127210e-03  3.3061295688291562e-03 
 3.3493898357116283e-03  3.3932161574482078e-03  3.4376159407915781e-03  3.4825966894108007e-03 
 3.5281660051594520e-03  3.5743315893603501e-03  3.6211012441071063e-03  3.6684828735826869e-03 
 3.7164844853952508e-03  3.7651141919314355e-03  3.8143802117273930e-03  3.8642908708577269e-03 
 3.9148546043426217e-03  3.9660799575733817e-03  4.0179755877566264e-03  4.0705502653773738e-03 
 4.1238128756812716e-03  4.1777724201762382e-03  4.2324380181537119e-03  4.2878189082298668e-03 
 4.3439244499069362e-03  4.4007641251549998e-03  4.4583475400144590e-03  4.5166844262194790e-03 
 4.5757846428426752e-03  4.6356581779613245e-03  4.6963151503453667e-03  4.7577658111674975e-03 
 4.8200205457356584e-03  4.8830898752481641e-03  4.9469844585718122e-03  5.0117150940432609e-03 
 5.0772927212939705e-03  5.1437284230990265e-03  5.2110334272501575e-03  5.2792191084532602e-03 
 5.3482969902507406e-03  5.4182787469690390e-03  5.4891762056916002e-03  5.5610013482576956e-03 
 5.6337663132873675e-03  5.7074833982328913e-03  5.7821650614570813e-03  5.8578239243387694e-03 
 5.9344727734058633e-03  6.0121245624962776e-03  6.0907924149471906e-03  6.1704896258129071e-03 
 6.2512296641117461e-03  6.3330261751023530e-03  6.4158929825897659e-03  6.4998440912616825e-03 
 6.5848936890552804e-03  6.6710561495550184e-03  6.7583460344217850e-03  6.8467780958538851e-03 
 6.9363672790801788e-03  7.0271287248858619e-03  7.1190777721712988e-03  7.2122299605443252e-03 
 7.3066010329464887e-03  7.4022069383136357e-03  7.4990638342713354e-03  7.5971880898655182e-03 
 7.6965962883289284e-03  7.7973052298837111e-03  7.8993319345806844e-03  8.0026936451757773e-03 
 8.1074078300440895e-03  8.2134921861320934e-03  8.3209646419484581e-03  8.4298433605940228e-03 
 8.5401467428313643e-03  8.6518934301946151e-03  8.7651023081399167e-03  8.8797925092370840e-03 
 8.9959834164030777e-03  9.1136946661777539e-03  9.2329461520424903e-03  9.3537580277822246e-03 
 9.4761507108915132e-03  9.6001448860250898e-03  9.7257615084936772e-03  9.8530218078054510e-03 
 9.9819472912538905e-03  1.0112559747552555e-02  1.0244881250517425e-02  1.0378934162797438e-02 
 1.0514741139653836e-02  1.0652325132788940e-02  1.0791709394225043e-02  1.0932917480234087e-02 
 1.1075973255318686e-02  1.1220900896245323e-02  1.1367724896130258e-02  1.1516470068578921e-02 
 1.1667161551879487e-02  1.1819824813251296e-02  1.1974485653148877e-02  1.2131170209622266e-02 
 1.2289904962734443e-02  1.2450716739036482e-02  1.2613632716101329e-02  1.2778680427116865e-02 
 1.2945887765539076e-02  1.3115282989806128e-02  1.3286894728114101e-02  1.3460751983255234e-02 
 1.3636884137519416e-02  1.3815320957659938e-02  1.3996092599924112e-02  1.4179229615149724e-02 
 1.4364762953928233e-02  1.4552723971835482e-02  1.4743144434730864e-02  1.4936056524125824e-02 
 1.5131492842622635e-02  1.5329486419424252e-02  1.5530070715916413e-02  1.5733279631322632e-02 
 1.5939147508433275e-02  1.6147709139409556e-02  1.6358999771663506e-02  1.6573055113814867e-02 
 1.6789911341725944e-02  1.7009605104615400e-02  1.7232173531252018e-02  1.7457654236229664e-02 
 1.7686085326324135e-02  1.7917505406933355e-02  1.8151953588601742e-02  1.8389469493630000e-02 
 1.8630093262771406e-02  1.8873865562015642e-02  1.9120827589461507e-02  1.9371021082279383e-02 
 1.9624488323765073e-02  1.9881272150485661e-02  2.0141415959519033e-02  2.0404963715788076e-02 
 2.0671959959490886e-02  2.0942449813628108e-02  2.1216478991628891e-02  2.1494093805076546e-02 
 2.1775341171535272e-02  2.2060268622479395e-02  2.2348924311326294e-02  2.2641357021574413e-02 
 2.2937616175047797e-02  2.3237751840248511e-02  2.3541814740818318e-02  2.3849856264111121e-02 
 2.4161928469877549e-02  2.4478084099063085e-02  2.4798376582721583e-02  2.5122860051045089e-02 
 2.5451589342512064e-02  2.5784620013155159e-02  2.6122008345950375e-02  2.6463811360328958e-02 
 2.6810086821813874e-02  2.7160893251782298e-02  2.7516289937355800e-02  2.7876336941420148e-02 
 2.8241095112775977e-02  2.8610626096422401e-02  2.8984992343975186e-02  2.9364257124221176e-02 
 2.9748484533810939e-02  3.0137739508091187e-02  3.0532087832079068e-02  3.0931596151579858e-02 
 3.1336331984450461e-02  3.1746363732009938e-02  3.2161760690599540e-02  3.2582593063293953e-02 
 3.3008931971765791e-02  3.3440849468305313e-02  3.3878418547997426e-02  3.4321713161058094e-02 
 3.4770808225331948e-02  3.5225779638953778e-02  3.5686704293175352e-02  3.6153660085360285e-02 
 3.6626725932148843e-02  3.7105981782795082e-02  3.7591508632678454e-02  3.8083388536992176e-02 
 3.8581704624610823e-02  3.9086541112139182e-02  3.9597983318145243e-02  4.0116117677579111e-02 
 4.0641031756380723e-02  4.1172814266278758e-02  4.1711555079783073e-02  4.2257345245373397e-02 
 4.2810277002886761e-02  4.3370443799106262e-02  4.3937940303553621e-02  4.4512862424488819e-02 
 4.5095307325118690e-02  4.5685373440017697e-02  4.6283160491763675e-02  4.6888769507791160e-02 
 4.7502302837465260e-02  4.8123864169378971e-02  4.8753558548876808e-02  4.9391492395807549e-02 
 5.0037773522509710e-02  5.0692511152031924e-02  5.1355815936591893e-02  5.2027799976276969e-02 
 5.2708576837989227e-02  5.3398261574638617e-02  5.4096970744587171e-02  5.4804822431347593e-02 
 5.5521936263539670e-02  5.6248433435107860e-02  5.6984436725803299e-02  5.7730070521933859e-02 
 5.8485460837385803e-02  5.9250735334920292e-02  6.0026023347748869e-02  6.0811455901390976e-02 
 6.1607165735817607e-02  6.2413287327884544e-02  6.3229956914059568e-02  6.4057312513446471e-02 
 6.4895493951110758e-02  6.5744642881710336e-02  6.6604902813435535e-02  6.7476419132262308e-02 
 6.8359339126522839e-02  6.9253812011797658e-02  7.0159988956133193e-02  7.1078023105589860e-02 
 7.2008069610123945e-02  7.2950285649808322e-02  7.3904830461396245e-02  7.4871865365232784e-02 
 7.5851553792518359e-02  7.6844061312928869e-02  7.7849555662597644e-02  7.8868206772462826e-02 
 7.9900186796986475e-02  8.0945670143249007e-02  8.2004833500424285e-02  8.3077855869640546e-02 
 8.4164918594232127e-02  8.5266205390386790e-02  8.6381902378194236e-02  8.7512198113100959e-02 
 8.8657283617776222e-02  8.9817352414395799e-02  9.0992600557347383e-02  9.2183226666364360e-02 
 9.3389431960092972e-02  9.4611420290098697e-02  9.5849398175317763e-02  9.7103574836959333e-02 
 9.8374162233864332e-02  9.9661375098326802e-02  1.0096543097238456e-01  1.0228655024458418e-01 
 1.0362495618722700e-01  1.0498087499410289e-01  1.0635453581871743e-01  1.0774617081301940e-01 
 1.0915601516663510e-01  1.1058430714661591e-01  1.1203128813770577e-01  1.1349720268313621e-01 
 1.1498229852595440e-01  1.1648682665089249e-01  1.1801104132678449e-01  1.1955520014953838e-01 
 1.2111956408567053e-01  1.2270439751640942e-01  1.2430996828237703e-01  1.2593654772885401e-01 
 1.2758441075163832e-01  1.2925383584350292e-01  1.3094510514126170e-01  1.3265850447345134e-01 
 1.3439432340863711e-01  1.3615285530435040e-01  1.3793439735666707e-01  1.3973925065043438e-01 
 1.4156772021015443e-01  1.4342011505153487e-01  1.4529674823371277e-01  1.4719793691216249e-01 
 1.4912400239229565e-01  1.5107527018376271e-01  1.5305207005546456e-01  1.5505473609128448e-01 
 1.5708360674654911e-01  1.5913902490522816e-01  1.6122133793788240e-01  1.6333089776037052e-01 
 1.6546806089332383e-01  1.6763318852239778e-01  1.6982664655931523e-01  1.7204880570370504e-01 
 1.7430004150575160e-01  1.7658073442966354e-01  1.7889126991797338e-01  1.8123203845667785e-01 
 1.8360343564123130e-01  1.8600586224340204e-01  1.8843972427900388e-01  1.9090543307651361e-01 
 1.9340340534658670e-01  1.9593406325248214e-01  1.9849783448140937e-01  2.0109515231680791e-01 
 2.0372645571157397e-01  2.0639218936224393e-01  2.0909280378414982e-01  2.1182875538755602e-01 
 2.1460050655479562e-01  2.1740852571841299e-01  2.2025328744033004e-01  2.2313527249204862e-01 
 2.2605496793590199e-01  2.2901286720736910e-01  2.3200947019846715e-01  2.3504528334223365e-01 
 2.3812081969831550e-01  2.4123659903967692e-01  2.4439314794044259e-01  2.4759099986488947e-01 
 2.5083069525760404e-01  2.5411278163481849e-01  2.5743781367694224e-01  2.6080635332230423e-01 
 2.6421896986212257e-01  2.6767624003671381e-01  2.7117874813296666e-01  2.7472708608308560e-01 
 2.7832185356462957e-01  2.8196365810185892e-01  2.8565311516840836e-01  2.8939084829130318e-01 
 2.9317748915633751e-01  2.9701367771483006e-01  3.0090006229177774e-01  3.0483729969542395e-01 
 3.0882605532826091e-01  3.1286700329948419e-01  3.1696082653891888e-01  3.2110821691243613e-01 
 3.2530987533888006e-01  3.2956651190852532e-01  3.3387884600308398e-01  3.3824760641728041e-01 
 3.4267353148202345e-01  3.4715736918918311e-01  3.5169987731800390e-01  3.5630182356317103e-01 
 3.6096398566455318e-01  3.6568715153864190e-01  3.7047211941171143e-01  3.7531969795472103e-01 
 3.8023070641998213e-01  3.8520597477961405e-01  3.9024634386581131e-01  3.9535266551294590e-01 
 4.0052580270152977e-01  4.0576662970406036e-01  4.1107603223277472e-01  4.1645490758933718e-01 
 4.2190416481648590e-01  4.2742472485166066e-01  4.3301752068264748e-01  4.3868349750525332e-01 
 4.4442361288304666e-01  4.5023883690918848e-01  4.5613015237037990e-01  4.6209855491295582e-01 
 4.6814505321115135e-01  4.7427066913756993e-01  4.8047643793588296e-01  4.8676340839578752e-01 
 4.9313264303025495e-01  4.9958521825509788e-01  5.0612222457088707e-01  5.1274476674724867e-01 
 5.1945396400957267e-01  5.2625095022816482e-01  5.3313687410987487e-01  5.4011289939222584e-01 
 5.4718020504009501e-01  5.5433998544495766e-01  5.6159345062674348e-01  5.6894182643833191e-01 
 5.7638635477272504e-01  5.8392829377292998e-01  5.9156891804458833e-01  5.9930951887138750e-01 
 6.0715140443329063e-01  6.1509590002762216e-01  6.2314434829304588e-01  6.3129810943647502e-01 
 6.3955856146294943e-01  6.4792710040852242e-01  6.5640514057619370e-01  6.6499411477493020e-01 
 6.7369547456181478e-01  6.8251069048735968e-01  6.9144125234403864e-01  7.0048866941806065e-01 
 7.0965447074444510e-01  7.1894020536543146e-01  7.2834744259227224e-01  7.3787777227044804e-01 
 7.4753280504835840e-01  7.5731417264952217e-01  7.6722352814834471e-01  7.7726254624949043e-01 
 7.8743292357091266e-01  7.9773637893058458e-01  8.0817465363698571e-01  8.1874951178338529e-01 
 8.2946274054597935e-01  8.4031615048592723e-01  8.5131157585534234e-01  8.6245087490727967e-01 
 8.7373593020979268e-01  8.8516864896408709e-01  8.9675096332684368e-01  9.0848483073675634e-01 
 9.2037223424534531e-01  9.3241518285209690e-01  9.4461571184398885e-01  9.5697588313945892e-01 
 9.6949778563687461e-01  9.8218353556756199e-01  9.9503527685345161e-01  1.0080551814694101e+00 
 1.0212454498103054e+00  1.0346083110628819e+00  1.0481460235824955e+00  1.0618608752747840e+00 
 1.0757551839823274e+00  1.0898312978763631e+00  1.1040915958536437e+00  1.1185384879384686e+00 
 1.1331744156899848e+00  1.1480018526148172e+00  1.1630233045850973e+00  1.1782413102619602e+00 
 1.1936584415245854e+00  1.2092773039048512e+00  1.2251005370276737e+00  1.2411308150571114e+00 
 1.2573708471483056e+00  1.2738233779053318e+00  1.2904911878450469e+00  1.3073770938670020e+00 
 1.3244839497295042e+00  1.3418146465319107e+00  1.3593721132032321e+00  1.3771593169971201e+00 
 1.3951792639933527e+00  1.4134349996058617e+00  1.4319296090974161e+00  1.4506662181010392e+00 
 1.4696479931482471e+00  1.4888781422042014e+00  1.5083599152098623e+00  1.5280966046312361e+00 
 1.5480915460158102e+00  1.5683481185562689e+00  1.5888697456615841e+00  1.6096598955355794e+00 
 1.6307220817630663e+00  1.6520598639036479e+00  1.6736768480932913e+00  1.6955766876537759e+00 
 1.7177630837101123e+00  1.7402397858160359e+00  1.7630105925877009e+00  1.7860793523456497e+00 
 1.8094499637651862e+00  1.8331263765352650e+00  1.8571125920259963e+00  1.8814126639648876e+00 
 1.9060306991219329e+00  1.9309708580036673e+00  1.9562373555563024e+00  1.9818344618780603e+00 
 2.0077665029408331e+00  2.0340378613212819e+00  2.0606529769415003e+00  2.0876163478193761e+00 
 2.1149325308287610e+00  2.1426061424696008e+00  2.1706418596481316e+00  2.1990444204672768e+00 
 2.2278186250274188e+00  2.2569693362376149e+00  2.2865014806374404e+00  2.3164200492295883e+00 
 2.3467300983233597e+00  2.3774367503891929e+00  2.4085451949243710e+00  2.4400606893300614e+00 
 2.4719885597998297e+00  2.5043342022197761e+00  2.5371030830804551e+00  2.5703007404007252e+00 
 2.6039327846636877e+00  2.6380048997648706e+00  2.6725228439728204e+00  2.7074924509022646e+00 
 2.7429196305000092e+00  2.7788103700437188e+00  2.8151707351538025e+00  2.8520068708185060e+00 
 2.8893250024324311e+00  2.9271314368486392e+00  2.9654325634445304e+00  3.0042348552016618e+00 
 3.0435448697996894e+00  3.0833692507246462e+00  3.1237147283916920e+00  3.1645881212825797e+00 
 3.2059963370979894e+00  3.2479463739249503e+00  3.2904453214195306e+00  3.3335003620050094e+00 
 3.3771187720857205e+00  3.4213079232767831e+00  3.4660752836499298e+00  3.5114284189956022e+00 
 3.5573749941016231e+00  3.6039227740485447e+00  3.6510796255219660e+00  3.6988535181420210e+00 
 3.7472525258102727e+00  3.7962848280742096e+00  3.8459587115096161e+00  3.8962825711210214e+00 
 3.9472649117604770e+00  3.9989143495648904e+00  4.0512396134121840e+00  4.1042495463964865e+00 
 4.1579531073226415e+00  4.2123593722202628e+00  4.2674775358776147e+00  4.3233169133955380e+00 
 4.3798869417617459e+00  4.4371971814456579e+00  4.4952573180141924e+00  4.5540771637686195e+00 
 4.6136666594028668e+00  4.6740358756835265e+00  4.7351950151518363e+00  4.7971544138479265e+00 
 4.8599245430576490e+00  4.9235160110822376e+00  4.9879395650311453e+00  5.0532060926383213e+00 
 5.1193266241022721e+00  5.1863123339501902e+00  5.2541745429264708e+00  5.3229247199059486e+00 
 5.3925744838321679e+00  5.4631356056810008e+00  5.5346200104499976e+00  5.6070397791736815e+00 
 5.6804071509653413e+00  5.7547345250854329e+00  5.8300344630370899e+00  5.9063196906890463e+00 
 5.9836031004263415e+00  6.0618977533291618e+00  6.1412168813801982e+00  6.2215738897008785e+00 
 6.3029823588168652e+00  6.3854560469532009e+00  6.4690088923594748e+00  6.5536550156654227e+00 
 6.6394087222673539e+00  6.7262845047457800e+00  6.8142970453147171e+00  6.9034612183029997e+00 
 6.9937920926680919e+00  7.0853049345427355e+00  7.1780152098150278e+00  7.2719385867421513e+00 
 7.3670909385983476e+00  7.4634883463575594e+00  7.5611471014111293e+00  7.6600837083210971e+00 
 7.7603148876095132e+00  7.8618575785842353e+00  7.9647289422017211e+00  8.0689463639672621e+00 
 8.1745274568731876e+00  8.2814900643754914e+00  8.3898522634094199e+00  8.4996323674445247e+00 
 8.6108489295796780e+00  8.7235207456785808e+00  8.8376668575463437e+00  8.9533065561475187e+00 
 9.0704593848664175e+00  9.1891451428099309e+00  9.3093838881536310e+00  9.4311959415316657e+00 
 9.5546018894709750e+00  9.6796225878704831e+00  9.8062791655257815e+00  9.9345930276999468e+00 
 1.0064585859741085e+01  1.0196279630747204e+01  1.0329696597279053e+01  1.0464859307121523e+01 
 1.0601790603094269e+01  1.0740513626912229e+01  1.0881051823096598e+01  1.1023428942937025e+01 
 1.1167669048505656e+01  1.1313796516723597e+01  1.1461836043480796e+01  1.1611812647809620e+01 
 1.1763751676113161e+01  1.1917678806448833e+01  1.2073620052868025e+01  1.2231601769812533e+01 
 1.2391650656568535e+01  1.2553793761778824e+01  1.2718058488014103e+01  1.2884472596404061e+01 
 1.3053064211329103e+01  1.3223861825173415e+01  1.3396894303140252e+01  1.3572190888130223e+01 
 1.3749781205683416e+01  1.3929695268986180e+01  1.4111963483943446e+01  1.4296616654317317e+01 
 1.4483685986933095e+01  1.4673203096953241e+01  1.4865200013220413e+01  1.5059709183670435e+01 
 1.5256763480816060e+01  1.5456396207302516e+01  1.5658641101535725e+01  1.5863532343384174e+01 
 1.6071104559955398e+01  1.6281392831448038e+01  1.6494432697080480e+01  1.6710260161097075e+01 
 1.6928911698852932e+01  1.7150424262978344e+01  1.7374835289623864e+01  1.7602182704787122e+01 
 1.7832504930722418e+01  1.8065840892434064e+01  1.8302230024254978e+01  1.8541712276511070e+01 
 1.8784328122272960e+01  1.9030118564196034e+01  1.9279125141449978e+01  1.9531389936739011e+01 
 1.9786955583413949e+01  2.0045865272677357e+01  2.0308162760882936e+01  2.0573892376930505e+01 
 2.0843099029757628e+01  2.1115828215929373e+01  2.1392126027327322e+01  2.1672039158939221e+01 
 2.1955614916750527e+01  2.2242901225739253e+01  2.2533946637975426e+01  2.2828800340826348e+01 
 2.3127512165269625e+01  2.3430132594314550e+01  2.3736712771533895e+01  2.4047304509707299e+01 
 2.4361960299577760e+01  2.4680733318722666e+01  2.5003677440540972e+01  2.5330847243357901e+01 
 2.5662298019648826e+01  2.5998085785383825e+01  2.6338267289494503e+01  2.6682900023464743e+01 
 2.7032042231046820e+01  2.7385752918104824e+01  2.7744091862586732e+01  2.8107119624627035e+01 
 2.8474897556781617e+01  2.8847487814396253e+01  2.9224953366111340e+01  2.9607358004503510e+01 
 2.9994766356866819e+01  3.0387243896134883e+01  3.0784856951945979e+01  3.1187672721852891e+01 
 3.1595759282679470e+01  3.2009185602025781e+01  3.2428021549923805e+01  3.2852337910645595e+01 
 3.3282206394666012e+01  3.3717699650782002e+01  3.4158891278390364e+01  3.4605855839926235e+01 
 3.5058668873464349e+01  3.5517406905485167e+01  3.5982147463807799e+01  3.6452969090692811e+01 
 3.6929951356115751e+01  3.7413174871214721e+01  3.7902721301913914e+01  3.8398673382725256e+01 
 3.8901114930730856e+01  3.9410130859748158e+01  3.9925807194680679e+01  4.0448231086056389e+01 
 4.0977490824756337e+01  4.1513675856936061e+01  4.2056876799142181e+01  4.2607185453626791e+01 
 4.3164694823862270e+01  4.3729499130259157e+01  4.4301693826089483e+01  4.4881375613618808e+01 
 4.5468642460448784e+01  4.6063593616074336e+01  4.6666329628656818e+01  4.7276952362016921e+01 
 4.7895565012849929e+01  4.8522272128166172e+01  4.9157179622959788e+01  4.9800394798108528e+01 
 5.0452026358507908e+01  5.1112184431442579e+01  5.1780980585198094e+01  5.2458527847916251e+01 
 5.3144940726697094e+01  5.3840335226950842e+01  5.4544828872003151e+01  5.5258540722956788e+01 
 5.5981591398813286e+01  5.6714103096857890e+01  5.7456199613310808e+01  5.8208006364249691e+01 
 5.8969650406804824e+01  5.9741260460632169e+01  6.0522966929667348e+01  6.1314901924164147e+01 
 6.2117199283021542e+01  6.2929994596402707e+01  6.3753425228650144e+01  6.4587630341500528e+01 
 6.5432750917603443e+01  6.6288929784347715e+01  6.7156311637999593e+01  6.8035043068156810e+01 
 6.8925272582522538e+01  6.9827150632003551e+01  7.0740829636136709e+01  7.1666464008848536e+01 
 7.2604210184550851e+01  7.3554226644579416e+01  7.4516673943977040e+01  7.5491714738628133e+01 
 7.6479513812747626e+01  7.7480238106730127e+01  7.8494056745363110e+01  7.9521141066409498e+01 
 8.0561664649564122e+01  8.1615803345789089e+01  8.2683735307032990e+01  8.3765641016339103e+01 
 8.4861703318347267e+01  8.5972107450195310e+01  8.7097041072824368e+01  8.8236694302694133e+01 
 8.9391259743912897e+01  9.0560932520788398e+01  9.1745910310803538e+01  9.2946393378025348e+01 
 9.4162584606949437e+01  9.5394689536788164e+01  9.6642916396207198e+01  9.7907476138516685e+01 
 9.9188582477322853e+01  1.0048645192264611e+02  1.0180130381751177e+02  1.0313336037501952e+02 
 1.0448284671589805e+02  1.0584999090655083e+02  1.0723502399760004e+02  1.0863818006293458e+02 
 1.1005969623926912e+02  1.1149981276622086e+02  1.1295877302691038e+02  1.1443682358909449e+02 
 1.1593421424683565e+02  1.1745119806271919e+02 
  </PP_R>
  <PP_RAB>
 6.7958534614712308e-07  6.8847763026112820e-07  6.9748626873329076e-07  7.0661278404495388e-07 
 7.1585871859892753e-07  7.2522563498015813e-07  7.3471511621980677e-07  7.4432876606278957e-07 
 7.5406820923881151e-07  7.6393509173695003e-07  7.7393108108383170e-07  7.8405786662544731e-07 
 7.9431715981265596e-07  8.0471069449042481e-07  8.1524022719085290e-07  8.2590753743002563e-07 
 8.3671442800876404e-07  8.4766272531729721e-07  8.5875427964392842e-07  8.6999096548773754e-07 
 8.8137468187537678e-07  8.9290735268200991e-07  9.0459092695645213e-07  9.1642737925056508e-07 
 9.2841870995295587e-07  9.4056694562705531e-07  9.5287413935360631e-07  9.6534237107764048e-07 
 9.7797374795999490e-07  9.9077040473342688e-07  1.0037345040633877e-06  1.0168682369135211e-06 
 1.0301738229159385e-06  1.0436535107463410e-06  1.0573095785040556e-06  1.0711443340970373e-06 
 1.0851601156319078e-06  1.0993592918091062e-06  1.1137442623232022e-06  1.1283174582684494e-06 
 1.1430813425496488e-06  1.1580384102983847e-06  1.1731911892947035e-06  1.1885422403943212e-06 
 1.2040941579614111e-06  1.2198495703070570e-06  1.2358111401334450e-06  1.2519815649838655e-06 
 1.2683635776986058e-06  1.2849599468768063e-06  1.3017734773443560e-06  1.3188070106279248e-06 
 1.3360634254351771e-06  1.3535456381412887e-06  1.3712566032818154e-06  1.3891993140520206e-06 
 1.4073768028127289e-06  1.4257921416028056e-06  1.4444484426583363e-06  1.4633488589386049e-06 
 1.4824965846589441e-06  1.5018948558305766e-06  1.5215469508074992e-06  1.5414561908405371e-06 
 1.5616259406386422e-06  1.5820596089375357e-06  1.6027606490757946e-06  1.6237325595784742e-06 
 1.6449788847483621e-06  1.6665032152649809e-06  1.6883091887914185e-06  1.7104004905891011e-06 
 1.7327808541406119e-06  1.7554540617806583e-06  1.7784239453352962e-06  1.8016943867695169e-06 
 1.8252693188433090e-06  1.8491527257763025e-06  1.8733486439211169e-06  1.8978611624455023e-06 
 1.9226944240234352e-06  1.9478526255352266e-06  1.9733400187768104e-06  1.9991609111783081e-06 
 2.0253196665319912e-06  2.0518207057297765e-06  2.0786685075103605e-06  2.1058676092161460e-06 
 2.1334226075600575e-06  2.1613381594023991e-06  2.1896189825378729e-06  2.2182698564929011e-06 
 2.2472956233333735e-06  2.2767011884829704e-06  2.3064915215521896e-06  2.3366716571782242e-06 
 2.3672466958758283e-06  2.3982218048993098e-06  2.4296022191158192e-06  2.4613932418900472e-06 
 2.4936002459805089e-06  2.5262286744475511e-06  2.5592840415732442e-06  2.5927719337933079e-06 
 2.6266980106412293e-06  2.6610680057047438e-06  2.6958877275948216e-06  2.7311630609273376e-06 
 2.7668999673175824e-06  2.8031044863877923e-06  2.8397827367878621e-06  2.8769409172294066e-06 
 2.9145853075333612e-06  2.9527222696912834e-06  2.9913582489405505e-06  3.0304997748536083e-06 
 3.0701534624414988e-06  3.1103260132718052e-06  3.1510242166012297e-06  3.1922549505230032e-06 
 3.2340251831292905e-06  3.2763419736888228e-06  3.3192124738399159e-06  3.3626439287991348e-06 
 3.4066436785857393e-06  3.4512191592621641e-06  3.4963779041907425e-06  3.5421275453068451e-06 
 3.5884758144087105e-06  3.6354305444641323e-06  3.6829996709342447e-06  3.7311912331146389e-06 
 3.7800133754940292e-06  3.8294743491306730e-06  3.8795825130468389e-06  3.9303463356414914e-06 
 3.9817743961214717e-06  4.0338753859514056e-06  4.0866581103225782e-06  4.1401314896410402e-06 
 4.1943045610351635e-06  4.2491864798829494e-06  4.3047865213593118e-06  4.3611140820035919e-06 
 4.4181786813076055e-06  4.4759899633244510e-06  4.5345576982983879e-06  4.5938917843160229e-06 
 4.6540022489791154e-06  4.7148992510992599e-06  4.7765930824147618e-06  4.8390941693299391e-06 
 4.9024130746772465e-06  4.9665604995023922e-06  5.0315472848728497e-06  5.0973844137100218e-06 
 5.1640830126453756e-06  5.2316543539008832e-06  5.3001098571940450e-06  5.3694610916678452e-06 
 5.4397197778459757e-06  5.5108977896136190e-06  5.5830071562241781e-06  5.6560600643322350e-06 
 5.7300688600531358e-06  5.8050460510495046e-06  5.8810043086450699e-06  5.9579564699661562e-06 
 6.0359155401111783e-06  6.1148946943485491e-06  6.1949072803433015e-06  6.2759668204129083e-06 
 6.3580870138125735e-06  6.4412817390504412e-06  6.5255650562330756e-06  6.6109512094416907e-06 
 6.6974546291394050e-06  6.7850899346100337e-06  6.8738719364287827e-06  6.9638156389652655e-06 
 7.0549362429192907e-06  7.1472491478897992e-06  7.2407699549774449e-06  7.3355144694212153e-06 
 7.4314987032695504e-06  7.5287388780864289e-06  7.6272514276928271e-06  7.7270530009441070e-06 
 7.8281604645436779e-06  7.9305909058935303e-06  8.0343616359820563e-06  8.1394901923096250e-06 
 8.2459943418524641e-06  8.3538920840653395e-06  8.4632016539234926e-06  8.5739415250044003e-06 
 8.6861304126098421e-06  8.7997872769288462e-06  8.9149313262419951e-06  9.0315820201676774e-06 
 9.1497590729508087e-06  9.2694824567945794e-06  9.3907724052358120e-06  9.5136494165644784e-06 
 9.6381342572879482e-06  9.7642479656406033e-06  9.8920118551392944e-06  1.0021447518185452e-05 
 1.0152576829714198e-05  1.0285421950891290e-05  1.0420005332858367e-05  1.0556349720527321e-05 
 1.0694478156424179e-05  1.0834413984583368e-05  1.0976180854492899e-05  1.1119802725091213e-05 
 1.1265303868816275e-05  1.1412708875707681e-05  1.1562042657562431e-05  1.1713330452145090e-05 
 1.1866597827453021e-05  1.2021870686037440e-05  1.2179175269381018e-05  1.2338538162332746e-05 
 1.2499986297600814e-05  1.2663546960304348e-05  1.2829247792584646e-05  1.2997116798276750e-05 
 1.3167182347642148e-05  1.3339473182163466e-05  1.3514018419401803e-05  1.3690847557917691e-05 
 1.3869990482256415e-05  1.4051477467998549e-05  1.4235339186876658e-05  1.4421606711958830e-05 
 1.4610311522900145e-05  1.4801485511262783e-05  1.4995160985905792e-05  1.5191370678445352e-05 
 1.5390147748786503e-05  1.5591525790727252e-05  1.5795538837635959e-05  1.6002221368203140e-05 
 1.6211608312268374e-05  1.6423735056723600e-05  1.6638637451493475e-05  1.6856351815594218e-05 
 1.7076914943271551e-05  1.7300364110218993e-05  1.7526737079877613e-05  1.7756072109818056e-05 
 1.7988407958206233e-05  1.8223783890353499e-05  1.8462239685352600e-05  1.8703815642800439e-05 
 1.8948552589608805e-05  1.9196491886904201e-05  1.9447675437017994e-05  1.9702145690568007e-05 
 1.9959945653632718e-05  2.0221118895019506e-05  2.0485709553627765e-05  2.0753762345908571e-05 
 2.1025322573421790e-05  2.1300436130492211e-05  2.1579149511965784e-05  2.1861509821067351e-05 
 2.2147564777361180e-05  2.2437362724815724e-05  2.2730952639973865e-05  2.3028384140230029e-05 
 2.3329707492215667e-05  2.3634973620294451e-05  2.3944234115168593e-05  2.4257541242597783e-05 
 2.4574947952232274e-05  2.4896507886561468e-05  2.5222275389979565e-05  2.5552305517970029e-05 
 2.5886654046409980e-05  2.6225377480996541e-05  2.6568533066796302e-05  2.6916178797920034e-05 
 2.7268373427323725e-05  2.7625176476737992e-05  2.7986648246727428e-05  2.8352849826881493e-05 
 2.8723843106138811e-05  2.9099690783246607e-05  2.9480456377356854e-05  2.9866204238761203e-05 
 3.0256999559766357e-05  3.0652908385711707e-05  3.1053997626131122e-05  3.1460335066060903e-05 
 3.1871989377495451e-05  3.2289030130993223e-05  3.2711527807434151e-05  3.3139553809931158e-05 
 3.3573180475897368e-05  3.4012481089271413e-05  3.4457529892902525e-05  3.4908402101097819e-05 
 3.5365173912333588e-05  3.5827922522133047e-05  3.6296726136112671e-05  3.6771663983199021e-05 
 3.7252816329018646e-05  3.7740264489463176e-05  3.8234090844431953e-05  3.8734378851754227e-05 
 3.9241213061294030e-05  3.9754679129239071e-05  4.0274863832576943e-05  4.0801855083760564e-05 
 4.1335741945565732e-05  4.1876614646142756e-05  4.2424564594265368e-05  4.2979684394779032e-05 
 4.3542067864251163e-05  4.4111810046826699e-05  4.4689007230290516e-05  4.5273756962340409e-05 
 4.5866158067072876e-05  4.6466310661684547e-05  4.7074316173392382e-05  4.7690277356574928e-05 
 4.8314298310138261e-05  4.8946484495108660e-05  4.9586942752456107e-05  5.0235781321150447e-05 
 5.0893109856454082e-05  5.1559039448453956e-05  5.2233682640836137e-05  5.2917153449905853e-05 
 5.3609567383856526e-05  5.4311041462291095e-05  5.5021694235998252e-05  5.5741645806988263e-05 
 5.6471017848790170e-05  5.7209933627014994e-05  5.7958518020187966e-05  5.8716897540853222e-05 
 5.9485200356954772e-05  6.0263556313497217e-05  6.1052096954489763e-05  6.1850955545177461e-05 
 6.2660267094563561e-05  6.3480168378226125e-05  6.4310797961433555e-05  6.5152296222562391e-05 
 6.6004805376821616e-05  6.6868469500287346e-05  6.7743434554252044e-05  6.8629848409892385e-05 
 6.9527860873259628e-05  7.0437623710597509e-05  7.1359290673990796e-05  7.2293017527350035e-05 
 7.3238962072735774e-05  7.4197284177027580e-05  7.5168145798942048e-05  7.6151711016403994e-05 
 7.7148146054276218e-05  7.8157619312451600e-05  7.9180301394313475e-05  8.0216365135567783e-05 
 8.1265985633452692e-05  8.2329340276330581e-05  8.3406608773666955e-05  8.4497973186401868e-05 
 8.5603617957718647e-05  8.6723729944215237e-05  8.7858498447483197e-05  8.9008115246100503e-05 
 9.0172774628042324e-05  9.1352673423516199e-05  9.2548011038226874e-05  9.3758989487076225e-05 
 9.4985813428304355e-05  9.6228690198077254e-05  9.7487829845527361e-05  9.8763445168251738e-05 
 1.0005575174827606e-04  1.0136496798848823e-04  1.0269131514954890e-04  1.0403501738728510e-04 
 1.0539630179057315e-04  1.0677539841971721e-04  1.0817254034532996e-04  1.0958796368772229e-04 
 1.1102190765680773e-04  1.1247461459252999e-04  1.1394633000581891e-04  1.1543730262008208e-04 
 1.1694778441324000e-04  1.1847803066031080e-04  1.2002829997655237e-04  1.2159885436116891e-04 
 1.2318995924158967e-04  1.2480188351832617e-04  1.2643489961041779e-04  1.2808928350147085e-04 
 1.2976531478630057e-04  1.3146327671818321e-04  1.3318345625672653e-04  1.3492614411636668e-04 
 1.3669163481549987e-04  1.3848022672625622e-04  1.4029222212492555e-04  1.4212792724304312e-04 
 1.4398765231914292e-04  1.4587171165118920e-04  1.4778042364969334e-04  1.4971411089152598e-04 
 1.5167310017443332e-04  1.5365772257226683e-04  1.5566831349093539e-04  1.5770521272508945e-04 
 1.5976876451554776e-04  1.6185931760747427e-04  1.6397722530931726e-04  1.6612284555251924e-04 
 1.6829654095200798e-04  1.7049867886747967e-04  1.7272963146548330e-04  1.7498977578231804e-04 
 1.7727949378775241e-04  1.7959917244957918e-04  1.8194920379901346e-04  1.8432998499694640e-04 
 1.8674191840106701e-04  1.8918541163386125e-04  1.9166087765150122e-04  1.9416873481363571e-04 
 1.9670940695409425e-04  1.9928332345251526e-04  2.0189091930691337e-04  2.0453263520719422e-04 
 2.0720891760963258e-04  2.0992021881232421e-04  2.1266699703162558e-04  2.1544971647959326e-04 
 2.1826884744243725e-04  2.2112486636000018e-04  2.2401825590627621e-04  2.2694950507098563e-04 
 2.2991910924221375e-04  2.3292757029013360e-04  2.3597539665182264e-04  2.3906310341718998e-04 
 2.4219121241602826e-04  2.4536025230620335e-04  2.4857075866299960e-04  2.5182327406963198e-04 
 2.5511834820894592e-04  2.5845653795631356e-04  2.6183840747374742e-04  2.6526452830524496e-04 
 2.6873547947338150e-04  2.7225184757716540e-04  2.7581422689117554e-04  2.7942321946599507e-04 
 2.8307943522995851e-04  2.8678349209223212e-04  2.9053601604724181e-04  2.9433764128046735e-04 
 2.9818901027562136e-04  3.0209077392323060e-04  3.0604359163063813e-04  3.1004813143344458e-04 
 3.1410507010840814e-04  3.1821509328782007e-04  3.2237889557538057e-04  3.2659718066358612e-04 
 3.3087066145265684e-04  3.3520006017101706e-04  3.3958610849735483e-04  3.4402954768427644e-04 
 3.4853112868358035e-04  3.5309161227316987e-04  3.5771176918562538e-04  3.6239238023846193e-04 
 3.6713423646608768e-04  3.7193813925349121e-04  3.7680490047167743e-04  3.8173534261487529e-04 
 3.8673029893954218e-04  3.9179061360518542e-04  3.9691714181702784e-04  4.0211074997053816e-04 
 4.0737231579785599e-04  4.1270272851612918e-04  4.1810288897779400e-04  4.2357370982282135e-04 
 4.2911611563295525e-04  4.3473104308796906e-04  4.4041944112396651e-04  4.4618227109375518e-04 
 4.5202050692931528e-04  4.5793513530639909e-04  4.6392715581127956e-04  4.6999758110968369e-04 
 4.7614743711793495e-04  4.8237776317633602e-04  4.8868961222481983e-04  4.9508405098089823e-04 
 5.0156216011994063e-04  5.0812503445780933e-04  5.1477378313588811e-04  5.2150952980852840e-04 
 5.2833341283294933e-04  5.3524658546162381e-04  5.4225021603717988e-04  5.4934548818985412e-04 
 5.5653360103752791e-04  5.6381576938838141e-04  5.7119322394619709e-04  5.7866721151835464e-04 
 5.8623899522654299e-04  5.9390985472023003e-04  6.0168108639292771e-04  6.0955400360128507e-04 
 6.1752993688704832e-04  6.2561023420192659e-04  6.3379626113539852e-04  6.4208940114549810e-04 
 6.5049105579262616e-04  6.5900264497641494e-04  6.6762560717569463e-04  6.7636139969160056e-04 
 6.8521149889385995e-04  6.9417740047030203e-04  7.0326061967963317e-04  7.1246269160751862e-04 
 7.2178517142601571e-04  7.3122963465640210e-04  7.4079767743544288e-04  7.5049091678514013e-04 
 7.6031099088601543e-04  7.7025955935396378e-04  7.8033830352073523e-04  7.9054892671808266e-04 
 8.0089315456562885e-04  8.1137273526249898e-04  8.2198943988277438e-04  8.3274506267480412e-04 
 8.4364142136443977e-04  8.5468035746223431e-04  8.6586373657466186e-04  8.7719344871941001e-04 
 8.8867140864479688e-04  9.0029955615336947e-04  9.1207985642973149e-04  9.2401430037266816e-04 
 9.3610490493161119e-04  9.4835371344750819e-04  9.6076279599815117e-04  9.7333424974802615e-04 
 9.8607019930273872e-04  9.9897279706807527e-04  1.0120442236137693e-03  1.0252866880420166e-03 
 1.0387024283608241e-03  1.0522937118622371e-03  1.0660628355055157e-03  1.0800121263053271e-03 
 1.0941439417250175e-03  1.1084606700750281e-03  1.1229647309165250e-03  1.1376585754703124e-03 
 1.1525446870310908e-03  1.1676255813871453e-03  1.1829038072455160e-03  1.1983819466627366e-03 
 1.2140626154812087e-03  1.2299484637712829e-03  1.2460421762791308e-03  1.2623464728804712e-03 
 1.2788641090402363e-03  1.2955978762782484e-03  1.3125506026409992e-03  1.3297251531795941e-03 
 1.3471244304339510e-03  1.3647513749233374e-03  1.3826089656433264e-03  1.4007002205692523e-03 
 1.4190281971662563e-03  1.4375959929060068e-03  1.4564067457901750e-03  1.4754636348807706e-03 
 1.4947698808374071e-03  1.5143287464616023e-03  1.5341435372481982e-03  1.5542176019439989e-03 
 1.5745543331137167e-03  1.5951571677133224e-03  1.6160295876709013e-03  1.6371751204751022e-03 
 1.6585973397712981e-03  1.6802998659655379e-03  1.7022863668364021e-03  1.7245605581548674e-03 
 1.7471262043122823e-03  1.7699871189565551e-03  1.7931471656366718e-03  1.8166102584556468e-03 
 1.8403803627320076e-03  1.8644614956699532e-03  1.8888577270382660e-03  1.9135731798581121e-03 
 1.9386120310998433e-03  1.9639785123889151e-03  1.9896769107210391e-03  2.0157115691866981e-03 
 2.0420868877051384e-03  2.0688073237679662e-03  2.0958773931924711e-03  2.1233016708848166e-03 
 2.1510847916132096e-03  2.1792314507911711e-03  2.2077464052710979e-03  2.2366344741481655e-03 
 2.2659005395747707e-03  2.2955495475856262e-03  2.3255865089336540e-03  2.3560164999368118e-03 
 2.3868446633360067e-03  2.4180762091642266e-03  2.4497164156270504e-03  2.4817706299946770e-03 
 2.5142442695056271e-03  2.5471428222822675e-03  2.5804718482583216e-03  2.6142369801185027e-03 
 2.6484439242504616e-03  2.6830984617091710e-03  2.7182064491939476e-03  2.7537738200382280e-03 
 2.7898065852123431e-03  2.8263108343393687e-03  2.8632927367242904e-03  2.9007585423966318e-03 
 2.9387145831667257e-03  2.9771672736957984e-03  3.0161231125800728e-03  3.0555886834490375e-03 
 3.0955706560781013e-03  3.1360757875157999e-03  3.1771109232257536e-03  3.2186829982435630e-03 
 3.2607990383488523e-03  3.3034661612526403e-03  3.3466915778002488e-03  3.3904825931899548e-03 
 3.4348466082075933e-03  3.4797911204772795e-03  3.5253237257285666e-03  3.5714521190801127e-03 
 3.6181840963401841e-03  3.6655275553241656e-03  3.7134904971893087e-03  3.7620810277869412e-03 
 3.8113073590323875e-03  3.8611778102927907e-03  3.9117008097931108e-03  3.9628848960405107e-03 
 4.0147387192673916e-03  4.0672710428932947e-03  4.1204907450059450e-03  4.1744068198616693e-03 
 4.2290283794054404e-03  4.2843646548108285e-03  4.3404249980400914e-03  4.3972188834246455e-03 
 4.4547559092663050e-03  4.5130457994593800e-03  4.5720984051340506e-03  4.6319237063212233e-03 
 4.6925318136391914e-03  4.7539329700023447e-03  4.8161375523522480e-03  4.8791560734113733e-03 
 4.9429991834597673e-03  5.0076776721349825e-03  5.0732024702555469e-03  5.1395846516682966e-03 
 5.2068354351198871e-03  5.2749661861527840e-03  5.3439884190260708e-03  5.4139137986613829e-03 
 5.4847541426143167e-03  5.5565214230715882e-03  5.6292277688744169e-03  5.7028854675682927e-03 
 5.7775069674796059e-03  5.8531048798194495e-03  5.9296919808149388e-03  6.0072812138684253e-03 
 6.0858856917449669e-03  6.1655186987884091e-03  6.2461936931664779e-03  6.3279243091452376e-03 
 6.4107243593933142e-03  6.4946078373162722e-03  6.5795889194215319e-03  6.6656819677142322e-03 
 6.7529015321244447e-03  6.8412623529661423e-03  6.9307793634283731e-03  7.0214676920989354e-03 
 7.1133426655212353e-03  7.2064198107844495e-03  7.3007148581476647e-03  7.3962437436983141e-03 
 7.4930226120454250e-03  7.5910678190480897e-03  7.6903959345796481e-03  7.7910237453280374e-03 
 7.8929682576327782e-03  7.9962467003590870e-03  8.1008765278095963e-03  8.2068754226741741e-03 
 8.3142612990183429e-03  8.4230523053107909e-03  8.5332668274905182e-03  8.6449234920740921e-03 
 8.7580411693035914e-03  8.8726389763356759e-03  8.9887362804725018e-03  9.1063527024347873e-03 
 9.2255081196777854e-03  9.3462226697506087e-03  9.4685167536995383e-03  9.5924110395158232e-03 
 9.7179264656286589e-03  9.8450842444437869e-03  9.9739058659284816e-03  1.0104413101243374e-02 
 1.0236628006421864e-02  1.0370572926097599e-02  1.0506270497280814e-02  1.0643743653184008e-02 
 1.0783015627097731e-02  1.0924109956317053e-02  1.1067050486119450e-02  1.1211861373794636e-02 
 1.1358567092727305e-02  1.1507192436533132e-02  1.1657762523248967e-02  1.1810302799577833e-02 
 1.1964839045189489e-02  1.2121397377077259e-02  1.2280004253971855e-02  1.2440686480812965e-02 
 1.2603471213279370e-02  1.2768385962378306e-02  1.2935458599094870e-02  1.3104717359102331e-02 
 1.3276190847533970e-02  1.3449908043817464e-02  1.3625898306572442e-02  1.3804191378572191e-02 
 1.3984817391770255e-02  1.4167806872392720e-02  1.4353190746097368e-02  1.4541000343200090e-02 
 1.4731267403969801e-02  1.4924024083992623e-02  1.5119302959606264e-02  1.5317137033405481e-02 
 1.5517559739819610e-02  1.5720604950763065e-02  1.5926306981359759e-02  1.6134700595742447e-02 
 1.6345821012927971e-02  1.6559703912769314e-02  1.6776385441985609e-02  1.6995902220271024e-02 
 1.7218291346483554e-02  1.7443590404914840e-02  1.7671837471642016e-02  1.7903071120962562e-02 
 1.8137330431913585e-02  1.8374654994876203e-02  1.8615084918266408e-02  1.8858660835313509e-02 
 1.9105423910927212e-02  1.9355415848654620e-02  1.9608678897728209e-02  1.9865255860206068e-02 
 2.0125190098205532e-02  2.0388525541231495e-02  2.0655306693600592e-02  2.0925578641962532e-02 
 2.1199387062919860e-02  2.1476778230747423e-02  2.1757799025212785e-02  2.2042496939499084e-02 
 2.2330920088231457e-02  2.2623117215608467e-02  2.2919137703640111e-02  2.3219031580493446e-02 
 2.3522849528947419e-02  2.3830642894958443e-02  2.4142463696337952e-02  2.4458364631543536e-02 
 2.4778399088585125e-02  2.5102621154047672e-02  2.5431085622231932e-02  2.5763848004414783e-02 
 2.6100964538230829e-02  2.6442492197176665e-02  2.6788488700239501e-02  2.7139012521651889e-02 
 2.7494122900773892e-02  2.7853879852104808e-02  2.8218344175425708e-02  2.8587577466074595e-02 
 2.8961642125356443e-02  2.9340601371088990e-02  2.9724519248286722e-02  3.0113460639984647e-02 
 3.0507491278203673e-02  3.0906677755059505e-02  3.1311087534016825e-02  3.1720788961290797e-02 
 3.2135851277397785e-02  3.2556344628857085e-02  3.2982340080045913e-02  3.3413909625209424e-02 
 3.3851126200627940e-02  3.4294063696943315e-02  3.4742796971646665e-02  3.5197401861729441e-02 
 3.5657955196500120e-02  3.6124534810568341e-02  3.6597219556999433e-02  3.7076089320640576e-02 
 3.7561225031621605e-02  3.8052708679032307e-02  3.8550623324778890e-02  3.9055053117621599e-02 
 3.9566083307395958e-02  4.0083800259420398e-02  4.0608291469091992e-02  4.1139645576673538e-02 
 4.1677952382273863e-02  4.2223302861024353e-02  4.2775789178453899e-02  4.3335504706065120e-02 
 4.3902544037114362e-02  4.4477003002598180e-02  4.5058978687449083e-02  4.5648569446942830e-02 
 4.6245874923321099e-02  4.6850996062631080e-02  4.7464035131785556e-02  4.8085095735846274e-02 
 4.8714282835533543e-02  4.9351702764964721e-02  4.9997463249625007e-02  5.0651673424573274e-02 
 5.1314443852886200e-02  5.1985886544343572e-02  5.2666114974358393e-02  5.3355244103154321e-02 
 5.4053390395194335e-02  5.4760671838863413e-02  5.5477207966408988e-02  5.6203119874141991e-02 
 5.6938530242902692e-02  5.7683563358793551e-02  5.8438345134184499e-02  5.9203003128992050e-02 
 5.9977666572237263e-02  6.0762466383885841e-02  6.1557535196973871e-02  6.2363007380023039e-02 
 6.3179019059749431e-02  6.4005708144069084e-02  6.4843214345404881e-02  6.5691679204298178e-02 
 6.6551246113329535e-02  6.7422060341352466e-02  6.8304269058044112e-02  6.9198021358777326e-02 
 7.0103468289818185e-02  7.1020762873853005e-02  7.1950060135849966e-02  7.2891517129257857e-02 
 7.3845292962549436e-02  7.4811548826110630e-02  7.5790448019482162e-02  7.6782155978957600e-02 
 7.7786840305542435e-02  7.8804670793279102e-02  7.9835819457942575e-02  8.0880460566111423e-02 
 8.1938770664619243e-02  8.3010928610391610e-02  8.4097115600673164e-02  8.5197515203650487e-02 
 8.6312313389475592e-02  8.7441698561695133e-02  8.8585861589091319e-02  8.9744995837938990e-02 
 9.0919297204685195e-02  9.2108964149055561e-02  9.3314197727595360e-02  9.4535201627647961e-02 
 9.5772182201778508e-02  9.7025348502648268e-02  9.8294912318344682e-02  9.9581088208174254e-02 
 1.0088409353892366e-01  1.0220414852159505e-01  1.0354147624862237e-01  1.0489630273157440e-01 
 1.0626885693935144e-01  1.0765937083688139e-01  1.0906807942432245e-01  1.1049522077677881e-01 
 1.1194103608453580e-01  1.1340576969382155e-01  1.1488966914810246e-01  1.1639298522991774e-01 
 1.1791597200326343e-01  1.1945888685652910e-01  1.2102199054599720e-01  1.2260554723991166e-01 
 1.2420982456312267e-01  1.2583509364231626e-01  1.2748162915183514e-01  1.2914970936009931e-01 
 1.3083961617663409e-01  1.3255163519971366e-01  1.3428605576462768e-01  1.3604317099257979e-01 
 1.3782327784022549e-01  1.3962667714985896e-01  1.4145367370025577e-01  1.4330457625818133e-01 
 1.4517969763057353e-01  1.4707935471740677e-01  1.4900386856525033e-01  1.5095356442152505e-01 
 1.5292877178947109e-01  1.5492982448383483e-01  1.5695706068728432e-01  1.5901082300756292e-01 
 1.6109145853539095e-01  1.6319931890312470e-01  1.6533476034418332e-01  1.6749814375325278e-01 
 1.6968983474727833e-01  1.7191020372725438e-01  1.7415962594082326e-01  1.7643848154569289e-01 
 1.7874715567388438e-01  1.8108603849682034e-01  1.8345552529126480e-01  1.8585601650612510e-01 
 1.8828791783013021e-01  1.9075164026039212e-01  1.9324760017186535e-01  1.9577621938771564e-01 
 1.9833792525060878e-01  2.0093315069493270e-01  2.0356233431996443e-01  2.0622592046399424e-01 
 2.0892435927942016e-01  2.1165810680882449e-01  2.1442762506204624e-01  2.1723338209426196e-01 
 2.2007585208508812e-01  2.2295551541871847e-01  2.2587285876511021e-01  2.2882837516223259e-01 
 2.3182256409939142e-01  2.3485593160164281e-01  2.3792899031531470e-01  2.4104225959464390e-01 
 2.4419626558954846e-01  2.4739154133454844e-01  2.5062862683884968e-01  2.5390806917760711e-01 
 2.5723042258438134e-01  2.6059624854480562e-01  2.6400611589147815e-01  2.6746060090009655e-01 
 2.7096028738684913e-01  2.7450576680708183e-01  2.7809763835525519e-01  2.8173650906620984e-01 
 2.8542299391775683e-01  2.8915771593461026e-01  2.9294130629368054e-01  2.9677440443074249e-01 
 3.0065765814850509e-01  3.0459172372608911e-01  3.0857726602994062e-01  3.1261495862619487e-01 
 3.1670548389451086e-01  3.2084953314339465e-01  3.2504780672703265e-01  3.2930101416365271e-01 
 3.3360987425543470e-01  3.3797511520998968e-01  3.4239747476342852e-01  3.4687770030504167e-01 
 3.5141654900360864e-01  3.5601478793536268e-01  3.6067319421362748e-01  3.6539255512015145e-01 
 3.7017366823816100e-01  3.7501734158715128e-01  3.7992439375944742e-01  3.8489565405854559e-01 
 3.8993196263926860e-01  3.9503417064975349e-01  4.0020314037529769e-01  4.0543974538408756e-01 
 4.1074487067483312e-01  4.1611941282633513e-01  4.2156428014900943e-01  4.2708039283839272e-01 
 4.3266868313065815e-01  4.3833009546016599e-01  4.4406558661907469e-01  4.4987612591904103e-01 
 4.5576269535503650e-01  4.6172628977130714e-01  4.6776791702950138e-01  4.7388859817900653e-01 
 4.8008936762950472e-01  4.8637127332579133e-01  4.9273537692488084e-01  4.9918275397542833e-01 
 5.0571449409950109e-01  5.1233170117672600e-01  5.1903549353084877e-01  5.2582700411873307e-01 
 5.3270738072183232e-01  5.3967778614016881e-01  5.4673939838884833e-01  5.5389341089714828e-01 
 5.6114103271020943e-01  5.6848348869336907e-01  5.7592201973916324e-01  5.8345788297704448e-01 
 5.9109235198583421e-01  5.9882671700896628e-01  6.0666228517253862e-01  6.1460038070621992e-01 
 6.2264234516704908e-01  6.3078953766616019e-01  6.3904333509847722e-01  6.4740513237541086e-01 
 6.5587634266060280e-01  6.6445839760875347e-01  6.7315274760757515e-01  6.8196086202291128e-01 
 6.9088422944706218e-01  6.9992435795036090e-01  7.0908277533604092e-01  7.1836102939843816e-01 
 7.2776068818457273e-01  7.3728334025915254e-01  7.4693059497304048e-01  7.5670408273524592e-01 
 7.6660545528846269e-01  7.7663638598821816e-01  7.8679857008567544e-01  7.9709372501413389e-01 
 8.0752359067928003e-01  8.1808992975323513e-01  8.2879452797245179e-01  8.3963919443950685e-01 
 8.5062576192884476e-01  8.6175608719652030e-01  8.7303205129399464e-01  8.8445555988603852e-01 
 8.9602854357279293e-01  9.0775295821604618e-01  9.1963078526977715e-01  9.3166403211503090e-01 
 9.4385473239916107e-01  9.5620494637953235e-01  9.6871676127170148e-01  9.8139229160216568e-01 
 9.9423367956571906e-01  1.0072430953874916e+00  1.0204227376897204e+00  1.0337748338633235e+00 
 1.0473016404443336e+00  1.0610054434952580e+00  1.0748885589914288e+00  1.0889533332124084e+00 
 1.1032021431385144e+00  1.1176373968525390e+00  1.1322615339467168e+00  1.1470770259350236e+00 
 1.1620863766708676e+00  1.1772921227702491e+00  1.1926968340404460e+00  1.2083031139143294e+00 
 1.2241135998903425e+00  1.2401309639782461e+00  1.2563579131506935e+00  1.2727971898007169e+00 
 1.2894515722051971e+00  1.3063238749943993e+00  1.3234169496276529e+00  1.3407336848752538e+00 
 1.3582770073066746e+00  1.3760498817851607e+00  1.3940553119688004e+00  1.4122963408181495e+00 
 1.4307760511104983e+00  1.4494975659608711e+00  1.4684640493498349e+00  1.4876787066582282e+00 
 1.5071447852088633e+00  1.5268655748153495e+00 
  </PP_RAB>
</PP_MESH>


<PP_LOCAL>
-6.8694609267080171e+00 -6.8694609215481632e+00 -6.8694609162523950e+00 -6.8694609108171365e+00 
-6.8694609052387019e+00 -6.8694608995133226e+00 -6.8694608936371386e+00 -6.8694608876061700e+00 
-6.8694608814163391e+00 -6.8694608750634636e+00 -6.8694608685432472e+00 -6.8694608618512785e+00 
-6.8694608549830427e+00 -6.8694608479338886e+00 -6.8694608406990447e+00 -6.8694608332736378e+00 
-6.8694608256526379e+00 -6.8694608178308947e+00 -6.8694608098031189e+00 -6.8694608015638838e+00 
-6.8694607931076206e+00 -6.8694607844286129e+00 -6.8694607755209880e+00 -6.8694607663787259e+00 
-6.8694607569956556e+00 -6.8694607473654230e+00 -6.8694607374815186e+00 -6.8694607273372679e+00 
-6.8694607169258095e+00 -6.8694607062401012e+00 -6.8694606952729229e+00 -6.8694606840168575e+00 
-6.8694606724642906e+00 -6.8694606606074267e+00 -6.8694606484382446e+00 -6.8694606359485135e+00 
-6.8694606231297914e+00 -6.8694606099734141e+00 -6.8694605964704856e+00 -6.8694605826118780e+00 
-6.8694605683882228e+00 -6.8694605537898967e+00 -6.8694605388070435e+00 -6.8694605234295327e+00 
-6.8694605076469619e+00 -6.8694604914486677e+00 -6.8694604748236943e+00 -6.8694604577608089e+00 
-6.8694604402484671e+00 -6.8694604222748330e+00 -6.8694604038277696e+00 -6.8694603848947882e+00 
-6.8694603654631026e+00 -6.8694603455195704e+00 -6.8694603250507091e+00 -6.8694603040426783e+00 
-6.8694602824812847e+00 -6.8694602603519490e+00 -6.8694602376397089e+00 -6.8694602143292069e+00 
-6.8694601904046957e+00 -6.8694601658499952e+00 -6.8694601406485116e+00 -6.8694601147832035e+00 
-6.8694600882365844e+00 -6.8694600609907130e+00 -6.8694600330271749e+00 -6.8694600043270500e+00 
-6.8694599748709599e+00 -6.8694599446389804e+00 -6.8694599136106786e+00 -6.8694598817650787e+00 
-6.8694598490806529e+00 -6.8694598155353113e+00 -6.8694597811063787e+00 -6.8694597457705768e+00 
-6.8694597095040253e+00 -6.8694596722822121e+00 -6.8694596340799690e+00 -6.8694595948714881e+00 
-6.8694595546302653e+00 -6.8694595133290912e+00 -6.8694594709400665e+00 -6.8694594274345331e+00 
-6.8694593827830870e+00 -6.8694593369555514e+00 -6.8694592899209610e+00 -6.8694592416475286e+00 
-6.8694591921026289e+00 -6.8694591412527899e+00 -6.8694590890636498e+00 -6.8694590354999434e+00 
-6.8694589805254829e+00 -6.8694589241031201e+00 -6.8694588661947504e+00 -6.8694588067612532e+00 
-6.8694587457624774e+00 -6.8694586831572346e+00 -6.8694586189032414e+00 -6.8694585529571137e+00 
-6.8694584852743255e+00 -6.8694584158091807e+00 -6.8694583445147996e+00 -6.8694582713430634e+00 
-6.8694581962446106e+00 -6.8694581191687769e+00 -6.8694580400635852e+00 -6.8694579588756879e+00 
-6.8694578755503706e+00 -6.8694577900314915e+00 -6.8694577022614425e+00 -6.8694576121811313e+00 
-6.8694575197299379e+00 -6.8694574248456854e+00 -6.8694573274645832e+00 -6.8694572275212238e+00 
-6.8694571249485223e+00 -6.8694570196776858e+00 -6.8694569116381832e+00 -6.8694568007577042e+00 
-6.8694566869621179e+00 -6.8694565701754717e+00 -6.8694564503199329e+00 -6.8694563273157581e+00 
-6.8694562010812694e+00 -6.8694560715328503e+00 -6.8694559385848857e+00 -6.8694558021498073e+00 
-6.8694556621380256e+00 -6.8694555184579524e+00 -6.8694553710160218e+00 -6.8694552197166798e+00 
-6.8694550644624321e+00 -6.8694549051538729e+00 -6.8694547416897693e+00 -6.8694545739671158e+00 
-6.8694544018812538e+00 -6.8694542253259963e+00 -6.8694540441938141e+00 -6.8694538583760263e+00 
-6.8694536677630644e+00 -6.8694534722447926e+00 -6.8694532717108583e+00 -6.8694530660511903e+00 
-6.8694528551564851e+00 -6.8694526389189461e+00 -6.8694524172329983e+00 -6.8694521899962577e+00 
-6.8694519571106332e+00 -6.8694517184836137e+00 -6.8694514740298844e+00 -6.8694512236731544e+00 
-6.8694509673483006e+00 -6.8694507050039775e+00 -6.8694504366056552e+00 -6.8694501621391657e+00 
-6.8694498816149068e+00 -6.8694495950728189e+00 -6.8694493025881940e+00 -6.8694490042784553e+00 
-6.8694487003109970e+00 -6.8694483909127610e+00 -6.8694480763812340e+00 -6.8694477570967294e+00 
-6.8694474335376396e+00 -6.8694471062980362e+00 -6.8694467761073676e+00 -6.8694464438541214e+00 
-6.8694461106133184e+00 -6.8694457776779076e+00 -6.8694454465953747e+00 -6.8694451192099670e+00 
-6.8694447977112967e+00 -6.8694444846907139e+00 -6.8694441832048723e+00 -6.8694438968490603e+00 
-6.8694436298418733e+00 -6.8694433871200724e+00 -6.8694431744465101e+00 -6.8694429985316514e+00 
-6.8694428671723342e+00 -6.8694427894046353e+00 -6.8694427756738126e+00 -6.8694428380275872e+00 
-6.8694429903222831e+00 -6.8694432484519066e+00 -6.8694436305981217e+00 -6.8694441574955727e+00 
-6.8694448527173080e+00 -6.8694457429674367e+00 -6.8694468583967963e+00 -6.8694482329180291e+00 
-6.8694499045010708e+00 -6.8694519154849587e+00 -6.8694543128519081e+00 -6.8694571484480900e+00 
-6.8694604791676621e+00 -6.8694643670348743e+00 -6.8694688792076430e+00 -6.8694740878318266e+00 
-6.8694800696888194e+00 -6.8694869057239636e+00 -6.8694946802699910e+00 -6.8695034799613870e+00 
-6.8695133924089085e+00 -6.8695245044383748e+00 -6.8695368999827826e+00 -6.8695506575059699e+00 
-6.8695658469532885e+00 -6.8695825263698920e+00 -6.8696007380189830e+00 -6.8696205040626692e+00 
-6.8696418219493189e+00 -6.8696646597264799e+00 -6.8696889510700849e+00 -6.8697145905028645e+00 
-6.8697414290215679e+00 -6.8697692701743387e+00 -6.8697978671024114e+00 -6.8698269207899489e+00 
-6.8698560798809618e+00 -6.8698849421230923e+00 -6.8699130583404129e+00 -6.8699399385960414e+00 
-6.8699650608291032e+00 -6.8699878824409168e+00 -6.8700078541864356e+00 -6.8700244364332974e+00 
-6.8700392692570533e+00 -6.8700544918388058e+00 -6.8700701150712762e+00 -6.8700861494355809e+00 
-6.8701026058117014e+00 -6.8701194952779581e+00 -6.8701368291950669e+00 -6.8701546192654606e+00 
-6.8701728774868345e+00 -6.8701916161623506e+00 -6.8702108479196617e+00 -6.8702305857370254e+00 
-6.8702508428584892e+00 -6.8702716329694189e+00 -6.8702929701116338e+00 -6.8703148685894053e+00 
-6.8703373432168640e+00 -6.8703604091209938e+00 -6.8703840818205837e+00 -6.8704083772604001e+00 
-6.8704333117630476e+00 -6.8704589021958498e+00 -6.8704851657565476e+00 -6.8705121200581898e+00 
-6.8705397833271213e+00 -6.8705681742036147e+00 -6.8705973116741479e+00 -6.8706272154101056e+00 
-6.8706579055735872e+00 -6.8706894027567476e+00 -6.8707217281763882e+00 -6.8707549034815623e+00 
-6.8707889510340552e+00 -6.8708238938099155e+00 -6.8708597552263271e+00 -6.8708965593496103e+00 
-6.8709343309371285e+00 -6.8709730953631549e+00 -6.8710128787013200e+00 -6.8710537076839913e+00 
-6.8710956096396467e+00 -6.8711386127782497e+00 -6.8711827459666965e+00 -6.8712280388159810e+00 
-6.8712745217466011e+00 -6.8713222258631328e+00 -6.8713711832195221e+00 -6.8714214266494764e+00 
-6.8714729898389617e+00 -6.8715259074107422e+00 -6.8715802147443057e+00 -6.8716359482237230e+00 
-6.8716931452555308e+00 -6.8717518441105661e+00 -6.8718120841226575e+00 -6.8718739055894398e+00 
-6.8719373498432246e+00 -6.8720024594180025e+00 -6.8720692778321775e+00 -6.8721378497149637e+00 
-6.8722082209737838e+00 -6.8722804386498613e+00 -6.8723545509357580e+00 -6.8724306073392718e+00 
-6.8725086586512907e+00 -6.8725887569667714e+00 -6.8726709557642582e+00 -6.8727553098290945e+00 
-6.8728418754033793e+00 -6.8729307102121959e+00 -6.8730218734030073e+00 -6.8731154257500506e+00 
-6.8732114295163624e+00 -6.8733099485251836e+00 -6.8734110483703219e+00 -6.8735147963101220e+00 
-6.8736212612401513e+00 -6.8737305138845759e+00 -6.8738426268445192e+00 -6.8739576744572037e+00 
-6.8740757330705407e+00 -6.8741968810129261e+00 -6.8743211985113071e+00 -6.8744487679020496e+00 
-6.8745796736361378e+00 -6.8747140024021975e+00 -6.8748518429578214e+00 -6.8749932863643091e+00 
-6.8751384261343542e+00 -6.8752873579607030e+00 -6.8754401801147340e+00 -6.8755969934236081e+00 
-6.8757579011155192e+00 -6.8759230090973409e+00 -6.8760924260010228e+00 -6.8762662632050384e+00 
-6.8764446349289532e+00 -6.8766276582051393e+00 -6.8768154530617451e+00 -6.8770081426017358e+00 
-6.8772058529722981e+00 -6.8774087135398894e+00 -6.8776168568854450e+00 -6.8778304189344572e+00 
-6.8780495390528902e+00 -6.8782743600586542e+00 -6.8785050283511167e+00 -6.8787416940069184e+00 
-6.8789845108376086e+00 -6.8792336364569433e+00 -6.8794892324412222e+00 -6.8797514643670050e+00 
-6.8800205019133651e+00 -6.8802965189407326e+00 -6.8805796935935284e+00 -6.8808702084861286e+00 
-6.8811682507006662e+00 -6.8814740118349027e+00 -6.8817876882346534e+00 -6.8821094811029111e+00 
-6.8824395964943381e+00 -6.8827782455334701e+00 -6.8831256444397289e+00 -6.8834820146279387e+00 
-6.8838475830031820e+00 -6.8842225819057070e+00 -6.8846072491712151e+00 -6.8850018284199326e+00 
-6.8854065691855855e+00 -6.8858217268863289e+00 -6.8862475629728896e+00 -6.8866843452130091e+00 
-6.8871323477115629e+00 -6.8875918510039691e+00 -6.8880631421894885e+00 -6.8885465151704386e+00 
-6.8890422707098100e+00 -6.8895507166156209e+00 -6.8900721678646910e+00 -6.8906069465207107e+00 
-6.8911553822809051e+00 -6.8917178124179115e+00 -6.8922945817613597e+00 -6.8928860430840091e+00 
-6.8934925572048122e+00 -6.8941144930062306e+00 -6.8947522276393576e+00 -6.8954061467336629e+00 
-6.8960766444945643e+00 -6.8967641239273592e+00 -6.8974689967088869e+00 -6.8981916836141597e+00 
-6.8989326147448180e+00 -6.8996922292666873e+00 -6.9004709758241427e+00 -6.9012693127544056e+00 
-6.9020877080973335e+00 -6.9029266396670463e+00 -6.9037865953105166e+00 -6.9046680730746290e+00 
-6.9055715811929161e+00 -6.9064976383192933e+00 -6.9074467735487133e+00 -6.9084195266345434e+00 
-6.9094164481871481e+00 -6.9104380996210653e+00 -6.9114850532409156e+00 -6.9125578924100433e+00 
-6.9136572117391308e+00 -6.9147836170543258e+00 -6.9159377254548060e+00 -6.9171201654515535e+00 
-6.9183315770521254e+00 -6.9195726117585421e+00 -6.9208439325612296e+00 -6.9221462140698229e+00 
-6.9234801424869179e+00 -6.9248464156674974e+00 -6.9262457430529460e+00 -6.9276788456049578e+00 
-6.9291464559041671e+00 -6.9306493179656563e+00 -6.9321881873133817e+00 -6.9337638307957832e+00 
-6.9353770264034003e+00 -6.9370285633244233e+00 -6.9387192417246304e+00 -6.9404498725083004e+00 
-6.9422212771288372e+00 -6.9440342875369989e+00 -6.9458897458062605e+00 -6.9477885037599192e+00 
-6.9497314227839100e+00 -6.9517193735273111e+00 -6.9537532354690184e+00 -6.9558338964899944e+00 
-6.9579622525065483e+00 -6.9601392069654784e+00 -6.9623656702460623e+00 -6.9646425591055410e+00 
-6.9669707962809051e+00 -6.9693513096890296e+00 -6.9717850316032850e+00 -6.9742728981251405e+00 
-6.9768158482566358e+00 -6.9794148231204067e+00 -6.9820707650460037e+00 -6.9847846165103640e+00 
-6.9875573192578324e+00 -6.9903898130997035e+00 -6.9932830348164581e+00 -6.9962379169396778e+00 
-6.9992553864155695e+00 -7.0023363633477862e+00 -7.0054817594829508e+00 -7.0086924767023842e+00 
-7.0119694054539803e+00 -7.0153134231331036e+00 -7.0187253923319917e+00 -7.0222061589385394e+00 
-7.0257565501759727e+00 -7.0293773728070263e+00 -7.0330694109805094e+00 -7.0368334237983898e+00 
-7.0406701432718162e+00 -7.0445802720159287e+00 -7.0485644805977534e+00 -7.0526234049590002e+00 
-7.0567576439333370e+00 -7.0609677563809585e+00 -7.0652542582800724e+00 -7.0696176198338607e+00 
-7.0740582623811665e+00 -7.0785765552602786e+00 -7.0831728124731237e+00 -7.0878472894416351e+00 
-7.0926001795452898e+00 -7.0974316102764776e+00 -7.1023416400281087e+00 -7.1073302542542880e+00 
-7.1123973612758880e+00 -7.1175427888082989e+00 -7.1227662798239857e+00 -7.1280674883070736e+00 
-7.1334459753564818e+00 -7.1389012049942329e+00 -7.1444325396396087e+00 -7.1500392358617963e+00 
-7.1557204402033543e+00 -7.1614751846553171e+00 -7.1673023821196420e+00 -7.1732008220361898e+00 
-7.1791691658913859e+00 -7.1852059427903505e+00 -7.1913095449888722e+00 -7.1974782232786927e+00 
-7.2037100828243030e+00 -7.2100030787929112e+00 -7.2163550118178055e+00 -7.2227635240041783e+00 
-7.2292260949002678e+00 -7.2357400372367371e+00 -7.2423024931876574e+00 -7.2489104307297714e+00 
-7.2555606399723551e+00 -7.2622497298654149e+00 -7.2689741249359976e+00 -7.2757300623987096e+00 
-7.2825135896172037e+00 -7.2893205615047894e+00 -7.2961466383400655e+00 -7.3029872841566768e+00 
-7.3098377652025590e+00 -7.3166931486892191e+00 -7.3235483021178505e+00 -7.3303978930262312e+00 
-7.3372363889735945e+00 -7.3440580580217638e+00 -7.3508569698562924e+00 -7.3576269971574630e+00 
-7.3643618175977759e+00 -7.3710549164067647e+00 -7.3776995893852666e+00 -7.3842889465907238e+00 
-7.3908159164151837e+00 -7.3972732504737326e+00 -7.4036535290651599e+00 -7.4099491671120088e+00 
-7.4161524208740666e+00 -7.4222553951904269e+00 -7.4282500515530572e+00 -7.4341282167164859e+00 
-7.4398815918371577e+00 -7.4455017625701929e+00 -7.4509802096841309e+00 -7.4563083202189446e+00 
-7.4614773994361849e+00 -7.4664786835113324e+00 -7.4713033526359185e+00 -7.4759425448170056e+00 
-7.4803873704779624e+00 -7.4846289273870328e+00 -7.4886583163178919e+00 -7.4924666572252319e+00 
-7.4960451059707012e+00 -7.4993848715824480e+00 -7.5024772338383316e+00 -7.5053135615101922e+00 
-7.5078853309411171e+00 -7.5101841448903981e+00 -7.5122017518896804e+00 -7.5139300658776920e+00 
-7.5153611860099119e+00 -7.5164874167625291e+00 -7.5173012882639920e+00 -7.5177955767002862e+00 
-7.5179633248727873e+00 -7.5177978628037581e+00 -7.5172928283275757e+00 -7.5164421876929479e+00 
-7.5152402560979290e+00 -7.5136817181017452e+00 -7.5117616477870879e+00 -7.5094755288502633e+00 
-7.5068192744311508e+00 -7.5037892465291449e+00 -7.5003822751670359e+00 -7.4965956772252555e+00 
-7.4924272748104439e+00 -7.4878754131711842e+00 -7.4829389781560547e+00 -7.4776174131126556e+00 
-7.4719107353104528e+00 -7.4658195516897274e+00 -7.4593450740129175e+00 -7.4524891335150372e+00 
-7.4452541947122253e+00 -7.4376433685505994e+00 -7.4296604249788318e+00 -7.4213098047081552e+00 
-7.4125966302234705e+00 -7.4035267160623919e+00 -7.3941065783479472e+00 -7.3843434435755473e+00 
-7.3742452565640129e+00 -7.3638206876608194e+00 -7.3530791391882788e+00 -7.3420307510873677e+00 
-7.3306864057811900e+00 -7.3190577322884325e+00 -7.3071571095321222e+00 -7.2949976689272908e+00 
-7.2825932962020588e+00 -7.2699586324060936e+00 -7.2571090742795237e+00 -7.2440607738019640e+00 
-7.2308306370366120e+00 -7.2174363222602391e+00 -7.2038962373035851e+00 -7.1902295362180020e+00 
-7.1764561151778761e+00 -7.1625966076143861e+00 -7.1486723785903612e+00 -7.1347055183925754e+00 
-7.1207188352995932e+00 -7.1067358474699578e+00 -7.0927807739447974e+00 -7.0788785246948471e+00 
-7.0650546896047235e+00 -7.0513355264165103e+00 -7.0377479474593292e+00 -7.0243195050401193e+00 
-7.0110783755025201e+00 -6.9980533417431419e+00 -6.9852737740332795e+00 -6.9727696090395943e+00 
-6.9605713268581884e+00 -6.9487099258698741e+00 -6.9372168952381736e+00 -6.9261241848314485e+00 
-6.9154641723351533e+00 -6.9052696273590088e+00 -6.8955736722510625e+00 -6.8864097393834953e+00 
-6.8778115246738594e+00 -6.8698129370146761e+00 -6.8624480433879462e+00 -6.8557510093927672e+00 
-6.8497560348821489e+00 -6.8444972844705863e+00 -6.8400088126453831e+00 -6.8363244832283838e+00 
-6.8334778829885217e+00 -6.8315022291698302e+00 -6.8304302707551239e+00 -6.8302941833410857e+00 
-6.8311254574944797e+00 -6.8329547805314830e+00 -6.8358119116985252e+00 -6.8397255508107513e+00 
-6.8447232004426919e+00 -6.8508310218518567e+00 -6.8580736849123642e+00 -6.8664742123939311e+00 
-6.8760538190403215e+00 -6.8868317459989097e+00 -6.8988250912776650e+00 -6.9120486370131511e+00 
-6.9265146744856301e+00 -6.9422328279394208e+00 -6.9592098784177514e+00 -6.9774495890050776e+00 
-6.9969525329909956e+00 -7.0177159266656579e+00 -7.0397334686275030e+00 -7.0629951876634882e+00 
-7.0874873014419171e+00 -7.1131920884190958e+00 -7.1400877755647700e+00 -7.1681484446901154e+00 
-7.1973439602885971e+00 -7.2276399219806278e+00 -7.2589976447925721e+00 -7.2913741705964510e+00 
-7.3247223141462117e+00 -7.3589907471877627e+00 -7.3941241241526319e+00 -7.4300632529077237e+00 
-7.4667453139685405e+00 -7.5041041314404726e+00 -7.5420704987290401e+00 -7.5805725618086415e+00 
-7.6195362624409206e+00 -7.6588858432811726e+00 -7.6985444162425214e+00 -7.7384345947976607e+00 
-7.7784791901121517e+00 -7.8186019699589266e+00 -7.8587284783221314e+00 -7.8987869123855674e+00 
-7.9387090522714416e+00 -7.9784312374410442e+00 -8.0178953820310230e+00 -8.0570500196895374e+00 
-8.0958513666289651e+00 -8.1342643896403768e+00 -8.1722638638163101e+00 -8.2098354026390048e+00 
-8.2469764409892861e+00 -8.2836971495776144e+00 -8.3200212573036758e+00 -8.3559867561816770e+00 
-8.3916464618164230e+00 -8.4270684010296701e+00 -8.4623358529458343e+00 -8.4975478695670095e+00 
-8.5328181309943929e+00 -8.5682748906973281e+00 -8.6040599215400313e+00 -8.6403272501170871e+00 
-8.6772415242220848e+00 -8.7149759944730985e+00 -8.7537100996368551e+00 -8.7936266485881198e+00 
-8.8349086048940393e+00 -8.8777354841950604e+00 -8.9222793924839205e+00 -8.9687007393102718e+00 
-9.0171436805039811e+00 -9.0677313546712845e+00 -9.1205609989453276e+00 -9.1756990419231510e+00 
-9.2331762929920913e+00 -9.2929833603045946e+00 -9.3550664482930763e+00 -9.4193236984824651e+00 
-9.4856022465042251e+00 -9.5536961801322207e+00 -9.6233455787838231e+00 -9.6942368157158558e+00 
-9.7660042878370330e+00 -9.8382337182389197e+00 -9.9104671439524523e+00 -9.9822096572884575e+00 
-1.0052937918395793e+01 -1.0122110386887490e+01 -1.0189179151353651e+01 -1.0253603151686733e+01 
-1.0314862504738153e+01 -1.0372473559921348e+01 -1.0426004229219082e+01 -1.0475101410663623e+01 
-1.0519468374222416e+01 -1.0558876655598317e+01 -1.0593301949782997e+01 -1.0622745087891609e+01 
-1.0647348578533803e+01 -1.0667372360124361e+01 -1.0683190002831807e+01 -1.0695280116216374e+01 
-1.0704212725145894e+01 -1.0710630544136171e+01 -1.0715225284732492e+01 -1.0718709362485598e+01 
-1.0721783638576969e+01 -1.0725102117398075e+01 -1.0729234828197480e+01 -1.0734630422390364e+01 
-1.0741580303695708e+01 -1.0750186350135310e+01 -1.0760334459223957e+01 -1.0771676219906153e+01 
-1.0783620958358236e+01 -1.0795340197797019e+01 -1.0805786187307049e+01 -1.0813725588651453e+01 
-1.0817788654417292e+01 -1.0816533301539485e+01 -1.0808522406089557e+01 -1.0792411458146342e+01 
-1.0767042480021013e+01 -1.0731538898522338e+01 -1.0685394967740024e+01 -1.0628552469376267e+01 
-1.0561456901447611e+01 -1.0485085335938070e+01 -1.0400938725213640e+01 -1.0310992789644507e+01 
-1.0217603823570760e+01 -1.0123368850288085e+01 -1.0030943487708026e+01 -9.9428254919079180e+00 
-9.8611169203309057e+00 -9.7872827589833165e+00 -9.7219281188307551e+00 -9.6646190747853389e+00 
-9.6137732307194348e+00 -9.5666445537681160e+00 -9.5194225047307501e+00 -9.4674578311240687e+00 
-9.4056167282270522e+00 -9.3287519075474812e+00 -9.2322642719489991e+00 -9.1127135348330128e+00 
-8.9684216869732900e+00 -8.8000014601535543e+00 -8.6107349308643304e+00 -8.4067274854602356e+00 
-8.1967721508762068e+00 -7.9918792785481250e+00 -7.8044735860810235e+00 -7.6471786697159336e+00 
-7.5324578142441574e+00 -7.4623083916411597e+00 -7.3729904274428346e+00 -7.2778511516548932e+00 
-7.1838416962521565e+00 -7.0902130586258281e+00 -6.9970977666211738e+00 -6.9046228855906122e+00 
-6.8129892875785583e+00 -6.7224443009231729e+00 -6.6332520847191541e+00 -6.5456836019062532e+00 
-6.4600002515375845e+00 -6.3761693622051085e+00 -6.2937702243219293e+00 -6.2124827678929853e+00 
-6.1322448704222632e+00 -6.0530430277683687e+00 -5.9748639030252635e+00 -5.8976943252506269e+00 
-5.8215212881124279e+00 -5.7463319484653566e+00 -5.6721136248707404e+00 -5.5988537960648985e+00 
-5.5265400993808722e+00 -5.4551603291303090e+00 -5.3847024349634260e+00 -5.3151545201887247e+00 
-5.2465048400825713e+00 -5.1787418001783720e+00 -5.1118539545498169e+00 -5.0458300040749009e+00 
-4.9806587947084031e+00 -4.9163293157525203e+00 -4.8528306981130740e+00 -4.7901522125857054e+00 
-4.7282832681325697e+00 -4.6672134101617138e+00 -4.6069323188438576e+00 -4.5474298074061199e+00 
-4.4886958204708183e+00 -4.4307204323831746e+00 -4.3734938455725194e+00 -4.3170063889190997e+00 
-4.2612485161408147e+00 -4.2062108041986326e+00 -4.1518839517153552e+00 -4.0982587774127097e+00 
-4.0453262185771344e+00 -3.9930773295219648e+00 -3.9415032800945213e+00 -3.8905953541717060e+00 
-3.8403449482105581e+00 -3.7907435697757275e+00 -3.7417828361197403e+00 -3.6934544727623346e+00 
-3.6457503120937385e+00 -3.5986622919950144e+00 -3.5521824544758789e+00 -3.5063029443300988e+00 
-3.4610160078081158e+00 -3.4163139913067408e+00 -3.3721893400757081e+00 -3.3286345969409470e+00 
-3.2856424010443006e+00 -3.2432054865994786e+00 -3.2013166816641401e+00 -3.1599689069278076e+00 
-3.1191551745154293e+00 -3.0788685868063470e+00 -3.0391023352686788e+00 -2.9998496993085717e+00 
-2.9611040451344239e+00 -2.9228588246357980e+00 -2.8851075742767276e+00 -2.8478439140034144e+00 
-2.8110615461659516e+00 -2.7747542544540904e+00 -2.7389159028465686e+00 -2.7035404345742089e+00 
-2.6686218710962701e+00 -2.6341543110900756e+00 -2.6001319294537297e+00 -2.5665489763216245e+00 
-2.5333997760926796e+00 -2.5006787264712504e+00 -2.4683802975202345e+00 -2.4364990307265693e+00 
-2.4050295380787099e+00 -2.3739665011560338e+00 -2.3433046702300357e+00 -2.3130388633771086e+00 
-2.2831639656027747e+00 -2.2536749279772654e+00 -2.2245667667821758e+00 -2.1958345626682805e+00 
-2.1674734598240861e+00 -2.1394786651552056e+00 -2.1118454474743191e+00 -2.0845691367015542e+00 
-2.0576451230752490e+00 -2.0310688563728716e+00 -2.0048358451420261e+00 -1.9789416559413611e+00 
-1.9533819125913099e+00 -1.9281522954345043e+00 -1.9032485406057214e+00 -1.8786664393112793e+00 
-1.8544018371177231e+00 -1.8304506332497377e+00 -1.8068087798970647e+00 -1.7834722815304482e+00 
-1.7604371942263279e+00 -1.7376996250003405e+00 -1.7152557311493897e+00 -1.6931017196021865e+00 
-1.6712338462782479e+00 -1.6496484154551063e+00 -1.6283417791437518e+00 -1.6073103364720722e+00 
-1.5865505330763272e+00 -1.5660588605004562e+00 -1.5458318556031150e+00 -1.5258660999723841e+00 
-1.5061582193481549e+00 -1.4867048830517104e+00 -1.4675028034229578e+00 -1.4485487352647510e+00 
-1.4298394752944534e+00 -1.4113718616026034e+00 -1.3931427731185042e+00 -1.3751491290827778e+00 
-1.3573878885267405e+00 -1.3398560497583845e+00 -1.3225506498551860e+00 -1.3054687641632916e+00 
-1.2886075058033211e+00 -1.2719640251823829e+00 -1.2555355095125686e+00 -1.2393191823355223e+00 
-1.2233123030532909e+00 -1.2075121664650741e+00 -1.1919161023100953e+00 -1.1765214748162998e+00 
-1.1613256822548941e+00 -1.1463261565006857e+00 -1.1315203625980237e+00 -1.1169057983323905e+00 
-1.1024799938075520e+00 -1.0882405110281261e+00 -1.0741849434875281e+00 -1.0603109157613126e+00 
-1.0466160831056535e+00 -1.0330981310611702e+00 -1.0197547750617058e+00 -1.0065837600482337e+00 
-9.9358286008780428e-01 -9.8074987799728552e-01 -9.6808264497209195e-01 -9.5557902021960306e-01 
-9.4323689059741656e-01 -9.3105417025617232e-01 -9.1902880028705192e-01 -9.0715874837386179e-01 
-8.9544200844949173e-01 -8.8387660035696292e-01 -8.7246056951470397e-01 -8.6119198658628038e-01 
-8.5006894715429160e-01 -8.3908957139854923e-01 -8.2825200377836883e-01 -8.1755441271898244e-01 
-8.0699499030197297e-01 -7.9657195195979569e-01 -7.8628353617410707e-01 -7.7612800417810535e-01 
-7.6610363966267880e-01 -7.5620874848633013e-01 -7.4644165838884402e-01 -7.3680071870874486e-01 
-7.2728430010422207e-01 -7.1789079427784741e-01 -7.0861861370477341e-01 -6.9946619136436838e-01 
-6.9043198047544774e-01 -6.8151445423485180e-01 -6.7271210555938488e-01 -6.6402344683115522e-01 
-6.5544700964615199e-01 -6.4698134456603729e-01 -6.3862502087324502e-01 -6.3037662632918767e-01 
-6.2223476693551816e-01 -6.1419806669860000e-01 -6.0626516739698300e-01 -5.9843472835175593e-01 
-5.9070542620009125e-01 -5.8307595467151452e-01 -5.7554502436716248e-01 -5.6811136254187977e-01 
-5.6077371288912281e-01 -5.5353083532861802e-01 -5.4638150579682199e-01 -5.3932451604001663e-01 
-5.3235867341012888e-01 -5.2548280066316921e-01 -5.1869573576025907e-01 -5.1199633167129521e-01 
-5.0538345618102865e-01 -4.9885599169774580e-01 -4.9241283506442962e-01 -4.8605289737225216e-01 
-4.7977510377660920e-01 -4.7357839331545337e-01 -4.6746171872993875e-01 -4.6142404628663203e-01 
-4.5546435560640469e-01 -4.4958163948631857e-01 -4.4377490373335365e-01 -4.3804316699535417e-01 
-4.3238546059515137e-01 -4.2680082836691263e-01 -4.2128832649449227e-01 -4.1584702335196144e-01 
-4.1047599934613216e-01 -4.0517434676116609e-01 -3.9994116960515574e-01 -3.9477558345870734e-01 
-3.8967671532546749e-01 -3.8464370348458587e-01 -3.7967569734508261e-01 -3.7477185730209528e-01 
-3.6993135459498550e-01 -3.6515337116727459e-01 -3.6043709952839126e-01 -3.5578174261720341e-01 
-3.5118651366731224e-01 -3.4665063607408936e-01 -3.4217334326342502e-01 -3.3775387856217787e-01 
-3.3339149507029464e-01 -3.2908545553458229e-01 -3.2483503222411048e-01 -3.2063950680722331e-01 
-3.1649817023013971e-01 -3.1241032259712126e-01 -3.0837527305218843e-01 -3.0439233966236434e-01 
-3.0046084930242661e-01 -2.9658013754114682e-01 -2.9274954852900087e-01 -2.8896843488732860e-01 
-2.8523615759892501e-01 -2.8155208590004477e-01 -2.7791559717380349e-01 -2.7432607684495058e-01 
-2.7078291827600698e-01 -2.6728552266474159e-01 -2.6383329894297192e-01 -2.6042566367667247e-01 
-2.5706204096737245e-01 -2.5374186235482860e-01 -2.5046456672095291e-01 -2.4722960019498291e-01 
-2.4403641605987628e-01 -2.4088447465991406e-01 -2.3777324330949764e-01 -2.3470219620312385e-01 
-2.3167081432652242e-01 -2.2867858536894101e-01 -2.2572500363656414e-01 -2.2280956996704884e-01 
-2.1993179164516666e-01 -2.1709118231953148e-01 -2.1428726192040629e-01 -2.1151955657857008e-01 
-2.0878759854523263e-01 -2.0609092611298405e-01 -2.0342908353776487e-01 -2.0080162096184448e-01 
-1.9820809433779391e-01 -1.9564806535344087e-01 -1.9312110135779392e-01 -1.9062677528792335e-01 
-1.8816466559678652e-01 -1.8573435618198572e-01 -1.8333543631544538e-01 -1.8096750057399846e-01 
-1.7863014877086869e-01 -1.7632298588803788e-01 -1.7404562200948828e-01 -1.7179767225530371e-01 
-1.6957875671662531e-01 -1.6738850039144590e-01 -1.6522653312123348e-01 -1.6309248952837369e-01 
-1.6098600895442003e-01 -1.5890673539914199e-01 -1.5685431746035977e-01 -1.5482840827455685e-01 
-1.5282866545825891e-01 -1.5085475105017040e-01 -1.4890633145405829e-01 -1.4698307738237340e-01 
-1.4508466380060006e-01 -1.4321076987232451e-01 -1.4136107890501295e-01 -1.3953527829648910e-01 
-1.3773305948210504e-01 -1.3595411788259146e-01 -1.3419815285258407e-01 -1.3246486762981327e-01 
-1.3075396928495114e-01 -1.2906516867210524e-01 -1.2739818037995254e-01 -1.2575272268350407e-01 
-1.2412851749649273e-01 -1.2252529032437617e-01 -1.2094277021794649e-01 -1.1938068972753908e-01 
-1.1783878485783328e-01 -1.1631679502323614e-01 -1.1481446300384314e-01 -1.1333153490196730e-01 
-1.1186776009922995e-01 -1.1042289121420525e-01 -1.0899668406061311e-01 -1.0758889760604987e-01 
-1.0619929393125403e-01 -1.0482763818989718e-01 -1.0347369856889434e-01 -1.0213724624922704e-01 
-1.0081805536727240e-01 -9.9515902976631543e-02 -9.8230569010451213e-02 -9.6961836244231922e-02 
-9.5709490259116431e-02 -9.4473319405652609e-02 -9.3253114768023962e-02 -9.2048670128742544e-02 
-9.0859781933797637e-02 -8.9686249258254580e-02 -8.8527873772298163e-02 -8.7384459707713982e-02 
-8.6255813824804045e-02 -8.5141745379727671e-02 
</PP_LOCAL>


<PP_NONLOCAL>
  <PP_BETA>
  1  1      Beta    L
  1125  
 -1.1081159244214260e-07  -1.1373047495642802e-07  -1.1672624360822544e-07  -1.1980092365151383e-07 
 -1.2295659368739298e-07  -1.2619538706929775e-07  -1.2951949334522789e-07  -1.3293115973796576e-07 
 -1.3643269266428581e-07  -1.4002645929418151e-07  -1.4371488915116283e-07  -1.4750047575470852e-07 
 -1.5138577830598048e-07  -1.5537342341794371e-07  -1.5946610689105629e-07  -1.6366659553573639e-07 
 -1.6797772904283127e-07  -1.7240242190335903e-07  -1.7694366537881672e-07  -1.8160452952338844e-07 
 -1.8638816525942168e-07  -1.9129780650757103e-07  -1.9633677237305532e-07  -2.0150846938950002e-07 
 -2.0681639382188704e-07  -2.1226413403016375e-07  -2.1785537289511471e-07  -2.2359389030813146e-07 
 -2.2948356572656565e-07  -2.3552838079639215e-07  -2.4173242204395818e-07  -2.4809988363863124e-07 
 -2.5463507022822346e-07  -2.6134239984909908e-07  -2.6822640691293894e-07  -2.7529174527218012e-07 
 -2.8254319136620138e-07  -2.8998564745038172e-07  -2.9762414491021683e-07  -3.0546384766273215e-07 
 -3.1351005564749167e-07  -3.2176820840956421e-07  -3.3024388877687071e-07  -3.3894282663439123e-07 
 -3.4787090279779333e-07  -3.5703415298909402e-07  -3.6643877191704332e-07  -3.7609111746499160e-07 
 -3.8599771498906910e-07  -3.9616526172958102e-07  -4.0660063133860768e-07  -4.1731087852686109e-07 
 -4.2830324383295140e-07  -4.3958515851827277e-07  -4.5116424959083209e-07  -4.6304834496140556e-07 
 -4.7524547873551924e-07  -4.8776389664481814e-07  -5.0061206162151111e-07  -5.1379865951964631e-07 
 -5.2733260498709664e-07  -5.4122304749221303e-07  -5.5547937750923013e-07  -5.7011123286660072e-07 
 -5.8512850526255446e-07  -6.0054134695227781e-07  -6.1636017761124682e-07  -6.3259569137934214e-07 
 -6.4925886409052171e-07  -6.6636096069291936e-07  -6.8391354286440445e-07  -7.0192847682874293e-07 
 -7.2041794137764232e-07  -7.3939443610410512e-07  -7.5887078985266039e-07  -7.7886016939218251e-07 
 -7.9937608831715952e-07  -8.2043241618343194e-07  -8.4204338788457969e-07  -8.6422361327528584e-07 
 -8.8698808704819832e-07  -9.1035219887095414e-07  -9.3433174379022546e-07  -9.5894293290981707e-07 
 -9.8420240435004555e-07  -1.0101272344957866e-06  -1.0367349495408223e-06  -1.0640435373362691e-06 
 -1.0920714595511142e-06  -1.1208376641530690e-06  -1.1503615982181826e-06  -1.1806632210778831e-06 
 -1.2117630178123099e-06  -1.2436820130990985e-06  -1.2764417854269406e-06  -1.3100644816835492e-06 
 -1.3445728321278947e-06  -1.3799901657568211e-06  -1.4163404260764382e-06  -1.4536481872889493e-06 
 -1.4919386709058676e-06  -1.5312377627988277e-06  -1.5715720306995563e-06  -1.6129687421607975e-06 
 -1.6554558829903593e-06  -1.6990621761707315e-06  -1.7438171012770673e-06  -1.7897509144066699e-06 
 -1.8368946686334261e-06  -1.8852802350010664e-06  -1.9349403240693750e-06  -1.9859085080279833e-06 
 -2.0382192433926699e-06  -2.0919078942994823e-06  -2.1470107564124877e-06  -2.2035650814612647e-06 
 -2.2616091024247610e-06  -2.3211820593784994e-06  -2.3823242260226768e-06  -2.4450769369090013e-06 
 -2.5094826153847563e-06  -2.5755848022729344e-06  -2.6434281853078533e-06  -2.7130586293461316e-06 
 -2.7845232073734693e-06  -2.8578702323282242e-06  -2.9331492897631855e-06  -3.0104112713678113e-06 
 -3.0897084093734053e-06  -3.1710943118646070e-06  -3.2546239990210518e-06  -3.3403539403136584e-06 
 -3.4283420926807541e-06  -3.5186479397098068e-06  -3.6113325318512406e-06  -3.7064585276915834e-06 
 -3.8040902363137820e-06  -3.9042936607733778e-06  -4.0071365427199008e-06  -4.1126884081936630e-06 
 -4.2210206146289232e-06  -4.3322063990951885e-06  -4.4463209278092327e-06  -4.5634413469514569e-06 
 -4.6836468348206858e-06  -4.8070186553629438e-06  -4.9336402131101801e-06  -5.0635971095662497e-06 
 -5.1969772010781339e-06  -5.3338706582316508e-06  -5.4743700268117116e-06  -5.6185702903684249e-06 
 -5.7665689344312712e-06  -5.9184660124148176e-06  -6.0743642132605324e-06  -6.2343689308603963e-06 
 -6.3985883353092328e-06  -6.5671334460340903e-06  -6.7401182068498335e-06  -6.9176595629919953e-06 
 -7.0998775401787560e-06  -7.2868953257555969e-06  -7.4788393519774883e-06  -7.6758393814849542e-06 
 -7.8780285950316615e-06  -8.0855436815230262e-06  -8.2985249304266588e-06  -8.5171163266170452e-06 
 -8.7414656477187241e-06  -8.9717245640136895e-06  -9.2080487409805549e-06  -9.4505979445349563e-06 
 -9.6995361490421600e-06  -9.9550316481749953e-06  -1.0217257168692172e-05  -1.0486389987213675e-05 
 -1.0762612050072502e-05  -1.1046110096323419e-05  -1.1337075783992353e-05  -1.1635705819651250e-05 
 -1.1942202091406611e-05  -1.2256771805391178e-05  -1.2579627625851158e-05  -1.2910987818923874e-05 
 -1.3251076400202997e-05  -1.3600123286190954e-05  -1.3958364449741205e-05  -1.4326042079595357e-05 
 -1.4703404744122925e-05  -1.5090707559374667e-05  -1.5488212361562961e-05  -1.5896187884085953e-05 
 -1.6314909939215045e-05  -1.6744661604568888e-05  -1.7185733414499585e-05  -1.7638423556520904e-05 
 -1.8103038072911037e-05  -1.8579891067626392e-05  -1.9069304918666440e-05  -1.9571610496032992e-05 
 -2.0087147385431482e-05  -2.0616264117865413e-05  -2.1159318405279517e-05  -2.1716677382410611e-05 
 -2.2288717855009980e-05  -2.2875826554605088e-05  -2.3478400399972809e-05  -2.4096846765501366e-05 
 -2.4731583756621964e-05  -2.5383040492496899e-05  -2.6051657396154899e-05  -2.6737886492270418e-05 
 -2.7442191712787815e-05  -2.8165049210597418e-05  -2.8906947681475710e-05  -2.9668388694506822e-05 
 -3.0449887031209907e-05  -3.1251971033600610e-05  -3.2075182961422807e-05  -3.2920079358792090e-05 
 -3.3787231430498924e-05  -3.4677225428226040e-05  -3.5590663046941546e-05  -3.6528161831735438e-05 
 -3.7490355595375291e-05  -3.8477894846863232e-05  -3.9491447231284231e-05  -4.0531697981243233e-05 
 -4.1599350380196719e-05  -4.2695126237991825e-05  -4.3819766378935304e-05  -4.4974031142721716e-05 
 -4.6158700898560796e-05  -4.7374576572850754e-05  -4.8622480190755848e-05  -4.9903255432053147e-05 
 -5.1217768201626146e-05  -5.2566907214989653e-05  -5.3951584599244189e-05  -5.5372736509864413e-05 
 -5.6831323763740446e-05  -5.8328332488900007e-05  -5.9864774791350863e-05  -6.1441689439495521e-05 
 -6.3060142566580634e-05  -6.4721228391656803e-05  -6.6426069959537313e-05  -6.8175819900255792e-05 
 -6.9971661208537302e-05  -7.1814808043810493e-05  -7.3706506551302181e-05  -7.5648035704770363e-05 
 -7.7640708171446271e-05  -7.9685871199770670e-05  -8.1784907530525977e-05  -8.3939236331979483e-05 
 -8.6150314159674370e-05  -8.8419635941513840e-05  -9.0748735988809129e-05  -9.3139189033973740e-05 
 -9.5592611295567783e-05  -9.8110661571413748e-05  -1.0069504236052276e-04  -1.0334750101459271e-04 
 -1.0606983091985726e-04  -1.0886387271008660e-04  -1.1173151551156164e-04  -1.1467469822086454e-04 
 -1.1769541081635177e-04  -1.2079569570419823e-04  -1.2397764909992387e-04  -1.2724342244633952e-04 
 -1.3059522386887223e-04  -1.3403531966925609e-04  -1.3756603585860235e-04  -1.4118975973088617e-04 
 -1.4490894147791626e-04  -1.4872609584688440e-04  -1.5264380384161563e-04  -1.5666471446867418e-04 
 -1.6079154652950890e-04  -1.6502709045985192e-04  -1.6937421021761924e-04  -1.7383584522059377e-04 
 -1.7841501233520243e-04  -1.8311480791773972e-04  -1.8793840990941887e-04  -1.9288907998667407e-04 
 -1.9797016576817225e-04  -2.0318510308003110e-04  -2.0853741828078058e-04  -2.1403073064764496e-04 
 -2.1966875482576812e-04  -2.2545530334203923e-04  -2.3139428918523069e-04  -2.3748972845419504e-04 
 -2.4374574307592297e-04  -2.5016656359530477e-04  -2.5675653203849401e-04  -2.6352010485181186e-04 
 -2.7046185591819455e-04  -2.7758647965323122e-04  -2.8489879418289291e-04  -2.9240374460511698e-04 
 -3.0010640633746028e-04  -3.0801198855309568e-04  -3.1612583770749376e-04  -3.2445344115817904e-04 
 -3.3300043088002948e-04  -3.4177258727864163e-04  -3.5077584310435906e-04  -3.6001628746962000e-04 
 -3.6950016997237156e-04  -3.7923390492833900e-04  -3.8922407571504602e-04  -3.9947743923053310e-04 
 -4.1000093046981908e-04  -4.2080166722221335e-04  -4.3188695489268752e-04  -4.4326429145058455e-04 
 -4.5494137250903994e-04  -4.6692609653858013e-04  -4.7922657021845104e-04  -4.9185111392931787e-04 
 -5.0480826739109801e-04  -5.1810679544976091e-04  -5.3175569401704508e-04  -5.4576419616715458e-04 
 -5.6014177839458805e-04  -5.7489816703737418e-04  -5.9004334487011169e-04  -6.0558755787130350e-04 
 -6.2154132216962310e-04  -6.3791543117384909e-04  -6.5472096289136042e-04  -6.7196928744017812e-04 
 -6.8967207475971091e-04  -7.0784130252546970e-04  -7.2648926427318285e-04  -7.4562857773786061e-04 
 -7.6527219341353714e-04  -7.8543340333954144e-04  -8.0612585011933678e-04  -8.2736353617810442e-04 
 -8.4916083326542038e-04  -8.7153249220955757e-04  -8.9449365293010582e-04  -9.1805985471577628e-04 
 -9.4224704677448056e-04  -9.6707159906290942e-04  -9.9255031340306633e-04  -1.0187004348934210e-03 
 -1.0455396636225092e-03  -1.0730861666930784e-03  -1.1013585905650335e-03  -1.1303760737257148e-03 
 -1.1601582596962217e-03  -1.1907253103827984e-03  -1.2220979197824469e-03  -1.2542973280522686e-03 
 -1.2873453359522617e-03  -1.3212643196715314e-03  -1.3560772460482022e-03  -1.3918076881935602e-03 
 -1.4284798415312382e-03  -1.4661185402625640e-03  -1.5047492742695213e-03  -1.5443982064670104e-03 
 -1.5850921906164826e-03  -1.6268587896133351e-03  -1.6697262942607703e-03  -1.7137237425431926e-03 
 -1.7588809394125612e-03  -1.8052284771015027e-03  -1.8527977559773159e-03  -1.9016210059514900e-03 
 -1.9517313084596215e-03  -2.0031626190271479e-03  -2.0559497904366554e-03  -2.1101285965130267e-03 
 -2.1657357565430472e-03  -2.2228089603466548e-03  -2.2813868940173990e-03  -2.3415092663502178e-03 
 -2.4032168359751495e-03  -2.4665514392160264e-03  -2.5315560186938628e-03  -2.5982746526950467e-03 
 -2.6667525853251643e-03  -2.7370362574696983e-03  -2.8091733385835703e-03  -2.8832127593320456e-03 
 -2.9592047451061291e-03  -3.0372008504363345e-03  -3.1172539943291932e-03  -3.1994184965517657e-03 
 -3.2837501148899541e-03  -3.3703060834072507e-03  -3.4591451517312554e-03  -3.5503276253960620e-03 
 -3.6439154072694610e-03  -3.7399720400946232e-03  -3.8385627501769646e-03  -3.9397544922474452e-03 
 -4.0436159955348095e-03  -4.1502178110799232e-03  -4.2596323603264295e-03  -4.3719339850229180e-03 
 -4.4871989984727944e-03  -4.6055057381690434e-03  -4.7269346198521812e-03  -4.8515681930308531e-03 
 -4.9794911980055130e-03  -5.1107906244369219e-03  -5.2455557715023575e-03  -5.3838783096837222e-03 
 -5.5258523442328795e-03  -5.6715744803610413e-03  -5.8211438902002893e-03  -5.9746623815866776e-03 
 -6.1322344687160038e-03  -6.2939674447245464e-03  -6.4599714562487733e-03  -6.6303595800196943e-03 
 -6.8052479015489400e-03  -6.9847555959655075e-03  -7.1690050110637749e-03  -7.3581217526252421e-03 
 -7.5522347720781858e-03  -7.7514764565615847e-03  -7.9559827214612053e-03  -8.1658931054882609e-03 
 -8.3813508683728433e-03  -8.6025030912464454e-03  -8.8295007797905053e-03  -9.0624989702297216e-03 
 -9.3016568382515864e-03  -9.5471378109358990e-03  -9.7991096817807381e-03  -1.0057744728913626e-02 
 -1.0323219836579703e-02  -1.0595716620001245e-02  -1.0875421553705905e-02  -1.1162526103423911e-02 
 -1.1457226861657491e-02  -1.1759725687029174e-02  -1.2070229847518450e-02  -1.2388952167700253e-02 
 -1.2716111180101590e-02  -1.3051931280796509e-02  -1.3396642889363524e-02  -1.3750482613332796e-02 
 -1.4113693417255154e-02  -1.4486524796528380e-02  -1.4869232956120696e-02  -1.5262080994335818e-02 
 -1.5665339091768357e-02  -1.6079284705602572e-02  -1.6504202769413071e-02  -1.6940385898630048e-02 
 -1.7388134601837430e-02  -1.7847757498077203e-02  -1.8319571540338576e-02  -1.8803902245416379e-02 
 -1.9301083930328516e-02  -1.9811459955488938e-02  -2.0335382974837474e-02  -2.0873215193135491e-02 
 -2.1425328630641866e-02  -2.1992105395390850e-02  -2.2573937963300428e-02  -2.3171229466346123e-02 
 -2.3784393989043771e-02  -2.4413856873490739e-02  -2.5060055033224227e-02  -2.5723437276162435e-02 
 -2.6404464636902294e-02  -2.7103610718657231e-02  -2.7821362045125007e-02  -2.8558218422586629e-02 
 -2.9314693312545048e-02  -3.0091314215222341e-02  -3.0888623064242806e-02  -3.1707176632841241e-02 
 -3.2547546951942966e-02  -3.3410321740474883e-02  -3.4296104848275895e-02  -3.5205516711986261e-02 
 -3.6139194824307413e-02  -3.7097794217032735e-02  -3.8081987958263917e-02  -3.9092467664237039e-02 
 -4.0129944026196136e-02  -4.1195147352762425e-02  -4.2288828128261131e-02  -4.3411757587478970e-02 
 -4.4564728307339603e-02  -4.5748554815994685e-02  -4.6964074219843846e-02  -4.8212146849006904e-02 
 -4.9493656921786887e-02  -5.0809513228675052e-02  -5.2160649836459828e-02  -5.3548026813017964e-02 
 -5.4972630973376777e-02  -5.6435476647649252e-02  -5.7937606471457251e-02  -5.9480092199469141e-02 
 -6.1064035542691159e-02  -6.2690569030161680e-02  -6.4360856895712096e-02  -6.6076095990462630e-02 
 -6.7837516721738197e-02  -6.9646384019092220e-02  -7.1503998328138779e-02  -7.3411696632898898e-02 
 -7.5370853507372049e-02  -7.7382882197050640e-02  -7.9449235731096468e-02  -8.1571408065902240e-02 
 -8.3750935260757428e-02  -8.5989396686339481e-02  -8.8288416266744718e-02  -9.0649663755765775e-02 
 -9.3074856048115426e-02  -9.5565758526280409e-02  -9.8124186443676667e-02  -1.0075200634475297e-01 
 -1.0345113752267332e-01  -1.0622355351517028e-01  -1.0907128363914050e-01  -1.1199641456450460e-01 
 -1.1500109192781853e-01  -1.1808752198606785e-01  -1.2125797331102327e-01  -1.2451477852447033e-01 
 -1.2786033607455491e-01  -1.3129711205340835e-01  -1.3482764205612160e-01  -1.3845453308104558e-01 
 -1.4218046547127841e-01  -1.4600819489708708e-01  -1.4994055437886836e-01  -1.5398045635011706e-01 
 -1.5813089475970146e-01  -1.6239494721257350e-01  -1.6677577714785261e-01  -1.7127663605300655e-01 
 -1.7590086571262917e-01  -1.8065190049006993e-01  -1.8553326963989855e-01  -1.9054859964890083e-01 
 -1.9570161660298854e-01  -2.0099614857706757e-01  -2.0643612804454320e-01  -2.1202559430275661e-01 
 -2.1776869591021458e-01  -2.2366969313103138e-01  -2.2973296038151533e-01  -2.3596298867331761e-01 
 -2.4236438804699875e-01  -2.4894188998929440e-01  -2.5570034982671586e-01  -2.6264474908746666e-01 
 -2.6978019782294471e-01  -2.7711193687933461e-01  -2.8464534010902159e-01  -2.9238591651069523e-01 
 -3.0033931228613664e-01  -3.0851131280074962e-01  -3.1690784443389874e-01  -3.2553497630411504e-01 
 -3.3439892185311826e-01  -3.4350604027151416e-01  -3.5286283774782035e-01  -3.6247596852128344e-01 
 -3.7235223571765863e-01  -3.8249859194585073e-01  -3.9292213963193745e-01  -4.0363013106572970e-01 
 -4.1462996813362296e-01  -4.2592920171002013e-01  -4.3753553067819062e-01  -4.4945680054990833e-01 
 -4.6170100165177624e-01  -4.7427626684464658e-01  -4.8719086874109246e-01  -5.0045321638446771e-01 
 -5.1407185135169231e-01  -5.2805544324058706e-01  -5.4241278450132258e-01  -5.5715278457040462e-01 
 -5.7228446326457483e-01  -5.8781694339112478e-01  -6.0375944253040215e-01  -6.2012126394577549e-01 
 -6.3691178657602787e-01  -6.5414045406514698e-01  -6.7181676278476166e-01  -6.8995024880509859e-01 
 -7.0855047377140601e-01  -7.2762700964415383e-01  -7.4718942226338980e-01  -7.6724725370000268e-01 
 -7.8781000335977880e-01  -8.0888710780984063e-01  -8.3048791930148136e-01  -8.5262168296858976e-01 
 -8.7529751268689682e-01  -8.9852436558619742e-01  -9.2231101521548853e-01  -9.4666602336994499e-01 
 -9.7159771059847333e-01  -9.9711412542176125e-01  -1.0232230123028823e+00  -1.0499317784260225e+00 
 -1.0772474593536203e+00  -1.1051766836481300e+00  -1.1337256365620121e+00  -1.1629000229180109e+00 
 -1.1927050293217627e+00  -1.2231452858697514e+00  -1.2542248275380188e+00  -1.2859470554602530e+00 
 -1.3183146983283487e+00  -1.3513297741735464e+00  -1.3849935528121020e+00  -1.4193065192655172e+00 
 -1.4542683384916364e+00  -1.4898778217889352e+00  -1.5261328952616608e+00  -1.5630305707578624e+00 
 -1.6005669197150161e+00  -1.6387370503685377e+00  -1.6775350887962015e+00  -1.7169541642856270e+00 
 -1.7569863995218924e+00  -1.7976229060968993e+00  -1.8388537858405787e+00  -1.8806681384652608e+00 
 -1.9230540759976571e+00  -1.9659987444463201e+00  -2.0094883531156604e+00  -2.0535082119287544e+00 
 -2.0980427770594177e+00  -2.1430757050979947e+00  -2.1885899158839095e+00  -2.2345676640299001e+00 
 -2.2809906190373739e+00  -2.3278399537581587e+00  -2.3750964407946307e+00  -2.4227405562473594e+00 
 -2.4707525900165606e+00  -2.5191127616414102e+00  -2.5678013404199032e+00  -2.6167987682928677e+00 
 -2.6660857837006073e+00  -2.7156435443317974e+00  -2.7654537463853135e+00  -2.8154987376599232e+00 
 -2.8657616214802397e+00  -2.9162263481651691e+00  -2.9668777904549888e+00  -3.0177017990432615e+00 
 -3.0686852341195845e+00  -3.1198159686294269e+00  -3.1710828588099931e+00  -3.2224756774793013e+00 
 -3.2739850055536137e+00  -3.3256020773612280e+00  -3.3773185755241362e+00  -3.4291263715096605e+00 
 -3.4810172084276623e+00  -3.5329823232821798e+00  -3.5850120066930522e+00  -3.6370950990975417e+00 
 -3.6892184236345686e+00  -3.7413661573123385e+00  -3.7935191436673432e+00  -3.8456541519362952e+00 
 -3.8977430897739782e+00  -3.9497521787417007e+00  -4.0016411519086565e+00  -4.0533622052267111e+00 
 -4.1048594142714707e+00  -4.1560677235782331e+00  -4.2069122028314219e+00  -4.2573073293641404e+00 
 -4.3071563660228991e+00  -4.3563508625046614e+00  -4.4047703084471097e+00  -4.4522819684600146e+00 
 -4.4987409273127152e+00  -4.5439904057679383e+00  -4.5878621924914214e+00  -4.6301776430272561e+00 
 -4.6707487190922778e+00  -4.7093794683587857e+00  -4.7458678011582371e+00  -4.7800075813985190e+00 
 -4.8115910165329874e+00  -4.8404113189276927e+00  -4.8662655979633671e+00  -4.8889579287517675e+00 
 -4.9083025295618317e+00  -4.9241269651449366e+00  -4.9362752811873767e+00  -4.9446109618814482e+00 
 -4.9490195941269484e+00  -4.9494111143036088e+00  -4.9457215113367612e+00  -4.9379138618703218e+00 
 -4.9259785807453511e+00  -4.9099327850157142e+00  -4.8898186907265586e+00  -4.8657009903350570e+00 
 -4.8376631967640691e+00  -4.8058029822157264e+00  -4.7702265930690322e+00  -4.7310424768363228e+00 
 -4.6883543186881518e+00  -4.6422537466714129e+00  -4.5928130240198470e+00  -4.5400781029901571e+00 
 -4.4840624576719383e+00  -4.4247421461616234e+00  -4.3620525605638756e+00  -4.2958873124946271e+00 
 -4.2260996572369383e+00  -4.1525067846648840e+00  -4.0748971939007053e+00  -3.9930412213148889e+00 
 -3.9067046087433108e+00  -3.8156647885565040e+00  -3.7197293278620895e+00  -3.6187557318291037e+00 
 -3.5126715694853901e+00  -3.4014936724471476e+00  -3.2853449920413214e+00  -3.1644676033248276e+00 
 -3.0392303415236874e+00  -2.9101296648598991e+00  -2.7777825788991728e+00  -2.6429108358921405e+00 
 -2.5063161431039402e+00  -2.3688467632264048e+00  -2.2313566424926443e+00  -2.0946590215698833e+00 
 -1.9594773106139400e+00  -1.8263967797351710e+00  -1.6958212417704042e+00  -1.5679392998077675e+00 
 -1.4427048006040528e+00  -1.3198357916762167e+00  -1.1988354507951891e+00  -1.0790371004887755e+00 
 -9.5967353792721122e-01  -8.3996856079634652e-01  -7.1924588369789277e-01  -5.9704782290433955e-01 
 -4.7325346432354776e-01  -3.4818386248378130e-01  -2.2268052510003408e-01  -9.8143382281556418e-02 
 2.3484073177075519e-02  1.3979157676751303e-01  2.4804497044791990e-01  3.4539283859522202e-01 
 4.2912697162874297e-01  4.9697864465476760e-01  5.4742495539111580e-01  5.7997301494038422e-01 
 5.9538566224227485e-01  5.9581161895393131e-01  5.8478658279412465e-01  5.6708041430495115e-01 
 5.4837978628359563e-01  5.3481390778745086e-01  5.3236386309034256e-01  5.4612561118315206e-01 
 5.8034217599848847e-01  6.3116724467363472e-01  6.4755591536592061e-01  6.3670116173310165e-01 
 6.0276979037452871e-01  5.4631978060269437e-01  4.7072168926081798e-01  3.8144357174329202e-01 
 2.8572002973598964e-01  1.9185275569001106e-01  1.0832915211684577e-01  4.2222161183693166e-02 
 3.0643456114207786e-03  -3.0358491055170394e-04  3.0076066576817357e-05  -2.9796281682340635e-06 
 2.9519079555492650e-07  -2.9244027991325224e-08  2.8976420085927428e-09  -2.8742877831166047e-10 
 2.9051271805491565e-11  -2.9753944807354927e-12  6.9312093743248584e-13  -4.0388769784381867e-13 
 1.0055692598442313e-12  -6.8521468182614265e-13  4.1962812522119814e-13  -3.0520728907814395e-13 
 1.1318621843933300e-13  -1.9117181950993058e-14  1.6644768821573538e-13  8.2151125396306423e-13 
 -5.8495112857482590e-13  4.1604998653479137e-13  -2.6869770198476009e-13  2.9040379393756757e-13 
 2.6678615212112436e-13  -3.5007136289151515e-13  3.0243812128378785e-13  -4.1924939822609473e-14 
 1.1980946855708112e-13  8.6693445645386190e-14  -2.7554831132304538e-15  -4.0055094086005158e-15 
 -1.0477237654248088e-13  -1.9667190836042739e-13  2.6771887954366625e-13  -1.0534213242989553e-13 
 2.0610399903138048e-13  -2.2157320897083944e-13  3.6420212567357379e-13  -1.9164755539424944e-13 
 -1.6260331440405577e-13  1.2903412936494625e-13  -2.2950997415899136e-13  -2.4314215647684519e-14 
 -4.9928310924247425e-14  1.5151275564774080e-13  -1.7808392186656563e-13  9.0824587692880741e-14 
 9.3626505626947601e-14  -6.9588898632466321e-14  6.4060460313261171e-14  0.0000000000000000e+00 
 0.0000000000000000e+00  0.0000000000000000e+00  0.0000000000000000e+00  0.0000000000000000e+00 
 0.0000000000000000e+00  0.0000000000000000e+00  0.0000000000000000e+00  0.0000000000000000e+00 
 0.0000000000000000e+00  0.0000000000000000e+00  0.0000000000000000e+00  0.0000000000000000e+00 
 0.0000000000000000e+00  0.0000000000000000e+00  0.0000000000000000e+00  0.0000000000000000e+00 
 0.0000000000000000e+00  0.0000000000000000e+00  0.0000000000000000e+00  0.0000000000000000e+00 
 0.0000000000000000e+00  0.0000000000000000e+00  0.0000000000000000e+00  0.0000000000000000e+00 
 0.0000000000000000e+00  0.0000000000000000e+00  0.0000000000000000e+00  0.0000000000000000e+00 
 0.0000000000000000e+00  0.0000000000000000e+00  0.0000000000000000e+00  0.0000000000000000e+00 
 0.0000000000000000e+00  0.0000000000000000e+00  0.0000000000000000e+00  0.0000000000000000e+00 
 0.0000000000000000e+00  0.0000000000000000e+00  0.0000000000000000e+00  0.0000000000000000e+00 
 0.0000000000000000e+00  0.0000000000000000e+00  0.0000000000000000e+00  0.0000000000000000e+00 
 0.0000000000000000e+00  0.0000000000000000e+00  0.0000000000000000e+00  0.0000000000000000e+00 
 0.0000000000000000e+00  0.0000000000000000e+00  0.0000000000000000e+00  0.0000000000000000e+00 
 0.0000000000000000e+00  0.0000000000000000e+00  0.0000000000000000e+00  0.0000000000000000e+00 
 0.0000000000000000e+00  0.0000000000000000e+00  0.0000000000000000e+00  0.0000000000000000e+00 
 0.0000000000000000e+00  0.0000000000000000e+00  0.0000000000000000e+00  0.0000000000000000e+00 
 0.0000000000000000e+00  0.0000000000000000e+00  0.0000000000000000e+00  0.0000000000000000e+00 
 0.0000000000000000e+00  0.0000000000000000e+00  0.0000000000000000e+00  0.0000000000000000e+00 
 0.0000000000000000e+00  0.0000000000000000e+00  0.0000000000000000e+00  0.0000000000000000e+00 
 0.0000000000000000e+00  0.0000000000000000e+00  0.0000000000000000e+00  0.0000000000000000e+00 
 0.0000000000000000e+00  0.0000000000000000e+00  0.0000000000000000e+00  0.0000000000000000e+00 
 0.0000000000000000e+00  0.0000000000000000e+00  0.0000000000000000e+00  0.0000000000000000e+00 
 0.0000000000000000e+00  0.0000000000000000e+00  0.0000000000000000e+00  0.0000000000000000e+00 
 0.0000000000000000e+00  0.0000000000000000e+00  0.0000000000000000e+00  0.0000000000000000e+00 
 0.0000000000000000e+00  0.0000000000000000e+00  0.0000000000000000e+00  0.0000000000000000e+00 
 0.0000000000000000e+00  0.0000000000000000e+00  0.0000000000000000e+00  0.0000000000000000e+00 
 0.0000000000000000e+00  0.0000000000000000e+00  0.0000000000000000e+00  0.0000000000000000e+00 
 0.0000000000000000e+00  0.0000000000000000e+00  0.0000000000000000e+00  0.0000000000000000e+00 
 0.0000000000000000e+00  0.0000000000000000e+00  0.0000000000000000e+00  0.0000000000000000e+00 
 0.0000000000000000e+00  0.0000000000000000e+00  0.0000000000000000e+00  0.0000000000000000e+00 
 0.0000000000000000e+00  0.0000000000000000e+00  0.0000000000000000e+00  0.0000000000000000e+00 
 0.0000000000000000e+00  0.0000000000000000e+00  0.0000000000000000e+00  0.0000000000000000e+00 
 0.0000000000000000e+00  0.0000000000000000e+00  0.0000000000000000e+00  0.0000000000000000e+00 
 0.0000000000000000e+00  0.0000000000000000e+00  0.0000000000000000e+00  0.0000000000000000e+00 
 0.0000000000000000e+00  0.0000000000000000e+00  0.0000000000000000e+00  0.0000000000000000e+00 
 0.0000000000000000e+00  0.0000000000000000e+00  0.0000000000000000e+00  0.0000000000000000e+00 
 0.0000000000000000e+00  0.0000000000000000e+00  0.0000000000000000e+00  0.0000000000000000e+00 
 0.0000000000000000e+00  0.0000000000000000e+00  0.0000000000000000e+00  0.0000000000000000e+00 
 0.0000000000000000e+00  0.0000000000000000e+00  0.0000000000000000e+00  0.0000000000000000e+00 
 0.0000000000000000e+00  0.0000000000000000e+00  0.0000000000000000e+00  0.0000000000000000e+00 
 0.0000000000000000e+00  0.0000000000000000e+00  0.0000000000000000e+00  0.0000000000000000e+00 
 0.0000000000000000e+00  0.0000000000000000e+00  0.0000000000000000e+00  0.0000000000000000e+00 
 0.0000000000000000e+00  0.0000000000000000e+00  0.0000000000000000e+00  0.0000000000000000e+00 
 0.0000000000000000e+00  0.0000000000000000e+00  0.0000000000000000e+00  0.0000000000000000e+00 
 0.0000000000000000e+00  0.0000000000000000e+00  0.0000000000000000e+00  0.0000000000000000e+00 
 0.0000000000000000e+00  0.0000000000000000e+00  0.0000000000000000e+00  0.0000000000000000e+00 
 0.0000000000000000e+00  0.0000000000000000e+00  0.0000000000000000e+00  0.0000000000000000e+00 
 0.0000000000000000e+00  0.0000000000000000e+00  0.0000000000000000e+00  0.0000000000000000e+00 
 0.0000000000000000e+00  0.0000000000000000e+00  0.0000000000000000e+00  0.0000000000000000e+00 
 0.0000000000000000e+00  0.0000000000000000e+00  0.0000000000000000e+00  0.0000000000000000e+00 
 0.0000000000000000e+00  0.0000000000000000e+00  0.0000000000000000e+00  0.0000000000000000e+00 
 0.0000000000000000e+00  0.0000000000000000e+00  0.0000000000000000e+00  0.0000000000000000e+00 
 0.0000000000000000e+00  0.0000000000000000e+00  0.0000000000000000e+00  0.0000000000000000e+00 
 0.0000000000000000e+00  0.0000000000000000e+00  0.0000000000000000e+00  0.0000000000000000e+00 
 0.0000000000000000e+00  0.0000000000000000e+00  0.0000000000000000e+00  0.0000000000000000e+00 
 0.0000000000000000e+00  0.0000000000000000e+00  0.0000000000000000e+00  0.0000000000000000e+00 
 0.0000000000000000e+00  0.0000000000000000e+00  0.0000000000000000e+00  0.0000000000000000e+00 
 0.0000000000000000e+00  0.0000000000000000e+00  0.0000000000000000e+00  0.0000000000000000e+00 
 0.0000000000000000e+00  0.0000000000000000e+00  0.0000000000000000e+00  0.0000000000000000e+00 
 0.0000000000000000e+00  0.0000000000000000e+00  0.0000000000000000e+00  0.0000000000000000e+00 
 0.0000000000000000e+00  0.0000000000000000e+00  0.0000000000000000e+00  0.0000000000000000e+00 
 0.0000000000000000e+00  0.0000000000000000e+00  0.0000000000000000e+00  0.0000000000000000e+00 
 0.0000000000000000e+00  0.0000000000000000e+00  0.0000000000000000e+00  0.0000000000000000e+00 
 0.0000000000000000e+00  0.0000000000000000e+00  0.0000000000000000e+00  0.0000000000000000e+00 
 0.0000000000000000e+00  0.0000000000000000e+00  0.0000000000000000e+00  0.0000000000000000e+00 
 0.0000000000000000e+00  0.0000000000000000e+00  0.0000000000000000e+00  0.0000000000000000e+00 
 0.0000000000000000e+00  0.0000000000000000e+00  0.0000000000000000e+00  0.0000000000000000e+00 
 0.0000000000000000e+00  0.0000000000000000e+00  0.0000000000000000e+00  0.0000000000000000e+00 
 0.0000000000000000e+00  0.0000000000000000e+00  0.0000000000000000e+00  0.0000000000000000e+00 
 0.0000000000000000e+00  0.0000000000000000e+00  0.0000000000000000e+00  0.0000000000000000e+00 
 0.0000000000000000e+00  0.0000000000000000e+00 
  </PP_BETA>
  <PP_DIJ>
 1   Number of nonzero Dij
 1 1 -7.2758694089778619e-01 
  </PP_DIJ>
</PP_NONLOCAL>
<PP_PSWFC>
S    0   2.00          Wavefunction
 5.2173609405044971e-05  5.2856294165331251e-05  5.3547911765215649e-05  5.4248579089721867e-05 
 5.4958414553298757e-05  5.5677538119832645e-05  5.6406071322921468e-05  5.7144137286414293e-05 
 5.7891860745219544e-05  5.8649368066385503e-05  5.9416787270456591e-05  6.0194248053109256e-05 
 6.0981881807070781e-05  6.1779821644324971e-05  6.2588202418608491e-05  6.3407160748201301e-05 
 6.4236835039015717e-05  6.5077365507987118e-05  6.5928894206771126e-05  6.6791565045750523e-05 
 6.7665523818356634e-05  6.8550918225708643e-05  6.9447897901575440e-05  7.0356614437664256e-05 
 7.1277221409239781e-05  7.2209874401078927e-05  7.3154731033765096e-05  7.4111950990326237e-05 
 7.5081696043221820e-05  7.6064130081682807e-05  7.7059419139409170e-05  7.8067731422630209e-05 
 7.9089237338531655e-05  8.0124109524054940e-05  8.1172522875073345e-05  8.2234654575949703e-05 
 8.3310684129481174e-05  8.4400793387235445e-05  8.5505166580284318e-05  8.6623990350339009e-05 
 8.7757453781293269e-05  8.8905748431178865e-05  9.0069068364539339e-05  9.1247610185227760e-05 
 9.2441573069632687e-05  9.3651158800340013e-05  9.4876571800234336e-05  9.6118019167047158e-05 
 9.7375710708356975e-05  9.8649858977047040e-05  9.9940679307227448e-05  1.0124838985062733e-04 
 1.0257321161346276e-04  1.0391536849378756e-04  1.0527508731933247e-04  1.0665259788583978e-04 
 1.0804813299589937e-04  1.0946192849829281e-04  1.1089422332785249e-04  1.1234525954584227e-04 
 1.1381528238086638e-04  1.1530454027031367e-04  1.1681328490234420e-04  1.1834177125842527e-04 
 1.1989025765642383e-04  1.2145900579426276e-04  1.2304828079414892e-04  1.2465835124737890e-04 
 1.2628948925973212e-04  1.2794197049745729e-04  1.2961607423386064e-04  1.3131208339650375e-04 
 1.3303028461501948e-04  1.3477096826955255e-04  1.3653442853983508e-04  1.3832096345490339e-04 
 1.4013087494346569e-04  1.4196446888492932e-04  1.4382205516109438e-04  1.4570394770852541e-04 
 1.4761046457160691e-04  1.4954192795629394e-04  1.5149866428456585e-04  1.5348100424959234e-04 
 1.5548928287162161e-04  1.5752383955459966e-04  1.5958501814353031e-04  1.6167316698258630e-04 
 1.6378863897398017e-04  1.6593179163760586e-04  1.6810298717146021e-04  1.7030259251285600e-04 
 1.7253097940043478e-04  1.7478852443699223e-04  1.7707560915312487e-04  1.7939262007170980e-04 
 1.8173994877322818e-04  1.8411799196194352e-04  1.8652715153294578e-04  1.8896783464007261e-04 
 1.9144045376472010e-04  1.9394542678555254e-04  1.9648317704912580e-04  1.9905413344143392e-04 
 2.0165873046039179e-04  2.0429740828926705e-04  2.0697061287107215e-04  2.0967879598393014e-04 
 2.1242241531742626e-04  2.1520193454995943e-04  2.1801782342710464e-04  2.2087055784100190e-04 
 2.2376061991078317e-04  2.2668849806405209e-04  2.2965468711942996e-04  2.3265968837018108e-04 
 2.3570400966893372e-04  2.3878816551350793e-04  2.4191267713386823e-04  2.4507807258021210e-04 
 2.4828488681221306e-04  2.5153366178943057e-04  2.5482494656290207e-04  2.5815929736793544e-04 
 2.6153727771811402e-04  2.6495945850053273e-04  2.6842641807227943e-04  2.7193874235817959e-04 
 2.7549702494981954e-04  2.7910186720586541e-04  2.8275387835369496e-04  2.8645367559235890e-04 
 2.9020188419689010e-04  2.9399913762397718e-04  2.9784607761902069e-04  3.0174335432459060e-04 
 3.0569162639030310e-04  3.0969156108413441e-04  3.1374383440519170e-04  3.1784913119795976e-04 
 3.2200814526804183e-04  3.2622157949941581e-04  3.3049014597322387e-04  3.3481456608811801e-04 
 3.3919557068217841e-04  3.4363390015642811e-04  3.4813030459996400e-04  3.5268554391672485e-04 
 3.5730038795391830e-04  3.6197561663212861e-04  3.6671202007712567e-04  3.7151039875340033e-04 
 3.7637156359944637e-04  3.8129633616481218e-04  3.8628554874894699e-04  3.9134004454186304e-04 
 3.9646067776663758e-04  4.0164831382378212e-04  4.0690382943749792e-04  4.1222811280384688e-04 
 4.1762206374086196e-04  4.2308659384061864e-04  4.2862262662330010e-04  4.3423109769327695e-04 
 4.3991295489722817e-04  4.4566915848433188e-04  4.5150068126855369e-04  4.5740850879305670e-04 
 4.6339363949676309e-04  4.6945708488309708e-04  4.7559986969093277e-04  4.8182303206778233e-04 
 4.8812762374524831e-04  4.9451471021677205e-04  5.0098537091770824e-04  5.0754069940775709e-04 
 5.1418180355578100e-04  5.2090980572704233e-04  5.2772584297288978e-04  5.3463106722292659e-04 
 5.4162664547969511e-04  5.4871376001590789e-04  5.5589360857425914e-04  5.6316740456985044e-04 
 5.7053637729526888e-04  5.7800177212834376e-04  5.8556485074262522e-04  5.9322689132061668e-04 
 6.0098918876979560e-04  6.0885305494146481e-04  6.1681981885246381e-04  6.2489082690978339e-04 
 6.3306744313811893e-04  6.4135104941040249e-04  6.4974304568134937e-04  6.5824485022406378e-04 
 6.6685789986973773e-04  6.7558365025048854e-04  6.8442357604537435e-04  6.9337917122962633e-04 
 7.0245194932714748e-04  7.1164344366630820e-04  7.2095520763909690e-04  7.3038881496365765e-04 
 7.3994585995026355e-04  7.4962795777077209e-04  7.5943674473160489e-04  7.6937387855030169e-04 
 7.7944103863569433e-04  7.8963992637174144e-04  7.9997226540508444e-04  8.1043980193636230e-04 
 8.2104430501534203e-04  8.3178756683990581e-04  8.4267140305895809e-04  8.5369765307928959e-04 
 8.6486818037646320e-04  8.7618487280976490e-04  8.8764964294127597e-04  8.9926442835912344e-04 
 9.1103119200495845e-04  9.2295192250572251e-04  9.3502863450975297e-04  9.4726336902728968e-04 
 9.5965819377543565e-04  9.7221520352763356e-04  9.8493652046771716e-04  9.9782429454859213e-04 
 1.0108807038556162e-03  1.0241079549747304e-03  1.0375082833654124e-03  1.0510839537385078e-03 
 1.0648372604390071e-03  1.0787705278338313e-03  1.0928861107046980e-03  1.1071863946461209e-03 
 1.1216737964686264e-03  1.1363507646072388e-03  1.1512197795353226e-03  1.1662833541838306e-03 
 1.1815440343660474e-03  1.1970043992078859e-03  1.2126670615838179e-03  1.2285346685585159e-03 
 1.2446099018342638e-03  1.2608954782042357e-03  1.2773941500116971e-03  1.2941087056152255e-03 
 1.3110419698600156e-03  1.3281968045553512e-03  1.3455761089583335e-03  1.3631828202639341e-03 
 1.3810199141014686e-03  1.3990904050375631e-03  1.4173973470857127e-03  1.4359438342224954e-03 
 1.4547330009105604e-03  1.4737680226284534e-03  1.4930521164073735e-03  1.5125885413749690e-03 
 1.5323805993062336e-03  1.5524316351816364e-03  1.5727450377525380e-03  1.5933242401140234e-03 
 1.6141727202852202e-03  1.6352940017972284e-03  1.6566916542887359e-03  1.6783692941094365e-03 
 1.7003305849313498e-03  1.7225792383681346e-03  1.7451190146025252e-03  1.7679537230219698e-03 
 1.7910872228625984e-03  1.8145234238616185e-03  1.8382662869182512e-03  1.8623198247633287e-03 
 1.8866881026376489e-03  1.9113752389792211e-03  1.9363854061195023e-03  1.9617228309887600e-03 
 1.9873917958306577e-03  2.0133966389262155e-03  2.0397417553272281e-03  2.0664315975993139e-03 
 2.0934706765746700e-03  2.1208635621146996e-03  2.1486148838826230e-03  2.1767293321262047e-03 
 2.2052116584707331e-03  2.2340666767223919e-03  2.2632992636821398e-03  2.2929143599702620e-03 
 2.3229169708617169e-03  2.3533121671324244e-03  2.3841050859166398e-03  2.4153009315755597e-03 
 2.4469049765773005e-03  2.4789225623884116e-03  2.5113591003770685e-03  2.5442200727280834e-03 
 2.5775110333699203e-03  2.6112376089138531e-03  2.6454054996054121e-03  2.6800204802883191e-03 
 2.7150884013810357e-03  2.7506151898661138e-03  2.7866068502925105e-03  2.8230694657910413e-03 
 2.8600091991031252e-03  2.8974322936230284e-03  2.9353450744537680e-03  2.9737539494768248e-03 
 3.0126654104359264e-03  3.0520860340349891e-03  3.0920224830504801e-03  3.1324815074583500e-03 
 3.1734699455757348e-03  3.2149947252176404e-03  3.2570628648687710e-03  3.2996814748707448e-03 
 3.3428577586248468e-03  3.3865990138105912e-03  3.4309126336202226e-03  3.4758061080094379e-03 
 3.5212870249644889e-03  3.5673630717859219e-03  3.6140420363891417e-03  3.6613318086220386e-03 
 3.7092403815999096e-03  3.7577758530578675e-03  3.8069464267210329e-03  3.8567604136926620e-03 
 3.9072262338605192e-03  3.9583524173216885e-03  4.0101476058260910e-03  4.0626205542389458e-03 
 4.1157801320224245e-03  4.1696353247367640e-03  4.2241952355610646e-03  4.2794690868340887e-03 
 4.3354662216152562e-03  4.3921961052661579e-03  4.4496683270528340e-03  4.5078926017690880e-03 
 4.5668787713811420e-03  4.6266368066938757e-03  4.6871768090389777e-03  4.7485090119852398e-03 
 4.8106437830713862e-03  4.8735916255616182e-03  4.9373631802242662e-03  5.0019692271338102e-03 
 5.0674206874965896e-03  5.1337286255005235e-03  5.2009042501891646e-03  5.2689589173603758e-03 
 5.3379041314899865e-03  5.4077515476807884e-03  5.4785129736371410e-03  5.5502003716655533e-03 
 5.6228258607016364e-03  5.6964017183636943e-03  5.7709403830333841e-03  5.8464544559637477e-03 
 5.9229567034150251e-03  6.0004600588185715e-03  6.0789776249693195e-03  6.1585226762471317e-03 
 6.2391086608673532e-03  6.3207492031611360e-03  6.4034581058857514e-03  6.4872493525653966e-03 
 6.5721371098628684e-03  6.6581357299825353e-03  6.7452597531049820e-03  6.8335239098538392e-03 
 6.9229431237951321e-03  7.0135325139696406e-03  7.1053073974587265e-03  7.1982832919840279e-03 
 7.2924759185414977e-03  7.3879012040703159e-03  7.4845752841570055e-03  7.5825145057753481e-03 
 7.6817354300625536e-03  7.7822548351321489e-03  7.8840897189240856e-03  7.9872573020925777e-03 
 8.0917750309322349e-03  8.1976605803428769e-03  8.3049318568337253e-03  8.4136070015673504e-03 
 8.5237043934439875e-03  8.6352426522268520e-03  8.7482406417088189e-03  8.8627174729212187e-03 
 8.9786925073851807e-03  9.0961853604062514e-03  9.2152159044127276e-03  9.3358042723384310e-03 
 9.4579708610504423e-03  9.5817363348224514e-03  9.7071216288544156e-03  9.8341479528389966e-03 
 9.9628367945756025e-03  1.0093209923632581e-02  1.0225289395058252e-02  1.0359097553141518e-02 
 1.0494657035222609e-02  1.0631990775554835e-02  1.0771122009217831e-02  1.0912074276083291e-02 
 1.1054871424833669e-02  1.1199537617034709e-02  1.1346097331262565e-02  1.1494575367286227e-02 
 1.1644996850306096e-02  1.1797387235249391e-02  1.1951772311123330e-02  1.2108178205426760e-02 
 1.2266631388621227e-02  1.2427158678662122e-02  1.2589787245590954e-02  1.2754544616189498e-02 
 1.2921458678696760e-02  1.3090557687589627e-02  1.3261870268428145e-02  1.3435425422766330e-02 
 1.3611252533129411e-02  1.3789381368058630e-02  1.3969842087224396e-02  1.4152665246608806e-02 
 1.4337881803758721e-02  1.4525523123110172e-02  1.4715620981385329e-02  1.4908207573063043e-02 
 1.5103315515924016e-02  1.5300977856671666e-02  1.5501228076630014e-02  1.5704100097519418e-02 
 1.5909628287311604e-02  1.6117847466164958e-02  1.6328792912441496e-02  1.6542500368806504e-02 
 1.6759006048412337e-02  1.6978346641167454e-02  1.7200559320092044e-02  1.7425681747761733e-02 
 1.7653752082840413e-02  1.7884808986703801e-02  1.8118891630155030e-02  1.8356039700233789e-02 
 1.8596293407120282e-02  1.8839693491135723e-02  1.9086281229840702e-02  1.9336098445233027e-02 
 1.9589187511046682e-02  1.9845591360153386e-02  2.0105353492068476e-02  2.0368517980562779e-02 
 2.0635129481382131e-02  2.0905233240076405e-02  2.1178875099939674e-02  2.1456101510063493e-02 
 2.1736959533504921e-02  2.2021496855571664e-02  2.2309761792225595e-02  2.2601803298607188e-02 
 2.2897670977682832e-02  2.3197415089016675e-02  2.3501086557669779e-02  2.3808736983228152e-02 
 2.4120418648962336e-02  2.4436184531120387e-02  2.4756088308357238e-02  2.5080184371302033e-02 
 2.5408527832266440e-02  2.5741174535096258e-02  2.6078181065168928e-02  2.6419604759539490e-02 
 2.6765503717237786e-02  2.7115936809719646e-02  2.7470963691474708e-02  2.7830644810794301e-02 
 2.8195041420701627e-02  2.8564215590047907e-02  2.8938230214777417e-02  2.9317149029364543e-02 
 2.9701036618426338e-02  3.0089958428513933e-02  3.0483980780086260e-02  3.0883170879669526e-02 
 3.1287596832206700e-02  3.1697327653600005e-02  3.2112433283451015e-02  3.2532984598001899e-02 
 3.2959053423282272e-02  3.3390712548465699e-02  3.3828035739440439e-02  3.4271097752598602e-02 
 3.4719974348848659e-02  3.5174742307856229e-02  3.5635479442517527e-02  3.6102264613671005e-02 
 3.6575177745052388e-02  3.7054299838498332e-02  3.7539712989404415e-02  3.8031500402443151e-02 
 3.8529746407548089e-02  3.9034536476169647e-02  3.9545957237810028e-02  4.0064096496842387e-02 
 4.0589043249622203e-02  4.1120887701897035e-02  4.1659721286522212e-02  4.2205636681489911e-02 
 4.2758727828279032e-02  4.3319089950534247e-02  4.3886819573081826e-02  4.4462014541291520e-02 
 4.5044774040792643e-02  4.5635198617553607e-02  4.6233390198334501e-02  4.6839452111522337e-02 
 4.7453489108358934e-02  4.8075607384571929e-02  4.8705914602419825e-02  4.9344519913162049e-02 
 4.9991533979965676e-02  5.0647069001260918e-02  5.1311238734557327e-02  5.1984158520734257e-02 
 5.2665945308818109e-02  5.3356717681260657e-02  5.4056595879732619e-02  5.4765701831446932e-02 
 5.5484159176027170e-02  5.6212093292937436e-02  5.6949631329489027e-02  5.7696902229441793e-02 
 5.8454036762217283e-02  5.9221167552742017e-02  5.9998429111939436e-02  6.0785957867890393e-02 
 6.1583892197681893e-02  6.2392372459964922e-02  6.3211541028243529e-02  6.4041542324916365e-02 
 6.4882522856094527e-02  6.5734631247218803e-02  6.6598018279501625e-02  6.7472836927218102e-02 
 6.8359242395872988e-02  6.9257392161270193e-02  7.0167446009512621e-02  7.1089566077961033e-02 
 7.2023916897181156e-02  7.2970665433909759e-02  7.3929981135070058e-02  7.4902035972869610e-02 
 7.5887004491012183e-02  7.6885063852058372e-02  7.7896393885969029e-02  7.8921177139866003e-02 
 7.9959598929048359e-02  8.1011847389298411e-02  8.2078113530516764e-02  8.3158591291723732e-02 
 8.4253477597466639e-02  8.5362972415671451e-02  8.6487278816979526e-02  8.7626603035608819e-02 
 8.8781154531780621e-02  8.9951146055752731e-02  9.1136793713499101e-02  9.2338317034077147e-02 
 9.3555939038723501e-02  9.4789886311717683e-02  9.6040389073053567e-02  9.7307681252957592e-02 
 9.8592000568290525e-02  9.9893588600870650e-02  1.0121269087775167e-01  1.0254955695348947e-01 
 1.0390444049442764e-01  1.0527759936503031e-01  1.0666929571628786e-01  1.0807979607621622e-01 
 1.0950937144246839e-01  1.1095829737707136e-01  1.1242685410329691e-01  1.1391532660466901e-01 
 1.1542400472610491e-01  1.1695318327717916e-01  1.1850316213749368e-01  1.2007424636412653e-01 
 1.2166674630112594e-01  1.2328097769100176e-01  1.2491726178816037e-01  1.2657592547421348e-01 
 1.2825730137508029e-01  1.2996172797978692e-01  1.3168954976085406e-01  1.3344111729614519e-01 
 1.3521678739203222e-01  1.3701692320771527e-01  1.3884189438051475e-01  1.4069207715193074e-01 
 1.4256785449424592e-01  1.4446961623741883e-01  1.4639775919599579e-01  1.4835268729573739e-01 
 1.5033481169963259e-01  1.5234455093294197e-01  1.5438233100688312e-01  1.5644858554053884e-01 
 1.5854375588053890e-01  1.6066829121803183e-01  1.6282264870243027e-01  1.6500729355138055e-01 
 1.6722269915637189e-01  1.6946934718336520e-01  1.7174772766779578e-01  1.7405833910325674e-01 
 1.7640168852315299e-01  1.7877829157457475e-01  1.8118867258361737e-01  1.8363336461134150e-01 
 1.8611290949955253e-01  1.8862785790555078e-01  1.9117876932499311e-01  1.9376621210199541e-01 
 1.9639076342560005e-01  1.9905300931173300e-01  2.0175354456978717e-01  2.0449297275298203e-01 
 2.0727190609167837e-01  2.1009096540885863e-01  2.1295078001703635e-01  2.1585198759590324e-01 
 2.1879523405010839e-01  2.2178117334662689e-01  2.2481046733128585e-01  2.2788378552411143e-01 
 2.3100180489329084e-01  2.3416520960766946e-01  2.3737469076785706e-01  2.4063094611616956e-01 
 2.4393467972580668e-01  2.4728660166984326e-01  2.5068742767079299e-01  2.5413787873169974e-01 
 2.5763868074989066e-01  2.6119056411471869e-01  2.6479426329079092e-01  2.6845051638834172e-01 
 2.7216006472254450e-01  2.7592365236365823e-01  2.7974202567998252e-01  2.8361593287558762e-01 
 2.8754612352475534e-01  2.9153334810493631e-01  2.9557835752981182e-01  2.9968190268373934e-01 
 3.0384473395841460e-01  3.0806760079201712e-01  3.1235125121037516e-01  3.1669643136879172e-01 
 3.2110388509209015e-01  3.2557435340915197e-01  3.3010857407672345e-01  3.3470728108553094e-01 
 3.3937120413978589e-01  3.4410106809895186e-01  3.4889759236819107e-01  3.5376149022122788e-01 
 3.5869346803646468e-01  3.6369422442406746e-01  3.6876444921848189e-01  3.7390482230744548e-01 
 3.7911601226510877e-01  3.8439867475343936e-01  3.8975345065274686e-01  3.9518096387902385e-01 
 4.0068181884300852e-01  4.0625659750353205e-01  4.1190585596602108e-01  4.1763012057613125e-01 
 4.2342988345859139e-01  4.2930559745264685e-01  4.3525767039820246e-01  4.4128645873110628e-01 
 4.4739226035218471e-01  4.5357530674282076e-01  4.5983575431027235e-01  4.6617367495860407e-01 
 4.7258904589625383e-01  4.7908173870876808e-01  4.8565150774514826e-01  4.9229797788831214e-01 
 4.9902063180415168e-01  5.0581879678909292e-01  5.1269163136237017e-01  5.1963811177565411e-01 
 5.2665701863826908e-01  5.3374692387991807e-01  5.4090617829321697e-01  5.4813289991404957e-01 
 5.5542496350707005e-01  5.6277999142494062e-01  5.7019534610128830e-01  5.7766812441714166e-01 
 5.8519515414717116e-01  5.9277299264392613e-01  6.0039792785452528e-01  6.0806598168431025e-01 
 6.1577291562606584e-01  6.2351423846260090e-01  6.3128521572687568e-01  6.3908088047081402e-01 
 6.4689604475612572e-01  6.5472531114406829e-01  6.6256308333375524e-01  6.7040357498949599e-01 
 6.7824081571714612e-01  6.8606865310900300e-01  6.9388074978842440e-01  7.0167057446100400e-01 
 7.0943138613000423e-01  7.1715621086903514e-01  7.2483781087109778e-01  7.3246864591198335e-01 
 7.4004082787420600e-01  7.4754606956432823e-01  7.5497562970293230e-01  7.6232025664437086e-01 
 7.6957013405467622e-01  7.7671483239282213e-01  7.8374327054596726e-01  7.9064369229944964e-01 
 7.9740366240908811e-01  8.0401008681924324e-01  8.1044926097347025e-01  8.1670694914729436e-01 
 8.2276849626760273e-01  8.2861897177353216e-01  8.3424334276159151e-01  8.3962667103177147e-01 
 8.4475432585310328e-01  8.4961220149303418e-01  8.5418692605502000e-01  8.5846604623732747e-01 
 8.6243817158701874e-01  8.6609306200532665e-01  8.6942164396588151e-01  8.7241594436988990e-01 
 8.7506893630346894e-01  8.7737429814139045e-01  8.7932609621036895e-01  8.8091841109155655e-01 
 8.8214493784952452e-01  8.8299860000851960e-01  8.8347122472118178e-01  8.8355333091501609e-01 
 8.8323408186645780e-01  8.8250144740132186e-01  8.8134260786867125e-01  8.7974461187634034e-01 
 8.7769527300303507e-01  8.7518425878843653e-01  8.7220429081112949e-01  8.6875234123016298e-01 
 8.6483068332459123e-01  8.6044763638623867e-01  8.5561784384476991e-01  8.5036194199849613e-01 
 8.4470551781796388e-01  8.3867731808523571e-01  8.3230675544024268e-01  8.2562085277179931e-01 
 8.1864086509913681e-01  8.1137890380987820e-01  8.0383794298241784e-01  7.9602435469659427e-01 
 7.8794646089117937e-01  7.7961281473490474e-01  7.7103218811449259e-01  7.6221355887602726e-01 
 7.5316609780706001e-01  7.4389915538247486e-01  7.3442224829767766e-01  7.2474504581230115e-01 
 7.1487735592717128e-01  7.0482911141676385e-01  6.9461035573881758e-01  6.8423122884218190e-01 
 6.7370195289335544e-01  6.6303281794155655e-01  6.5223416754155616e-01  6.4131638435292715e-01 
 6.3028987573382944e-01  6.1916505934698973e-01  6.0795234879516880e-01  5.9666213930312806e-01 
 5.8530479346298980e-01  5.7389062705988847e-01  5.6242989499499529e-01  5.5093277732335078e-01 
 5.3940936542449180e-01  5.2786964832460470e-01  5.1632349918987019e-01  5.0478066201179284e-01 
 4.9325073850660783e-01  4.8174317525230620e-01  4.7026725108837591e-01  4.5883206480500938e-01 
 4.4744652315017763e-01  4.3611932918461754e-01  4.2485897101630971e-01  4.1367371094739408e-01 
 4.0257157506762209e-01  3.9156034332925349e-01  3.8064754013878271e-01  3.6984042550088564e-01 
 3.5914598674951348e-01  3.4857093090005603e-01  3.3812167765493739e-01  3.2780435309287265e-01 
 3.1762478406932199e-01  3.0758849335243316e-01  2.9770069551502526e-01  2.8796629359897574e-01 
 2.7838987656381065e-01  2.6897571752643068e-01  2.5972777279385190e-01  2.5064968168566065e-01 
 2.4174476713770535e-01  2.3301603707345206e-01  2.2446618652452455e-01  2.1609760047729440e-01 
 2.0791235741809388e-01  1.9991223354572124e-01  1.9209870761647935e-01  1.8447296638405233e-01 
 1.7703591059411727e-01  1.6978816149172449e-01  1.6273006779815447e-01  1.5586171311317062e-01 
 1.4918292369831296e-01  1.4269327659709169e-01  1.3639210804860877e-01  1.3027852215222371e-01 
 1.2435139974233941e-01  1.1860940743417424e-01  1.1305100680346181e-01  1.0767446366532346e-01 
 1.0247785742005594e-01  9.7459090436202780e-02  9.2615897444000353e-02  8.7945854915048527e-02 
 8.3446390406809692e-02  7.9114791853242564e-02  7.4948216785480484e-02  7.0943701468928921e-02 
 6.7098169945440003e-02  6.3408442971286338e-02  5.9871246843470505e-02  5.6483222108440180e-02 
 5.3240932148511777e-02  5.0140871642222411e-02  4.7179474895424733e-02  4.4353124040214353e-02 
 4.1658157098745867e-02  3.9090875908672981e-02  3.6647553906369451e-02  3.4324443763286618e-02 
 3.2117784869828914e-02  3.0023810660024804e-02  2.8038755769094387e-02  2.6158863014819681e-02 
 2.4380390192463623e-02  2.2699616671911199e-02  2.1112849784769093e-02  1.9616430988400220e-02 
 1.8206741793321848e-02  1.6880209440088220e-02  1.5633312311728771e-02  1.4462585068031733e-02 
 1.3364623488451563e-02  1.2336089011171404e-02  1.1373712956854239e-02  1.0474300426850115e-02 
 9.6347338670660643e-03  8.8519762903207216e-03  8.1230741517668778e-03  7.4451598738368647e-03 
 6.8154540191144074e-03  6.2312671115281526e-03  5.6900011082629438e-03  5.1891505267642711e-03 
 4.7263032331394967e-03  4.2991409001108235e-03  3.9054391444254743e-03  3.5430673552588254e-03 
 3.2099882266388938e-03  2.9042570082627363e-03  2.6240204902562110e-03  2.3675157384415424e-03 
 2.1330685975177017e-03  1.9190919802254047e-03  1.7240839610626179e-03  1.5466256934409009e-03 
 1.3853791693331380e-03  1.2390848404659315e-03  1.1065591199637000e-03  9.8669178306585656e-04 
 8.7844328512397274e-04  7.8084201455391462e-04  6.9298149778043033e-04  6.1401757248092683e-04 
 5.4316554462354480e-04  4.7969734391466130e-04  4.2293869133494478e-04  3.7226629146310740e-04 
 3.2710506127429391e-04  2.8692540606680442e-04  2.5124055212725203e-04  2.1960394470031132e-04 
 1.9160671879424950e-04  1.6687524933599627e-04  1.4506878619740054e-04  1.2587717865448114e-04 
 1.0901869292005291e-04  9.4237925512392567e-05  8.1303814393066700e-05  7.0007749029330838e-05 
 6.0161779813480976e-05  5.1596926605283996e-05  4.4161585555486741e-05  3.7720032819075946e-05 
 3.2151023276445574e-05  2.7346481948352478e-05  2.3210285415384357e-05  1.9657130233015979e-05 
 1.6611485067153918e-05  1.4006623059951349e-05  1.1783730768885648e-05  9.8910899006436708e-06 
 8.2833279820643864e-06  6.9207340699046806e-06  5.7686355960863094e-06  4.7968324718633427e-06 
 3.9790846295301467e-06  3.2926492604170739e-06  2.7178641096161330e-06  2.2377733078713138e-06 
 1.8377923562237940e-06  1.5054090263476483e-06  1.2299170962547461e-06  1.0021800045930472e-06 
 8.1442167472375741e-07  6.6004192996956048e-07  5.3345409192859107e-07  4.2994252281829327e-07 
 3.4553803893980348e-07  2.7690928424037853e-07  2.2126830950786050e-07  1.7628875306229824e-07 
 1.4003516220529061e-07  1.1090213060867735e-07  8.7562054889997473e-08  6.8920433595039554e-08 
 5.4077743578543637e-08  4.2297032346691507e-08  3.2976460401876216e-08  2.5626115197724377e-08 
 1.9848498226810525e-08  1.5322159338100944e-08  1.1788017973543148e-08  9.0379700141453857e-09 
 6.9054317489576068e-09  5.2575195527357226e-09  3.9886056123430718e-09  3.0150269090987881e-09 
 2.2707570676972054e-09  1.7038790327943883e-09  1.2737212261044631e-09  9.4854124439074630e-10 
 7.0365963460512337e-10  5.1996215560272713e-10  3.8270251085470939e-10  2.8054909310974266e-10 
 2.0482907505240905e-10  1.4893144057339248e-10  1.0783748692126668e-10  7.7753132104589920e-11 
 5.5822221396838532e-11  3.9903697766149774e-11  2.8399541185358590e-11  2.0122256658207231e-11 
 1.4193317603411898e-11  9.9656906165101785e-12  6.9650004951652325e-12  4.8450566950680568e-12 
 3.3543925051969274e-12  2.3112088518890636e-12  1.5847014006840678e-12  1.0812121257032839e-12 
 7.3400920350987907e-13  4.9578203074996507e-13  3.3315774239870715e-13  2.2271511126014198e-13 
 1.4810186105698628e-13  9.7960822889862513e-14  6.4445862178097283e-14  4.2165532006526109e-14 
 2.7435247688478095e-14  1.7750776427758052e-14  1.1419602490430642e-14  7.3042790771552420e-15 
 4.6447636117692993e-15  2.9361380792532934e-15  1.8449398522407444e-15  1.1522498410077731e-15 
 7.1521265454005460e-16  4.4117686941757376e-16  2.7042307745261599e-16  1.6469948065651927e-16 
 9.9660184871473215e-17  5.9909427239404817e-17  3.5774637013014029e-17  2.1218956283511791e-17 
 1.2499806486848933e-17  7.3126498616835041e-18  4.2481624044473132e-18  2.4504663888910284e-18 
 1.4034511971570878e-18  7.9812221680091585e-19  4.5084502336973654e-19  2.5333187964310314e-19 
 0.0000000000000000e+00  0.0000000000000000e+00  0.0000000000000000e+00  0.0000000000000000e+00 
 0.0000000000000000e+00  0.0000000000000000e+00  0.0000000000000000e+00  0.0000000000000000e+00 
 0.0000000000000000e+00  0.0000000000000000e+00  0.0000000000000000e+00  0.0000000000000000e+00 
 0.0000000000000000e+00  0.0000000000000000e+00  0.0000000000000000e+00  0.0000000000000000e+00 
 0.0000000000000000e+00  0.0000000000000000e+00  0.0000000000000000e+00  0.0000000000000000e+00 
 0.0000000000000000e+00  0.0000000000000000e+00  0.0000000000000000e+00  0.0000000000000000e+00 
 0.0000000000000000e+00  0.0000000000000000e+00  0.0000000000000000e+00  0.0000000000000000e+00 
 0.0000000000000000e+00  0.0000000000000000e+00  0.0000000000000000e+00  0.0000000000000000e+00 
 0.0000000000000000e+00  0.0000000000000000e+00  0.0000000000000000e+00  0.0000000000000000e+00 
 0.0000000000000000e+00  0.0000000000000000e+00  0.0000000000000000e+00  0.0000000000000000e+00 
 0.0000000000000000e+00  0.0000000000000000e+00  0.0000000000000000e+00  0.0000000000000000e+00 
 0.0000000000000000e+00  0.0000000000000000e+00  0.0000000000000000e+00  0.0000000000000000e+00 
 0.0000000000000000e+00  0.0000000000000000e+00  0.0000000000000000e+00  0.0000000000000000e+00 
 0.0000000000000000e+00  0.0000000000000000e+00  0.0000000000000000e+00  0.0000000000000000e+00 
 0.0000000000000000e+00  0.0000000000000000e+00  0.0000000000000000e+00  0.0000000000000000e+00 
 0.0000000000000000e+00  0.0000000000000000e+00  0.0000000000000000e+00  0.0000000000000000e+00 
 0.0000000000000000e+00  0.0000000000000000e+00  0.0000000000000000e+00  0.0000000000000000e+00 
 0.0000000000000000e+00  0.0000000000000000e+00  0.0000000000000000e+00  0.0000000000000000e+00 
 0.0000000000000000e+00  0.0000000000000000e+00  0.0000000000000000e+00  0.0000000000000000e+00 
 0.0000000000000000e+00  0.0000000000000000e+00  0.0000000000000000e+00  0.0000000000000000e+00 
 0.0000000000000000e+00  0.0000000000000000e+00  0.0000000000000000e+00  0.0000000000000000e+00 
 0.0000000000000000e+00  0.0000000000000000e+00 
P    1   3.00          Wavefunction
 7.9556580459851131e-09  8.1652176239210613e-09  8.3802971998627989e-09  8.6010421757913126e-09 
 8.8276017837135484e-09  9.0601291865489575e-09  9.2987815816734274e-09  9.5437203071907020e-09 
 9.7951109510030566e-09  1.0053123462755045e-08  1.0317932268725876e-08  1.0589716389748251e-08 
 1.0868659562233221e-08  1.1154950362383016e-08  1.1448782333675681e-08  1.1750354117707869e-08 
 1.2059869588484077e-08  1.2377537990243243e-08  1.2703574078915777e-08  1.3038198267306764e-08 
 1.3381636774103364e-08  1.3734121776807255e-08  1.4095891568695445e-08  1.4467190719915580e-08 
 1.4848270242824641e-08  1.5239387761682846e-08  1.5640807686817432e-08  1.6052801393374076e-08 
 1.6475647404776814e-08  1.6909631581020396e-08  1.7355047311922590e-08  1.7812195715466744e-08 
 1.8281385841369060e-08  1.8762934880007847e-08  1.9257168376856326e-08  1.9764420452563704e-08 
 2.0285034028833386e-08  2.0819361060251113e-08  2.1367762772219556e-08  2.1930609905160452e-08 
 2.2508282965149163e-08  2.3101172481151188e-08  2.3709679269034643e-08  2.4334214702536879e-08 
 2.4975200991368809e-08  2.5633071466644686e-08  2.6308270873830264e-08  2.7001255673407713e-08 
 2.7712494349460144e-08  2.8442467726384639e-08  2.9191669293947698e-08  2.9960605540903086e-08 
 3.0749796297397406e-08  3.1559775086394909e-08  3.2391089484359327e-08  3.3244301491436211e-08 
 3.4119987911386378e-08  3.5018740741527014e-08  3.5941167572944290e-08  3.6887892001247975e-08 
 3.7859554048145624e-08  3.8856810594121496e-08  3.9880335822512556e-08  4.0930821675281920e-08 
 4.2008978320797875e-08  4.3115534633934404e-08  4.4251238688818264e-08  4.5416858264555240e-08 
 4.6613181364278004e-08  4.7841016747865853e-08  4.9101194478696971e-08  5.0394566484802612e-08 
 5.1722007134802677e-08  5.3084413829011769e-08  5.4482707606115728e-08  5.5917833765828667e-08 
 5.7390762507950913e-08  5.8902489588260915e-08  6.0454036991683640e-08  6.2046453623190754e-08 
 6.3680816016900141e-08  6.5358229063853147e-08  6.7079826758962981e-08  6.8846772967637483e-08 
 7.0660262212596346e-08  7.2521520481413159e-08  7.4431806055329131e-08  7.6392410359898587e-08 
 7.8404658838041107e-08  8.0469911846090835e-08  8.2589565573448225e-08  8.4765052986456762e-08 
 8.6997844797141607e-08  8.9289450457466538e-08  9.1641419179779809e-08  9.4055340984139609e-08 
 9.6532847773227574e-08  9.9075614435575704e-08  1.0168535997785407e-07  1.0436384868698322e-07 
 1.0711289132285860e-07  1.0993434634249126e-07  1.1283012115639496e-07  1.1580217341806641e-07 
 1.1885251234743206e-07  1.2198320008915607e-07  1.2519635310672654e-07  1.2849414361326416e-07 
 1.3187880104001839e-07  1.3535261354354695e-07  1.3891792955259398e-07  1.4257715935571523e-07 
 1.4633277673072307e-07  1.5018732061705155e-07  1.5414339683217426e-07  1.5820367983323254e-07 
 1.6237091452506887e-07  1.6664791811588273e-07  1.7103758202176887e-07  1.7554287382142019e-07 
 1.8016683926232137e-07  1.8491260431978620e-07  1.8978337731023208e-07  1.9478245106012025e-07 
 1.9991320513202705e-07  2.0517910810935389e-07  2.1058371994121461e-07  2.1613069434909438e-07 
 2.2182378129689727e-07  2.2766682952606038e-07  2.3366378915744320e-07  2.3981871436175356e-07 
 2.4613576610031565e-07  2.5261921493803086e-07  2.5927344393043553e-07  2.6610295158680573e-07 
 2.7311235491131275e-07  2.8030639252428601e-07  2.8768992786569118e-07  2.9526795248299259e-07 
 3.0304558940561855e-07  3.1102809660831506e-07  3.1922087056572478e-07  3.2762944990060004e-07 
 3.3625951912810862e-07  3.4511691249877189e-07  3.5420761794262441e-07  3.6353778111727127e-07 
 3.7311370956257042e-07  3.8294187696475442e-07  3.9302892753287271e-07  4.0338168049051208e-07 
 4.1400713468583471e-07  4.2491247332304469e-07  4.3610506881848959e-07  4.4759248778467250e-07 
 4.5938249614554591e-07  4.7148306438655305e-07  4.8390237294294944e-07  4.9664881773006658e-07 
 5.0973101581924045e-07  5.2315781126325115e-07  5.3693828107520927e-07  5.5108174136493086e-07 
 5.6559775363694700e-07  5.8049613125440892e-07  5.9578694607325972e-07  6.1148053525115035e-07 
 6.2758750823571173e-07  6.4411875393690172e-07  6.6108544808827211e-07  6.7849906080214743e-07 
 6.9637136432380270e-07  7.1471444098989531e-07  7.3354069139652721e-07  7.5286284278246174e-07 
 7.7269395763315768e-07  7.9304744251143840e-07  8.1393705712077145e-07  8.3537692360727319e-07 
 8.5738153610674455e-07  8.7996577054317456e-07  9.0314489468534377e-07  9.2693457846832434e-07 
 9.5135090458686360e-07  9.7641037936778927e-07  1.0021299439288127e-06  1.0285269856312561e-06 
 1.0556193498344510e-06  1.0834253519597580e-06  1.1119637898723581e-06  1.1412539565891862e-06 
 1.1713156533215962e-06  1.2021692028615867e-06  1.2338354633206167e-06  1.2663358422303128e-06 
 1.2996923110145990e-06  1.3339274198430211e-06  1.3690643128753284e-06  1.4051267439075922e-06 
 1.4421390924304592e-06  1.4801263801103764e-06  1.5191142877049521e-06  1.5591291724238663e-06 
 1.6001980857470732e-06  1.6423487917123505e-06  1.6856097856845322e-06  1.7300103136191601e-06 
 1.7755803918335159e-06  1.8223508272984459e-06  1.8703532384646729e-06  1.9196200766376843e-06 
 1.9701846479156355e-06  2.0220811357051083e-06  2.0753446238299382e-06  2.1300111202487266e-06 
 2.1861175813970931e-06  2.2437019371710968e-06  2.3028031165687217e-06  2.3634610740067707e-06 
 2.4257168163309539e-06  2.4896124305374067e-06  2.5551911122244223e-06  2.6224971947935827e-06 
 2.6915761794200520e-06  2.7624747658123034e-06  2.8352408837820398e-06  2.9099237256456770e-06 
 2.9865737794792641e-06  3.0652428632493585e-06  3.1459841598428946e-06  3.2288522530197185e-06 
 3.3139031643121416e-06  3.4011943908963725e-06  3.4907849444615399e-06  3.5827353911024429e-06 
 3.6771078922631284e-06  3.7739662467588534e-06  3.8733759339049462e-06  3.9754041577816223e-06 
 4.0801198926647403e-06  4.1875939296531723e-06  4.2978989245243090e-06  4.4111094468500905e-06 
 4.5273020304066772e-06  4.6465552249119139e-06  4.7689496491254966e-06  4.8945680453478033e-06 
 5.0234953353541453e-06  5.1558186778022958e-06  5.2916275271520931e-06  5.4310136941369103e-06 
 5.5740714078279331e-06  5.7208973793330987e-06  5.8715908671738533e-06  6.0262537443837840e-06 
 6.1849905673746540e-06  6.3479086466162208e-06  6.5151181191776752e-06  6.6867320231797697e-06 
 6.8628663742078494e-06  7.0436402437375812e-06  7.2291758396262151e-06  7.4195985887239375e-06 
 7.6150372216609705e-06  7.8156238598679712e-06  8.0214941048882538e-06  8.2327871300424286e-06 
 8.4496457745072548e-06  8.6722166398723834e-06  8.9006501892402073e-06  9.1351008489357543e-06 
 9.3757271128954713e-06  9.6226916498052462e-06  9.8761614130603385e-06  1.0136307753621287e-05 
 1.0403306535842186e-05  1.0677338256349577e-05  1.0958588166052252e-05  1.1247246395364531e-05 
 1.1543508082727466e-05  1.1847573506514958e-05  1.2159648220413825e-05  1.2479943192369424e-05 
 1.2808674947190540e-05  1.3146065712910058e-05  1.3492343571000220e-05  1.3847742610544013e-05 
 1.4212503086466829e-05  1.4586871581935375e-05  1.4971101175033420e-05  1.5365451609827123e-05 
 1.5770189471935543e-05  1.6185588368724772e-05  1.6611929114247653e-05  1.7049499919053862e-05 
 1.7498596584998644e-05  1.7959522705181912e-05  1.8432589869152650e-05  1.8918117873517232e-05 
 1.9416434938094002e-05  1.9927877927760323e-05  2.0452792580141458e-05  2.0991533739295622e-05 
 2.1544465595552763e-05  2.2111961931669036e-05  2.2694406375463567e-05  2.3292192659107773e-05 
 2.3905724885242562e-05  2.4535417800103102e-05  2.5181697073835837e-05  2.5844999588196400e-05 
 2.6525773731823963e-05  2.7224479703289981e-05  2.7941589822127082e-05  2.8677588848047617e-05 
 2.9432974308567696e-05  3.0208256835257654e-05  3.1003960508846377e-05  3.1820623213412256e-05 
 3.2658796999899696e-05  3.3519048459207522e-05  3.4401959105100080e-05  3.5308125767200156e-05 
 3.6238160994328974e-05  3.7192693468465613e-05  3.8172368429605021e-05  3.9177848111801655e-05 
 4.0209812190693315e-05  4.1268958242806310e-05  4.2356002216953643e-05  4.3471678918042388e-05 
 4.4616742503618493e-05  4.5791966993482909e-05  4.6998146792723945e-05  4.8236097228517891e-05 
 4.9506655101060804e-05  5.0810679249002926e-05  5.2149051129767126e-05  5.3522675415143553e-05 
 5.4932480602561209e-05  5.6379419642449760e-05  5.7864470582114509e-05  5.9388637226558712e-05 
 6.0952949816699110e-05  6.2558465725432008e-05  6.4206270172019564e-05  6.5897476955277353e-05 
 6.7633229206059224e-05  6.9414700159544664e-05  7.1243093947851108e-05  7.3119646413504771e-05 
 7.5045625944318524e-05  7.7022334330239921e-05  7.9051107642746441e-05  8.1133317137381037e-05 
 8.3270370180035463e-05  8.5463711197607769e-05  8.7714822653671185e-05  9.0025226049814696e-05 
 9.2396482953328683e-05  9.4830196051927431e-05  9.7328010236220387e-05  9.9891613710660087e-05 
 1.0252273913371501e-04  1.0522316478803535e-04  1.0799471578140056e-04  1.1083926527925528e-04 
 1.1375873576966432e-04  1.1675510036153896e-04  1.1983038411700682e-04  1.2298666541882256e-04 
 1.2622607737374010e-04  1.2955080925278946e-04  1.3296310796942682e-04  1.3646527959655452e-04 
 1.4005969092342765e-04  1.4374877105349657e-04  1.4753501304425880e-04  1.5142097559022271e-04 
 1.5540928475011372e-04  1.5950263571948558e-04  1.6370379464992403e-04  1.6801560051606904e-04 
 1.7244096703170758e-04  1.7698288461622381e-04  1.8164442241272712e-04  1.8642873035921314e-04 
 1.9133904131414837e-04  1.9637867323790326e-04  2.0155103143149926e-04  2.0685961083417073e-04 
 2.1230799838128074e-04  2.1789987542417759e-04  2.2363902021360651e-04  2.2952931044834725e-04 
 2.3557472589078184e-04  2.4177935105114683e-04  2.4814737794226656e-04  2.5468310890661182e-04 
 2.6139095951757896e-04  2.6827546155692511e-04  2.7534126607036162e-04  2.8259314650333814e-04 
 2.9003600191912287e-04  2.9767486030132632e-04  3.0551488194307576e-04  3.1356136292510649e-04 
 3.2181973868509149e-04  3.3029558768059324e-04  3.3899463514807927e-04  3.4792275696051876e-04 
 3.5708598358612009e-04  3.6649050415086008e-04  3.7614267060750637e-04  3.8604900201391195e-04 
 3.9621618892343285e-04  4.0665109789038954e-04  4.1736077609357100e-04  4.2835245608085582e-04 
 4.3963356063810976e-04  4.5121170778558760e-04  4.6309471590516436e-04  4.7529060900179757e-04 
 4.8780762210271368e-04  5.0065420679789902e-04  5.1383903692556806e-04  5.2737101440637855e-04 
 5.4125927523025036e-04  5.5551319559976630e-04  5.7014239823419859e-04  5.8515675883834294e-04 
 6.0056641274043154e-04  6.1638176170350316e-04  6.3261348091473303e-04  6.4927252615732539e-04 
 6.6637014116969866e-04  6.8391786519680410e-04  7.0192754073856284e-04  7.2041132150049540e-04 
 7.3938168055178485e-04  7.5885141869612329e-04  7.7883367306083552e-04  7.9934192590991294e-04 
 8.2039001368672368e-04  8.4199213629232938e-04  8.6416286660545387e-04  8.8691716025035745e-04 
 9.1027036561895582e-04  9.3423823415373969e-04  9.5883693089819102e-04  9.8408304532155463e-04 
 1.0099936024250114e-03  1.0365860741364580e-03  1.0638783910012872e-03  1.0918889541767351e-03 
 1.1206366477375862e-03  1.1501408513011446e-03  1.1804214529796649e-03  1.2114988626685651e-03 
 1.2433940256789938e-03  1.2761284367235112e-03  1.3097241542638673e-03  1.3442038152300759e-03 
 1.3795906501202009e-03  1.4159084984905386e-03  1.4531818248460378e-03  1.4914357349411222e-03 
 1.5306959925012675e-03  1.5709890363759626e-03  1.6123419981339251e-03  1.6547827201117062e-03 
 1.6983397739271013e-03  1.7430424794690016e-03  1.7889209243756980e-03  1.8360059840138053e-03 
 1.8843293419703649e-03  1.9339235110709318e-03  1.9848218549367524e-03  2.0370586100944650e-03 
 2.0906689086520416e-03  2.1456888015550261e-03  2.2021552824374275e-03  2.2601063120820026e-03 
 2.3195808435049160e-03  2.3806188476801888e-03  2.4432613399196488e-03  2.5075504069244571e-03 
 2.5735292345246629e-03  2.6412421361235593e-03  2.7107345818640520e-03  2.7820532285345451e-03 
 2.8552459502323387e-03  2.9303618698027982e-03  3.0074513910730511e-03  3.0865662318993042e-03 
 3.1677594580473509e-03  3.2510855179261212e-03  3.3366002781947189e-03  3.4243610602636408e-03 
 3.5144266777113889e-03  3.6068574746381957e-03  3.7017153649787512e-03  3.7990638727965977e-03 
 3.8989681735830555e-03  4.0014951365840868e-03  4.1067133681789393e-03  4.2146932563348841e-03 
 4.3255070161627709e-03  4.4392287365985867e-03  4.5559344282368047e-03  4.6757020723414448e-03 
 4.7986116710616233e-03  4.9247452988785178e-03  5.0541871553112811e-03  5.1870236189098919e-03 
 5.3233433025632864e-03  5.4632371101517030e-03  5.6067982945724633e-03  5.7541225171690641e-03 
 5.9053079085936138e-03  6.0604551311332867e-03  6.2196674425318765e-03  6.3830507613377562e-03 
 6.5507137338101729e-03  6.7227678024160287e-03  6.8993272759497633e-03  7.0805094013091582e-03 
 7.2664344369605558e-03  7.4572257281267373e-03  7.6530097837315810e-03  7.8539163551355051e-03 
 8.0600785166960592e-03  8.2716327481882519e-03  8.4887190191193646e-03  8.7114808749730686e-03 
 8.9400655254178625e-03  9.1746239345149548e-03  9.4153109129604413e-03  9.6622852123969660e-03 
 9.9157096218296902e-03  1.0175751066181436e-02  1.0442580707021448e-02  1.0716374045502214e-02 
 1.0997311027538162e-02  1.1285576151259779e-02  1.1581358576776344e-02  1.1884852238279425e-02 
 1.2196255958519090e-02  1.2515773565683661e-02  1.2843614012713174e-02  1.3179991499075486e-02 
 1.3525125595032998e-02  1.3879241368426616e-02  1.4242569514002098e-02  1.4615346485302726e-02 
 1.4997814629149946e-02  1.5390222322732227e-02  1.5792824113320097e-02  1.6205880860623273e-02 
 1.6629659881802913e-02  1.7064435099149879e-02  1.7510487190436640e-02  1.7968103741947294e-02 
 1.8437579404187329e-02  1.8919216050270027e-02  1.9413322936973686e-02  1.9920216868458594e-02 
 2.0440222362628688e-02  2.0973671820117761e-02  2.1520905695874601e-02  2.2082272673316299e-02 
 2.2658129841012162e-02  2.3248842871855319e-02  2.3854786204670894e-02  2.4476343228203388e-02 
 2.5113906467417287e-02  2.5767877772037408e-02  2.6438668507245567e-02  2.7126699746441468e-02 
 2.7832402465965696e-02  2.8556217741671431e-02  2.9298596947221239e-02  3.0060001953972099e-02 
 3.0840905332300120e-02  3.1641790554203165e-02  3.2463152197004352e-02  3.3305496147965609e-02 
 3.4169339809604363e-02  3.5055212305489601e-02  3.5963654686276311e-02  3.6895220135719158e-02 
 3.7850474176386248e-02  3.8829994874774364e-02  3.9834373045504752e-02  4.0864212454257691e-02 
 4.1920130019078829e-02  4.3002756009667152e-02  4.4112734244228687e-02  4.5250722283451748e-02 
 4.6417391621135395e-02  4.7613427870967701e-02  4.8839530948926825e-02  5.0096415250741051e-02 
 5.1384809823814277e-02  5.2705458532988136e-02  5.4059120219477681e-02  5.5446568852279596e-02 
 5.6868593671315741e-02  5.8325999321536877e-02  5.9819605977166804e-02  6.1350249455232965e-02 
 6.2918781317479591e-02  6.4526068959723626e-02  6.6172995687662245e-02  6.7860460778099971e-02 
 6.9589379524516187e-02  7.1360683265843911e-02  7.3175319397287358e-02  7.5034251361951382e-02 
 7.6938458622013317e-02  7.8888936608110055e-02  8.0886696645572992e-02  8.2932765856081045e-02 
 8.5028187033263411e-02  8.7174018490724009e-02  8.9371333880915574e-02  9.1621221983236564e-02 
 9.3924786459677681e-02  9.6283145576294665e-02  9.8697431888734893e-02  1.0116879188999857e-01 
 1.0369838561856830e-01  1.0628738622499588e-01  1.0893697949498858e-01  1.1164836332699558e-01 
 1.1442274716225223e-01  1.1726135136519727e-01  1.2016540655214009e-01  1.2313615286600993e-01 
 1.2617483919499103e-01  1.2928272233279320e-01  1.3246106607828226e-01  1.3571114027214815e-01 
 1.3903421976824906e-01  1.4243158333722827e-01  1.4590451249995651e-01  1.4945429028829779e-01 
 1.5308219993065292e-01  1.5678952345966668e-01  1.6057754023942197e-01  1.6444752540936924e-01 
 1.6840074824215059e-01  1.7243847041238147e-01  1.7656194417333909e-01  1.8077241043837786e-01 
 1.8507109676374456e-01  1.8945921522929238e-01  1.9393796021341550e-01  1.9850850605828815e-01 
 2.0317200462126683e-01  2.0792958270803452e-01  2.1278233938275809e-01  2.1773134315020851e-01 
 2.2277762900441014e-01  2.2792219533800517e-01  2.3316600070607479e-01  2.3850996043771269e-01 
 2.4395494308815951e-01  2.4950176672380697e-01  2.5515119503186057e-01  2.6090393324594707e-01 
 2.6676062387841637e-01  2.7272184224962814e-01  2.7878809180403935e-01  2.8495979920252884e-01 
 2.9123730918009294e-01  2.9762087915783253e-01  3.0411067359811383e-01  3.1070675809190018e-01 
 3.1740909316760024e-01  3.2421752781137642e-01  3.3113179268978277e-01  3.3815149306686709e-01 
 3.4527610140958165e-01  3.5250494967749746e-01  3.5983722129553303e-01  3.6727194281167708e-01 
 3.7480797524562770e-01  3.8244400513888055e-01  3.9017853532216890e-01  3.9800987542227356e-01 
 4.0593613213716112e-01  4.1395519931610342e-01  4.2206474788996012e-01  4.3026221570599760e-01 
 4.3854479733155427e-01  4.4690943390128501e-01  4.5535280309359705e-01  4.6387130933294685e-01 
 4.7246107432573536e-01  4.8111792804826514e-01  4.8983740031530232e-01  4.9861471306680766e-01 
 5.0744477351790929e-01  5.1632216832271649e-01  5.2524115890554279e-01  5.3419567811300650e-01 
 5.4317932833670057e-01  5.5218538124813454e-01  5.6120677927491391e-01  5.7023613892918634e-01 
 5.7926575607592834e-01  5.8828761319939316e-01  5.9729338869110671e-01  6.0627446814229968e-01 
 6.1522195757823528e-01  6.2412669852233404e-01  6.3297928472568232e-01  6.4177008034404348e-01 
 6.5048923929213498e-01  6.5912672545628237e-01  6.6767233340469445e-01  6.7611570920308750e-01 
 6.8444637092595317e-01  6.9265372845454454e-01  7.0072710217560108e-01  7.0865574024387368e-01 
 7.1642883414996561e-01  7.2403553244538243e-01  7.3146495262042188e-01  7.3870619130715121e-01 
 7.4574833318703737e-01  7.5258045921577943e-01  7.5919165502882735e-01  7.6557102064897498e-01 
 7.7170768286784719e-01  7.7759081189830481e-01  7.8320964407387506e-01  7.8855351248074490e-01 
 7.9361188742257194e-01  7.9837442851296192e-01  8.0283104994109911e-01  8.0697200004257319e-01 
 8.1078795571626527e-01  8.1427013145486871e-01  8.1741040180931124e-01  8.2020143500956910e-01 
 8.2263683425774525e-01  8.2471128195541721e-01  8.2642068090852150e-01  8.2776228547144570e-01 
 8.2873481476640554e-01  8.2933853967445748e-01  8.2957533537320083e-01  8.2944869191700943e-01 
 8.2896367681909433e-01  8.2812684586156504e-01  8.2694610143297043e-01  8.2543050150006481e-01 
 8.2359002669804349e-01  8.2143531770548428e-01  8.1897739968562666e-01  8.1622741465533299e-01 
 8.1319638564126295e-01  8.0989503781342564e-01  8.0633370087724821e-01  8.0252231336839386e-01 
 7.9847054280847429e-01  7.9418802588056991e-01  7.8968472015190805e-01  7.8497134410582625e-01 
 7.8005986650498915e-01  7.7496399100734525e-01  7.6969956949807994e-01  7.6428487003185253e-01 
 7.5874062486503968e-01  7.5308979277637034e-01  7.4735698905370218e-01  7.4156756644957511e-01 
 7.3574636995544818e-01  7.2991623461003530e-01  7.2409634415335988e-01  7.1830061293894076e-01 
 7.1253628671330260e-01  7.0680297187456342e-01  7.0109229058539191e-01  6.9538831571255244e-01 
 6.8966886363883428e-01  6.8390761805716793e-01  6.7807693314384954e-01  6.7215103504790552e-01 
 6.6610922627920544e-01  6.5994021896884014e-01  6.5364533641923883e-01  6.4722838970687269e-01 
 6.4069326836956508e-01  6.3404393674713455e-01  6.2728443028045600e-01  6.2041885176706757e-01 
 6.1345136757021790e-01  6.0638620377745378e-01  5.9922764230412828e-01  5.9198001693657520e-01 
 5.8464770930919518e-01  5.7723514480933846e-01  5.6974678840368098e-01  5.6218714037980944e-01 
 5.5456073199696332e-01  5.4687212104038097e-01  5.3912588727443822e-01  5.3132662779081585e-01 
 5.2347895224925045e-01  5.1558747801004379e-01  5.0765682515940358e-01  4.9969161143085294e-01 
 4.9169644702834880e-01  4.8367592935934806e-01  4.7563463768881892e-01  4.6757712772802862e-01 
 4.5950792617482333e-01  4.5143152522492164e-01  4.4335237707645075e-01  4.3527488845243584e-01 
 4.2720341516815646e-01  4.1914225677212191e-01  4.1109565129082554e-01  4.0306777010835654e-01 
 3.9506271301232998e-01  3.8708450343741019e-01  3.7913708393692985e-01  3.7122431191175742e-01 
 3.6334995562364114e-01  3.5551769051780069e-01  3.4773109587660073e-01  3.3999365182276309e-01 
 3.3230873668685279e-01  3.2467962474975826e-01  3.1710948436668718e-01  3.0960137647486685e-01 
 3.0215825348279507e-01  2.9478295853457387e-01  2.8747822513867954e-01  2.8024667714653173e-01 
 2.7309082906248278e-01  2.6601308666341689e-01  2.5901574790306425e-01  2.5210100407343039e-01 
 2.4527094119346013e-01  2.3852754159319911e-01  2.3187268566031366e-01  2.2530815371488785e-01 
 2.1883562797793921e-01  2.1245669459908295e-01  2.0617284570923317e-01  1.9998548146514508e-01 
 1.9389591205398102e-01  1.8790535962789220e-01  1.8201496014086477e-01  1.7622576506273169e-01 
 1.7053874294829860e-01  1.6495478084293075e-01  1.5947468550966193e-01  1.5409918446686854e-01 
 1.4882892682974747e-01  1.4366448395317696e-01  1.3860634987795736e-01  1.3365494158683933e-01 
 1.2881059908106987e-01  1.2407358529233330e-01  1.1944408584883923e-01  1.1492220871784389e-01 
 1.1050798374998450e-01  1.0620136215340514e-01  1.0200221592769079e-01  9.7910337289052782e-02 
 9.3925438119012578e-02  9.0047149468978682e-02  8.6275021152627418e-02  8.2608521456895068e-02 
 7.9047037000709933e-02  7.5589872768391131e-02  7.2236252341981166e-02  6.8985318353737307e-02 
 6.5836133176660649e-02  6.2787679867378363e-02  5.9838863371995836e-02  5.6988512001783120e-02 
 5.4235379181831536e-02  5.1578145472182577e-02  4.9015420857451732e-02  4.6545747297700890e-02 
 4.4167601530297404e-02  4.1879398109765764e-02  3.9679492670221229e-02  3.7566185392880917e-02 
 3.5537724659389570e-02  3.3592310870272139e-02  3.1728100406727036e-02  2.9943209713191608e-02 
 2.8235719477627735e-02  2.6603678886271902e-02  2.5045109929648826e-02  2.3558011736936838e-02 
 2.2140364916272366e-02  2.0790135879266803e-02  1.9505281128855478e-02  1.8283751490583287e-02 
 1.7123496268532115e-02  1.6022467308288716e-02  1.4978622950620451e-02  1.3989931860849311e-02 
 1.3054376720277313e-02  1.2169957767401431e-02  1.1334696178050978e-02  1.0546637274971968e-02 
 9.8038535587605148e-03  9.1044475534012015e-03  8.4465544609880171e-03  7.8283446214878639e-03 
 7.2480257746431360e-03  6.7038451222957039e-03  6.1940911905449007e-03  5.7170954922235841e-03 
 5.2712339911858168e-03  4.8549283708450765e-03  4.4666471102816196e-03  4.1049063720501201e-03 
 3.7682707065639755e-03  3.4553535786096233e-03  3.1648177221540287e-03  2.8953753301507392e-03 
 2.6457880865260797e-03  2.4148670479379958e-03  2.2014723832472602e-03  2.0045129789259199e-03 
 1.8229459188527826e-03  1.6557758471126244e-03  1.5020542225268219e-03  1.3608784737007831e-03 
 1.2313910633804247e-03  1.1127784708687553e-03  1.0042701011671955e-03  9.0513712937755433e-04 
 8.1469128873253081e-04  7.3228361041838242e-04  6.5730312311602359e-04  5.8917551991947753e-04 
 5.2736179999647473e-04  4.7135689203818071e-04  4.2068826620671380e-04  3.7491454093338040e-04 
 3.3362409055044646e-04  2.9643365935778677e-04  2.6298698733581054e-04  2.3295345232047740e-04 
 2.0602673305770487e-04  1.8192349715564116e-04  1.6038211755658714e-04  1.4116142075815984e-04 
 1.2403946962777419e-04  1.0881238327771641e-04  9.5293196101868966e-05  8.3310757721229687e-05 
 7.2708675245275218e-05  6.3344298931311381e-05  5.5087752015410640e-05  4.7821005197354112e-05 
 4.1436995988996912e-05  3.5838792881301804e-05  3.0938804050407839e-05  2.6658030107815880e-05 
 2.2925360204218844e-05  1.9676910620657384e-05  1.6855404824372643e-05  1.4409593829642908e-05 
 1.2293715585591044e-05  1.0466992012869893e-05  8.8931622286057230e-06  7.5400504332369940e-06 
 6.3791668830764109e-06  5.3853403376267375e-06  4.5363803499128941e-06  3.8127677603278213e-06 
 3.1973717586664391e-06  2.6751918940588237e-06  2.2331234373190782e-06  1.8597445337112316e-06 
 1.5451236252205918e-06  1.2806456690544316e-06  1.0588557322562235e-06  8.7331860001945528e-07 
 7.1849309659312808e-07  5.8961988169654584e-07  4.8262155127875407e-07  3.9401397835833983e-07 
 3.2082809021274710e-07  2.6053972942433587e-07  2.1100904683989120e-07  1.7042695014608878e-07 
 1.3726818083995326e-07  1.1025036109927553e-07  8.8298356380051238e-08  7.0513356143173647e-08 
 5.6146128834950300e-08  4.4573957983881869e-08  3.5280813944883927e-08  2.7840360379927962e-08 
 2.1901436007621098e-08  1.7175690514329690e-08  1.3427088856566551e-08  1.0463030584339255e-08 
 8.1268603849536483e-09  6.2915729104398214e-09  4.8545392466705375e-09  3.7331042554972517e-09 
 2.8609236264950777e-09  2.1849269694628688e-09  1.6628088209748004e-09  1.2609631851009340e-09 
 9.5278933381919348e-10  7.1730720576346479e-10  5.3803000583643560e-10  4.0204965878871239e-10 
 2.9929773517589596e-10  2.2195046779798978e-10  1.6395162173406221e-10  1.2063137350948345e-10 
 8.8403088080525773e-11  6.4523040882767522e-11  4.6900792528838472e-11  3.3950154269790076e-11 
 2.4472543957996397e-11  1.7566078858546776e-11  1.2555030650230580e-11  8.9353207861449578e-12 
 6.3325970940533193e-12  4.4701362745766609e-12  3.1443886634855297e-12  2.2064443266156882e-12 
 0.0000000000000000e+00  0.0000000000000000e+00  0.0000000000000000e+00  0.0000000000000000e+00 
 0.0000000000000000e+00  0.0000000000000000e+00  0.0000000000000000e+00  0.0000000000000000e+00 
 0.0000000000000000e+00  0.0000000000000000e+00  0.0000000000000000e+00  0.0000000000000000e+00 
 0.0000000000000000e+00  0.0000000000000000e+00  0.0000000000000000e+00  0.0000000000000000e+00 
 0.0000000000000000e+00  0.0000000000000000e+00  0.0000000000000000e+00  0.0000000000000000e+00 
 0.0000000000000000e+00  0.0000000000000000e+00  0.0000000000000000e+00  0.0000000000000000e+00 
 0.0000000000000000e+00  0.0000000000000000e+00  0.0000000000000000e+00  0.0000000000000000e+00 
 0.0000000000000000e+00  0.0000000000000000e+00  0.0000000000000000e+00  0.0000000000000000e+00 
 0.0000000000000000e+00  0.0000000000000000e+00  0.0000000000000000e+00  0.0000000000000000e+00 
 0.0000000000000000e+00  0.0000000000000000e+00  0.0000000000000000e+00  0.0000000000000000e+00 
 0.0000000000000000e+00  0.0000000000000000e+00  0.0000000000000000e+00  0.0000000000000000e+00 
 0.0000000000000000e+00  0.0000000000000000e+00  0.0000000000000000e+00  0.0000000000000000e+00 
 0.0000000000000000e+00  0.0000000000000000e+00  0.0000000000000000e+00  0.0000000000000000e+00 
 0.0000000000000000e+00  0.0000000000000000e+00  0.0000000000000000e+00  0.0000000000000000e+00 
 0.0000000000000000e+00  0.0000000000000000e+00  0.0000000000000000e+00  0.0000000000000000e+00 
 0.0000000000000000e+00  0.0000000000000000e+00  0.0000000000000000e+00  0.0000000000000000e+00 
 0.0000000000000000e+00  0.0000000000000000e+00  0.0000000000000000e+00  0.0000000000000000e+00 
 0.0000000000000000e+00  0.0000000000000000e+00  0.0000000000000000e+00  0.0000000000000000e+00 
 0.0000000000000000e+00  0.0000000000000000e+00  0.0000000000000000e+00  0.0000000000000000e+00 
 0.0000000000000000e+00  0.0000000000000000e+00  0.0000000000000000e+00  0.0000000000000000e+00 
 0.0000000000000000e+00  0.0000000000000000e+00  0.0000000000000000e+00  0.0000000000000000e+00 
 0.0000000000000000e+00  0.0000000000000000e+00 
</PP_PSWFC>


<PP_RHOATOM>
 5.4441712265778787e-09  5.5875758657963974e-09  5.7347579195187852e-09  5.8858168884413968e-09 
 6.0408548942041409e-09  6.1999767484286572e-09  6.3632900235750241e-09  6.5309051256649207e-09 
 6.7029353689203790e-09  6.8794970523685932e-09  7.0607095384645639e-09  7.2466953337847743e-09 
 7.4375801718463829e-09  7.6334930981079613e-09  7.8345665572092698e-09  8.0409364825089453e-09 
 8.2527423879807978e-09  8.4701274625306439e-09  8.6932386667976225e-09  8.9222268325052880e-09 
 9.1572467644297875e-09  9.3984573450538903e-09  9.6460216419777711e-09  9.9001070181591145e-09 
 1.0160885245056967e-08  1.0428532618756005e-08  1.0703230079149623e-08  1.0985163332262335e-08 
 1.1274522975794374e-08  1.1571504627973247e-08  1.1876309059799283e-08  1.2189142330774796e-08 
 1.2510215928208384e-08  1.2839746910188678e-08  1.3177958052324213e-08  1.3525077998348478e-08 
 1.3881341414692188e-08  1.4246989149126998e-08  1.4622268393588199e-08  1.5007432851286203e-08 
 1.5402742908220056e-08  1.5808465809208639e-08  1.6224875838558797e-08  1.6652254505492578e-08 
 1.7090890734458472e-08  1.7541081060456064e-08  1.8003129829505391e-08  1.8477349404397113e-08 
 1.8964060375862284e-08  1.9463591779304448e-08  1.9976281317240828e-08  2.0502475587602882e-08 
 2.1042530318050341e-08  2.1596810606457525e-08  2.2165691167734185e-08  2.2749556587148015e-08 
 2.3348801580319844e-08  2.3963831260067343e-08  2.4595061410277828e-08  2.5242918766995054e-08 
 2.5907841306910204e-08  2.6590278543451963e-08  2.7290691830676026e-08  2.8009554675159388e-08 
 2.8747353056110165e-08  2.9504585753909492e-08  3.0281764687307816e-08  3.1079415259502837e-08 
 3.1898076713334021e-08  3.2738302495833111e-08  3.3600660632377237e-08  3.4485734110697707e-08 
 3.5394121275004236e-08  3.6326436230490454e-08  3.7283309258494947e-08  3.8265387242597839e-08 
 3.9273334105941307e-08  4.0307831260069967e-08  4.1369578065593520e-08  4.2459292304984632e-08 
 4.3577710667830225e-08  4.4725589248865133e-08  4.5903704059124650e-08  4.7112851550561207e-08 
 4.8353849154480286e-08  4.9627535834159310e-08  5.0934772652023052e-08  5.2276443351759545e-08 
 5.3653454955769217e-08  5.5066738378351832e-08  5.6517249055045256e-08  5.8005967588542377e-08 
 5.9533900411621501e-08  6.1102080467539951e-08  6.2711567908349613e-08  6.4363450811607141e-08 
 6.6058845915963314e-08  6.7798899376128727e-08  6.9584787537726339e-08  7.1417717732554384e-08 
 7.3298929094798333e-08  7.5229693398741757e-08  7.7211315918544955e-08  7.9245136310670479e-08 
 8.1332529519552966e-08  8.3474906707126280e-08  8.5673716206834916e-08  8.7930444502776023e-08 
 9.0246617234632760e-08  9.2623800229080033e-08  9.5063600558357807e-08  9.7567667626729842e-08 
 1.0013769428556058e-07  1.0277541797776531e-07  1.0548262191240690e-07  1.0826113627023249e-07 
 1.1111283944096725e-07  1.1403965929319876e-07  1.1704357447771373e-07  1.2012661576516505e-07 
 1.2329086741897681e-07  1.2653846860441301e-07  1.2987161483476271e-07  1.3329255945562195e-07 
 1.3680361516827254e-07  1.4040715559319025e-07  1.4410561687473761e-07  1.4790149932812789e-07 
 1.5179736912977281e-07  1.5579586005215684e-07  1.5989967524441136e-07  1.6411158905979208e-07 
 1.6843444893129649e-07  1.7287117729668782e-07  1.7742477357422758e-07  1.8209831619045337e-07 
 1.8689496466137252e-07  1.9181796172847737e-07  1.9687063555102851e-07  2.0205640195608695e-07 
 2.0737876674781645e-07  2.1284132807761799e-07  2.1844777887669825e-07  2.2420190935271881e-07 
 2.3010760955221000e-07  2.3616887199048590e-07  2.4238979435083727e-07  2.4877458225482702e-07 
 2.5532755210556186e-07  2.6205313400586288e-07  2.6895587475330606e-07  2.7604044091416151e-07 
 2.8331162197830693e-07  2.9077433359724886e-07  2.9843362090744335e-07  3.0629466194116006e-07 
 3.1436277112719657e-07  3.2264340288381471e-07  3.3114215530632043e-07  3.3986477395178671e-07 
 3.4881715572347861e-07  3.5800535285759967e-07  3.6743557701506693e-07  3.7711420348107344e-07 
 3.8704777547527817e-07  3.9724300857554023e-07  4.0770679525819153e-07  4.1844620955791059e-07 
 4.2946851185035352e-07  4.4078115376077837e-07  4.5239178320197347e-07  4.6430824954490890e-07 
 4.7653860892559656e-07  4.8909112969175255e-07  5.0197429799294524e-07  5.1519682351801059e-07 
 5.2876764538360796e-07  5.4269593817790825e-07  5.5699111816349313e-07  5.7166284964366434e-07 
 5.8672105149647010e-07  6.0217590388086267e-07  6.1803785511952571e-07  6.3431762876302147e-07 
 6.5102623084004986e-07  6.6817495729869846e-07  6.8577540164373952e-07  7.0383946277512603e-07 
 7.2237935303298920e-07  7.4140760645458857e-07  7.6093708724878253e-07  7.8098099849376601e-07 
 8.0155289106395001e-07  8.2266667279202609e-07  8.4433661787240377e-07  8.6657737651239626e-07 
 8.8940398483766419e-07  9.1283187505863308e-07  9.3687688590475505e-07  9.6155527333366628e-07 
 9.8688372152250451e-07  1.0128793541487874e-06  1.0395597459685239e-06  1.0669429346993612e-06 
 1.0950474332168109e-06  1.1238922420718178e-06  1.1534968623381223e-06  1.1838813087981244e-06 
 1.2150661234761634e-06  1.2470723895283516e-06  1.2799217454983957e-06  1.3136363999490162e-06 
 1.3482391464788925e-06  1.3837533791352597e-06  1.4202031082326289e-06  1.4576129765882914e-06 
 1.4960082761856280e-06  1.5354149652764763e-06  1.5758596859341304e-06  1.6173697820688672e-06 
 1.6599733179181700e-06  1.7036990970241812e-06  1.7485766817112064e-06  1.7946364130764725e-06 
 1.8419094315076519e-06  1.8904276977410511e-06  1.9402240144747147e-06  1.9913320485510581e-06 
 2.0437863537240727e-06  2.0976223940264805e-06  2.1528765677526917e-06  2.2095862320737630e-06 
 2.2677897283010467e-06  2.3275264078156198e-06  2.3888366586810680e-06  2.4517619329575995e-06 
 2.5163447747360373e-06  2.5826288489106075e-06  2.6506589707100892e-06  2.7204811360072263e-06 
 2.7921425524270064e-06  2.8656916712748227e-06  2.9411782203061584e-06  3.0186532373600217e-06 
 3.0981691048788149e-06  3.1797795853381508e-06  3.2635398576104797e-06  3.3495065542872803e-06 
 3.4377377999850135e-06  3.5282932506608064e-06  3.6212341339645564e-06  3.7166232906547045e-06 
 3.8145252171058342e-06  3.9150061089368196e-06  4.0181339057891681e-06  4.1239783372857782e-06 
 4.2326109702014453e-06  4.3441052568769206e-06  4.4585365849093944e-06  4.5759823281531615e-06 
 4.6965218990648749e-06  4.8202368024291081e-06  4.9472106905004257e-06  5.0775294195995132e-06 
 5.2112811082016379e-06  5.3485561965569443e-06  5.4894475078829217e-06  5.6340503111706024e-06 
 5.7824623856471166e-06  5.9347840869382317e-06  6.0911184149759506e-06  6.2515710836970486e-06 
 6.4162505925799967e-06  6.5852683000687436e-06  6.7587384989331989e-06  6.9367784936176590e-06 
 7.1195086796295395e-06  7.3070526250224704e-06  7.4995371540289590e-06  7.6970924328995448e-06 
 7.8998520580065822e-06  8.1079531462727397e-06  8.3215364279853365e-06  8.5407463420599598e-06 
 8.7657311338177222e-06  8.9966429553428887e-06  9.2336379684889884e-06  9.4768764506034099e-06 
 9.7265229030424310e-06  9.9827461625505076e-06  1.0245719515579412e-05  1.0515620815625194e-05 
 1.0792632603662692e-05  1.1076942231759541e-05  1.1368741989953867e-05  1.1668229236482003e-05 
 1.1975606531444852e-05  1.2291081774004051e-05  1.2614868343201292e-05  1.2947185242496616e-05 
 1.3288257248124465e-05  1.3638315061368385e-05  1.3997595464858100e-05  1.4366341482995848e-05 
 1.4744802546621049e-05  1.5133234662025797e-05  1.5531900584436497e-05  1.5941069996080037e-05 
 1.6361019688955864e-05  1.6792033752439084e-05  1.7234403765842549e-05  1.7688428996069168e-05 
 1.8154416600490354e-05  1.8632681835188201e-05  1.9123548268704677e-05  1.9627348001443489e-05 
 2.0144421890874858e-05  2.0675119782697576e-05  2.1219800748116033e-05  2.1778833327395415e-05 
 2.2352595779861113e-05  2.2941476340514571e-05  2.3545873483440511e-05  2.4166196192187010e-05 
 2.4802864237303274e-05  2.5456308461226093e-05  2.6126971070710124e-05  2.6815305937003070e-05 
 2.7521778903972119e-05  2.8246868104392906e-05  2.8991064284619488e-05  2.9754871137857447e-05 
 3.0538805646270621e-05  3.1343398432156308e-05  3.2169194118431314e-05  3.3016751698677035e-05 
 3.3886644916998942e-05  3.4779462657962553e-05  3.5695809346874801e-05  3.6636305360687961e-05 
 3.7601587449809183e-05  3.8592309171108073e-05  3.9609141332421575e-05  4.0652772448863841e-05 
 4.1723909211257525e-05  4.2823276967010768e-05  4.3951620213773832e-05  4.5109703106217289e-05 
 4.6298309976285277e-05  4.7518245867283389e-05  4.8770337082174350e-05  5.0055431746462123e-05 
 5.1374400386056937e-05  5.2728136520524026e-05  5.4117557272130070e-05  5.5543603991111987e-05 
 5.7007242897605497e-05  5.8509465740682930e-05  6.0051290474960435e-05  6.1633761955248853e-05 
 6.3257952649736638e-05  6.4924963372203439e-05  6.6635924033780632e-05  6.8391994414785883e-05 
 7.0194364957176404e-05  7.2044257578177974e-05  7.3942926505665379e-05  7.5891659135883199e-05 
 7.7891776914111783e-05  7.9944636238905574e-05  8.2051629390540761e-05  8.4214185484332839e-05 
 8.6433771449500801e-05  8.8711893034274295e-05  9.1050095837958437e-05  9.3449966370694301e-05 
 9.5913133141669308e-05  9.8441267776556776e-05  1.0103608616498530e-04  1.0369934963885892e-04 
 1.0643286618237494e-04  1.0923849167461163e-04  1.1211813116557619e-04  1.1507374018663746e-04 
 1.1810732609628913e-04  1.2122094946221666e-04  1.2441672548066989e-04  1.2769682543417246e-04 
 1.3106347818862978e-04  1.3451897173092308e-04  1.3806565474811663e-04  1.4170593824942967e-04 
 1.4544229723216265e-04  1.4927727239280529e-04  1.5321347188457818e-04  1.5725357312271082e-04 
 1.6140032463878511e-04  1.6565654798552214e-04  1.7002513969342143e-04  1.7450907328071200e-04 
 1.7911140131811107e-04  1.8383525754993432e-04  1.8868385907315008e-04  1.9366050857600681e-04 
 1.9876859663792661e-04  2.0401160409239664e-04  2.0939310445464759e-04  2.1491676641596354e-04 
 2.2058635640651681e-04  2.2640574122869000e-04  2.3237889076289104e-04  2.3850988074795035e-04 
 2.4480289563822902e-04  2.5126223153964925e-04  2.5789229922692223e-04  2.6469762724431442e-04 
 2.7168286509237282e-04  2.7885278650309687e-04  2.8621229280613285e-04  2.9376641638863466e-04 
 3.0152032425153307e-04  3.0947932166502294e-04  3.1764885592618715e-04  3.2603452022175294e-04 
 3.3464205759908014e-04  3.4347736504857705e-04  3.5254649770084258e-04  3.6185567314193966e-04 
 3.7141127585031198e-04  3.8121986175898142e-04  3.9128816294676486e-04  4.0162309246237997e-04 
 4.1223174928544667e-04  4.2312142342849869e-04  4.3429960118428142e-04  4.4577397052273672e-04 
 4.5755242664222986e-04  4.6964307767971938e-04  4.8205425058474717e-04  4.9479449716225701e-04 
 5.0787260028945793e-04  5.2129758031209178e-04  5.3507870162567957e-04  5.4922547944747876e-04 
 5.6374768678511334e-04  5.7865536160801867e-04  5.9395881422806985e-04  6.0966863489599239e-04 
 6.2579570162035671e-04  6.4235118821622612e-04  6.5934657259076679e-04  6.7679364527338602e-04 
 6.9470451819822888e-04  7.1309163374716435e-04  7.3196777406165747e-04  7.5134607063224567e-04 
 7.7124001417465220e-04  7.9166346480188455e-04  8.1263066250202400e-04  8.3415623793176019e-04 
 8.5625522353609458e-04  8.7894306500503410e-04  9.0223563307847607e-04  9.2614923571093506e-04 
 9.5070063060815810e-04  9.7590703814819850e-04  1.0017861546998865e-03  1.0283561663522397e-03 
 1.0556357630688157e-03  1.0836441532815174e-03  1.1124010789390140e-03  1.1419268310254127e-03 
 1.1722422655655283e-03  1.2033688201336348e-03  1.2353285308833715e-03  1.2681440501170090e-03 
 1.3018386644131480e-03  1.3364363133325948e-03  1.3719616087229743e-03  1.4084398546434433e-03 
 1.4458970679317525e-03  1.4843599994367738e-03  1.5238561559405446e-03  1.5644138227949222e-03 
 1.6060620872988258e-03  1.6488308628432621e-03  1.6927509138523510e-03  1.7378538815497418e-03 
 1.7841723105810638e-03  1.8317396765242968e-03  1.8805904143212782e-03  1.9307599476649341e-03 
 1.9822847193783763e-03  2.0352022228233334e-03  2.0895510343771867e-03  2.1453708470193606e-03 
 2.2027025050696952e-03  2.2615880401231363e-03  2.3220707082270667e-03  2.3841950283494877e-03 
 2.4480068221884462e-03  2.5135532553752422e-03  2.5808828801261383e-03  2.6500456793998083e-03 
 2.7210931126201918e-03  2.7940781630269931e-03  2.8690553867188559e-03  2.9460809634570513e-03 
 3.0252127493005498e-03  3.1065103311463654e-03  3.1900350832525792e-03  3.2758502258244909e-03 
 3.3640208857483498e-03  3.4546141595605318e-03  3.5476991787441645e-03  3.6433471774492405e-03 
 3.7416315627365236e-03  3.8426279874501706e-03  3.9464144258285379e-03  4.0530712519678130e-03 
 4.1626813212580285e-03  4.2753300549165721e-03  4.3911055277499784e-03  4.5100985592806319e-03 
 4.6324028083812672e-03  4.7581148715666183e-03  4.8873343850984186e-03  5.0201641310669747e-03 
 5.1567101476200647e-03  5.2970818435176753e-03  5.4413921171991468e-03  5.5897574805580507e-03 
 5.7422981876287570e-03  5.8991383683982086e-03  6.0604061679661271e-03  6.2262338912869638e-03 
 6.3967581537377350e-03  6.5721200377671278e-03  6.7524652558925719e-03  6.9379443203246459e-03 
 7.1287127195106374e-03  7.3249311019025652e-03  7.5267654672688125e-03  7.7343873658832323e-03 
 7.9479741059406469e-03  8.1677089695636283e-03  8.3937814377822422e-03  8.6263874248853154e-03 
 8.8657295225603953e-03  9.1120172542580678e-03  9.3654673402363518e-03  9.6263039737610398e-03 
 9.8947591089596880e-03  1.0171072760849074e-02  1.0455493318079283e-02  1.0748277868961927e-02 
 1.1049692541375146e-02  1.1360012857164562e-02  1.1679524101686423e-02  1.2008521709168253e-02 
 1.2347311664591142e-02  1.2696210922829481e-02  1.3055547845815403e-02  1.3425662658528358e-02 
 1.3806907924645681e-02  1.4199649042724336e-02  1.4604264763822485e-02  1.5021147731507166e-02 
 1.5450705045234743e-02  1.5893358848131374e-02  1.6349546940244094e-02  1.6819723418376412e-02 
 1.7304359343668321e-02  1.7803943438127374e-02  1.8318982811365448e-02  1.8850003718845938e-02 
 1.9397552352997248e-02  1.9962195668600708e-02  2.0544522243915071e-02  2.1145143179055151e-02 
 2.1764693033198078e-02  2.2403830802249239e-02  2.3063240938657800e-02  2.3743634415132379e-02 
 2.4445749834067800e-02  2.5170354584555844e-02  2.5918246048915343e-02  2.6690252860739422e-02 
 2.7487236216521663e-02  2.8310091242986050e-02  2.9159748422309187e-02  3.0037175077486350e-02 
 3.0943376920155627e-02  3.1879399663255925e-02  3.2846330700955537e-02  3.3845300858346035e-02 
 3.4877486213454503e-02  3.5944109994179442e-02  3.7046444552809421e-02  3.8185813420829516e-02 
 3.9363593446765897e-02  4.0581217019855793e-02  4.1840174382366466e-02  4.3142016033411203e-02 
 4.4488355227132764e-02  4.5880870568135487e-02  4.7321308707051847e-02  4.8811487139121409e-02 
 5.0353297108644585e-02  5.1948706622141898e-02  5.3599763573008018e-02  5.5308598980391623e-02 
 5.7077430344958435e-02  5.8908565124104521e-02  6.0804404329075745e-02  6.2767446246318734e-02 
 6.4800290285237289e-02  6.6905640954348866e-02  6.9086311967635095e-02  7.1345230482648458e-02 
 7.3685441471678687e-02  7.6110112226987159e-02  7.8622537000801546e-02  8.1226141780387312e-02 
 8.3924489198129851e-02  8.6721283576110600e-02  8.9620376104188854e-02  9.2625770150068315e-02 
 9.5741626699265420e-02  9.8972269922271178e-02  1.0232219286553225e-01  1.0579606326215647e-01 
 1.0939872945747189e-01  1.1313522644373805e-01  1.1701078199742089e-01  1.2103082291149414e-01 
 1.2520098131422519e-01  1.2952710106482923e-01  1.3401524421525177e-01  1.3867169752612801e-01 
 1.4350297902372897e-01  1.4851584458334746e-01  1.5371729452320745e-01  1.5911458019149843e-01 
 1.6471521052761334e-01  1.7052695857705696e-01  1.7655786793782141e-01  1.8281625911426214e-01 
 1.8931073575268892e-01  1.9605019073096758e-01  2.0304381207242772e-01  2.1030108865229166e-01 
 2.1783181566263674e-01  2.2564609979961525e-01  2.3375436413423334e-01  2.4216735262543870e-01 
 2.5089613423156509e-01  2.5995210657329981e-01  2.6934699909830101e-01  2.7909287569425989e-01 
 2.8920213669369993e-01  2.9968752020996003e-01  3.1056210273964024e-01  3.2183929896227398e-01 
 3.3353286066299931e-01  3.4565687469858664e-01  3.5822575992116962e-01  3.7125426296745345e-01 
 3.8475745281390988e-01  3.9875071399047773e-01  4.1324973833649487e-01  4.2827051517295406e-01 
 4.4382931975458223e-01  4.5994269985377223e-01  4.7662746031585329e-01  4.9390064541172451e-01 
 5.1177951879943584e-01  5.3028154089089141e-01  5.4942434340371626e-01  5.6922570086146052e-01 
 5.8970349878803119e-01  6.1087569832476285e-01  6.3276029698129421e-01  6.5537528521476307e-01 
 6.7873859851648199e-01  7.0286806467169871e-01  7.2778134584727228e-01  7.5349587515485927e-01 
 7.8002878733469383e-01  8.0739684320835248e-01  8.3561634755939951e-01  8.6470306011984177e-01 
 8.9467209936951031e-01  9.2553783889619257e-01  9.5731379611844114e-01  9.9001251324152362e-01 
 1.0236454304019849e+00  1.0582227510583337e+00  1.0937532998058601e+00  1.1302443729326295e+00 
 1.1677015821915135e+00  1.2061286924386985e+00  1.2455274539809782e+00  1.2858974306796191e+00 
 1.3272358250738270e+00  1.3695373020069650e+00  1.4127938124568598e+00  1.4569944194802154e+00 
 1.5021251283705876e+00  1.5481687232889554e+00  1.5951046127435018e+00  1.6429086863578355e+00 
 1.6915531853613135e+00  1.7410065891475885e+00  1.7912335200663319e+00  1.8421946683270929e+00 
 1.8938467384964397e+00  1.9461424185563596e+00  1.9990303718661653e+00  2.0524552516411019e+00 
 2.1063577367468200e+00  2.1606745867375583e+00  2.2153387131756737e+00  2.2702792634109752e+00 
 2.3254217122304421e+00  2.3806879561835488e+00  2.4359964050241381e+00  2.4912620646706487e+00 
 2.5463966064571153e+00  2.6013084183064690e+00  2.6559026348727985e+00  2.7100811457148213e+00 
 2.7637425831952140e+00  2.8167822950224517e+00  2.8690923100869083e+00  2.9205613103532189e+00 
 2.9710746258496501e+00  3.0205142739640136e+00  3.0687590679631569e+00  3.1156848224829750e+00 
 3.1611646852221047e+00  3.2050696237243699e+00  3.2472690934734709e+00  3.2876319081290948e+00 
 3.3260273243045861e+00  3.3623263417046387e+00  3.3964032048422474e+00  3.4281370753910583e+00 
 3.4574138253278770e+00  3.4841278816053229e+00  3.5081840347865616e+00  3.5294991088314323e+00 
 3.5480033792384456e+00  3.5636416242756104e+00  3.5763737011713479e+00  3.5861745575501276e+00 
 3.5930336190228647e+00  3.5969535365880678e+00  3.5979483309786997e+00  3.5960410324200907e+00 
 3.5912609789765346e+00  3.5836409987557412e+00  3.5732147534081817e+00  3.5600145544468269e+00 
 3.5440699716010102e+00  3.5254075261552864e+00  3.5040516964006994e+00  3.4800273546133811e+00 
 3.4533636077023235e+00  3.4240988350183605e+00  3.3922865215428826e+00  3.3580012939877015e+00 
 3.3213444076347032e+00  3.2824478319994279e+00  3.2414760712677348e+00  3.1986249524777244e+00 
 3.1541168311260019e+00  3.1081919956931565e+00  3.0610964775651750e+00  3.0130669518931015e+00 
 2.9643138947283836e+00  2.9150045797373156e+00  2.8652574240051925e+00  2.8151768581856329e+00 
 2.7648431301114149e+00  2.7143036049499063e+00  2.6635724699720598e+00  2.6126337475575401e+00 
 2.5614477661904709e+00  2.5099607968674063e+00  2.4581170593745370e+00  2.4058718046068615e+00 
 2.3532037720376922e+00  2.3001314304390119e+00  2.2467237700670730e+00  2.1930585143734191e+00 
 2.1392122350668688e+00  2.0852601765124557e+00  2.0312760880340823e+00  1.9773320645629227e+00 
 1.9234983960264442e+00  1.8698434258272179e+00  1.8164334187152182e+00  1.7633324383122546e+00 
 1.7106022345029739e+00  1.6583021408635576e+00  1.6064889822570896e+00  1.5552169926837243e+00 
 1.5045377434343292e+00  1.4545000815582991e+00  1.4051500786196947e+00  1.3565309896808082e+00 
 1.3086832224185472e+00  1.2616443162466204e+00  1.2154489312852110e+00  1.1701288469895443e+00 
 1.1257129702192705e+00  1.0822273525017687e+00  1.0396952162141970e+00  9.9813698938115591e-01 
 9.5757034875731284e-01  9.1801027083694287e-01  8.7946909040543053e-01  8.4195656622119364e-01 
 8.0547995339057221e-01  7.7004408197314533e-01  7.3565144133106286e-01  7.0230226971364229e-01 
 6.6999464854815471e-01  6.3872460088979888e-01  6.0848619346885535e-01  5.7927164176133628e-01 
 5.5107141750153343e-01  5.2387435805104865e-01  4.9766777703953458e-01  4.7243757569758082e-01 
 4.4816835431216295e-01  4.2484352324976427e-01  4.0244541301164394e-01  3.8095538280948538e-01 
 3.6035392717761749e-01  3.4062078016966690e-01  3.2173501672249921e-01  3.0367515080808061e-01 
 2.8641923003387915e-01  2.6994492639407547e-01  2.5422962291653511e-01  2.3925049599363990e-01 
 2.2498459322813064e-01  2.1140890666751422e-01  1.9850044134186659e-01  1.8623627905956949e-01 
 1.7459363745325521e-01  1.6354992430367590e-01  1.5308278720208254e-01  1.4317015864176780e-01 
 1.3379029665654604e-01  1.2492182114796641e-01  1.1654374606395697e-01  1.0863550760931284e-01 
 1.0117698868300899e-01  9.4148539748781734e-02  8.7530996353863494e-02  8.1305693516286956e-02 
 7.5454477203937276e-02  6.9959713128683668e-02  6.4804293076655750e-02  5.9971638991247071e-02 
 5.5445705018957223e-02  5.1210977719965363e-02  4.7252474635610643e-02  4.3555741394016308e-02 
 4.0106847523188091e-02  3.6892381128330681e-02  3.3899442577118286e-02  3.1115637323486288e-02 
 2.8529067987434608e-02  2.6128325795563803e-02  2.3902481474816772e-02  2.1841075680339078e-02 
 1.9934109027648368e-02  1.8172031789528094e-02  1.6545733309311587e-02  1.5046531174544794e-02 
 1.3666160188422377e-02  1.2396761170867656e-02  1.1230869616629254e-02  1.0161404234232244e-02 
 9.1816553869672798e-03  8.2852734552319712e-03  7.4662571383491711e-03  6.7189417133681146e-03 
 6.0379872681957675e-03  5.4183669265975565e-03  4.8553550830486274e-03  4.3445156660108794e-03 
 3.8816904488730821e-03  3.4629874284454356e-03  3.0847692914821243e-03  2.7436419901633521e-03 
 2.4364434477610283e-03  2.1602324158096192e-03  1.9122775039862041e-03  1.6900464035607631e-03 
 1.4911953247074335e-03  1.3135586671752170e-03  1.1551389428136258e-03  1.0140969672517565e-03 
 8.8874233665873202e-04  7.7752420399267294e-04  6.7902236750014776e-04  5.9193868248484302e-04 
 5.1508880555039909e-04  4.4739427866474828e-04  3.8787495851811998e-04  3.3564179477902381e-04 
 2.8988995901522242e-04  2.4989232426128458e-04  2.1499329349984175e-04  1.8460297369696466e-04 
 1.5819169050740607e-04  1.3528483735470126e-04  1.1545805130361407e-04  9.8332706985129070e-05 
 8.3571718811720775e-05  7.0875640835402486e-05  5.9979052853427834e-05  5.0647220754948905e-05 
 4.2673018623218693e-05  3.5874099757312893e-05  3.0090303548838221e-05  2.5181285035548531e-05 
 2.1024353947221996e-05  1.7512510150860071e-05  1.4552662583070842e-05  1.2064019017895704e-05 
 9.9766343486866981e-06  8.2301054533148078e-06  6.7724011535095157e-06  5.5588162622982631e-06 
 4.5510392295149647e-06  3.7163234358369184e-06  3.0267527429932345e-06  2.4585924744715141e-06 
 1.9917175706822883e-06  1.6091102292412311e-06  1.2964198995959026e-06  1.0415790471360051e-06 
 8.3446863133148236e-07  6.6662775213581208e-07  5.3100240628531354e-07  4.2172875821338835e-07 
 3.3394676761581542e-07  2.6364042627904935e-07  2.0750124009453401e-07  1.6281194810284164e-07 
 1.2734779916478155e-07  9.9293008964688951e-08  7.7170296287932132e-08  5.9781648860909920e-08 
 4.6158696641947066e-08  3.5521275574428604e-08  2.7242948816464155e-08  2.0822416757402151e-08 
 1.5859893160841402e-08  1.2037653978801405e-08  9.1040791856637213e-09  6.8606077697050197e-09 
 5.1511131294697467e-09  3.8532818241316944e-09  2.8716441224355104e-09  2.1319612077399874e-09 
 1.5767222702842442e-09  1.1615460127979088e-09  8.5231619027433496e-10  6.2291049640140909e-10 
 4.5340711662397615e-10  3.2867423492958000e-10  2.3726528118763399e-10  1.7055724497707612e-10 
 1.2208140573639171e-10  8.7005726939232689e-11  6.1736271855176952e-11  4.3611612163360221e-11 
 3.0669568802028472e-11  2.1469960816521625e-11  1.4960524103642847e-11  1.0375950991467404e-11 
 7.1622220419182355e-12  4.9201605297249055e-12  3.3635266781180137e-12  2.2880562888354113e-12 
 1.5486970734658461e-12  1.0429548590366940e-12  6.9877070853398033e-13  4.6574105751639796e-13 
 3.0879199664091655e-13  2.0364285501012865e-13  1.3357445515790609e-13  8.7136036818102719e-14 
 5.6527660816230862e-14  3.6465426566191925e-14  2.3389799315278071e-14  1.4916400230671283e-14 
 9.4571633719564108e-15  5.9605132017299717e-15  3.7342075028631052e-15  2.3252570005908272e-15 
 1.4390186986653050e-15  8.8501303442370437e-16  5.4086014570838916e-16  3.2842502712566001e-16 
 1.9813757919345519e-16  1.1875166908133324e-16  7.0699653900700187e-17  4.1808202150790930e-17 
 2.4554651991418626e-17  1.4321717586288767e-17  8.2947995255956315e-18  4.7700844626463819e-18 
 2.7234225439620152e-18  1.5435888823378109e-18  8.6842886154787247e-19  4.8493178439901559e-19 
 2.6873740284528529e-19  1.4778603046762878e-19  8.0640402807833336e-20  4.3655784824407772e-20 
 2.3445317946539459e-20  1.2489668414285046e-20  6.5990530195020114e-21  3.4578389248285365e-21 
 1.7967162233285103e-21  9.2570137939415901e-22  4.7288638388472398e-22  2.3951987265395443e-22 
 1.2030535786684156e-22  5.9946354939859587e-23  2.9661540201169357e-23  1.4605189699363801e-23 
 0.0000000000000000e+00  0.0000000000000000e+00  0.0000000000000000e+00  0.0000000000000000e+00 
 0.0000000000000000e+00  0.0000000000000000e+00  0.0000000000000000e+00  0.0000000000000000e+00 
 0.0000000000000000e+00  0.0000000000000000e+00  0.0000000000000000e+00  0.0000000000000000e+00 
 0.0000000000000000e+00  0.0000000000000000e+00  0.0000000000000000e+00  0.0000000000000000e+00 
 0.0000000000000000e+00  0.0000000000000000e+00  0.0000000000000000e+00  0.0000000000000000e+00 
 0.0000000000000000e+00  0.0000000000000000e+00  0.0000000000000000e+00  0.0000000000000000e+00 
 0.0000000000000000e+00  0.0000000000000000e+00  0.0000000000000000e+00  0.0000000000000000e+00 
 0.0000000000000000e+00  0.0000000000000000e+00  0.0000000000000000e+00  0.0000000000000000e+00 
 0.0000000000000000e+00  0.0000000000000000e+00  0.0000000000000000e+00  0.0000000000000000e+00 
 0.0000000000000000e+00  0.0000000000000000e+00  0.0000000000000000e+00  0.0000000000000000e+00 
 0.0000000000000000e+00  0.0000000000000000e+00  0.0000000000000000e+00  0.0000000000000000e+00 
 0.0000000000000000e+00  0.0000000000000000e+00  0.0000000000000000e+00  0.0000000000000000e+00 
 0.0000000000000000e+00  0.0000000000000000e+00  0.0000000000000000e+00  0.0000000000000000e+00 
 0.0000000000000000e+00  0.0000000000000000e+00  0.0000000000000000e+00  0.0000000000000000e+00 
 0.0000000000000000e+00  0.0000000000000000e+00  0.0000000000000000e+00  0.0000000000000000e+00 
 0.0000000000000000e+00  0.0000000000000000e+00  0.0000000000000000e+00  0.0000000000000000e+00 
 0.0000000000000000e+00  0.0000000000000000e+00  0.0000000000000000e+00  0.0000000000000000e+00 
 0.0000000000000000e+00  0.0000000000000000e+00  0.0000000000000000e+00  0.0000000000000000e+00 
 0.0000000000000000e+00  0.0000000000000000e+00  0.0000000000000000e+00  0.0000000000000000e+00 
 0.0000000000000000e+00  0.0000000000000000e+00  0.0000000000000000e+00  0.0000000000000000e+00 
 0.0000000000000000e+00  0.0000000000000000e+00  0.0000000000000000e+00  0.0000000000000000e+00 
 0.0000000000000000e+00  0.0000000000000000e+00 
</PP_RHOATOM>
