  <PP_INFO>

############################################################
#    Opium Parameter File                                  #
############################################################
#-----------------------------------------------------------
#Command line   : opium pb_frl_gga log all rpt upf 
 
#Opium version  : 3.6 
#Compile Host   : whoville2.chem.upenn.edu 
#Compile OS     : Linux 2.6.18-92.1.13.el5 x86_64 
#Compile Date   : Wed Jan 19 10:47:14 EST 2011 
#-----------------------------------------------------------
#Execution Host : whoville2.chem.upenn.edu 
#Execution Date : Sun Jul 24 18:49:41 2011
 
#-----------------------------------------------------------
############################################################
[Atom]
Pb
15
100 2.00  -
200 2.00  -
210 6.00  -
300 2.00  -
310 6.00  -
320 10.0  -
400 2.00  -
410 6.00  -
500 2.00  -
510 6.00  -
420 10.0  -
430 14.0  -
600 2.00  -
610 0.00  -
520 10.0  -

[Pseudo]
3 1.70 1.80 1.72
opt

[Optinfo]
6.15 10
5.30 10
7.07 10

[XC]
gga              # lda(PZ) or gga(PBE)

[Relativity]
frl              # nrl / srl / frl

[Configs]
6		# number of valence configurations
#
600 2.00 -1.0   # nlm occ eigen(- means auto-generate)
610 0.00 -1.0
520 8.00 -1.0
#
600 2.00 -1.0   # nlm occ eigen(- means auto-generate)
610 0.00 -1.0
520 9.00 -1.0
#
600 2.00 -1.0   # nlm occ eigen(- means auto-generate)
610 0.00 -1.0
520 10.00 -1.0
#
600 2.00 -1.0   # nlm occ eigen(- means auto-generate)
610 0.50 -1.0
520 10.00 -1.0
#
600 2.00 -1.0
610 1.00 -1.0	
520 10.00 -1.0
#
600 2.00 -1.0
610 2.00 -1.0	
520 10.00 -1.0
############################################################
  </PP_INFO>



<PP_HEADER>
   0         Version Number
   Pb        Element
   NC        Norm - Conserving pseudopotential
    F      Nonlinear Core Correction
SLA  PW   PBE  PBE     PBE  Exchange-Correlation functional
 14          Z valence
 0          Total energy
 0.000000   0.000000     Suggested cutoff for wfc and rho
 2           Max angular momentum component
 1189           Number of points in mesh
 5  4     Number of Wavefuncitons, Number of Projectors
 Wavefunctions         nl  l   occ
                       S  0  2.000000
                       P  1  0.000000
                       P  1  0.000000
                       D  2  4.000000
                       D  2  6.000000
</PP_HEADER>
<PP_MESH>
  <PP_R>
 2.3017706561202741e-05  2.3318890198483083e-05  2.3624014783708189e-05  2.3933131883659182e-05 
 2.4246293739861680e-05  2.4563553277414757e-05  2.4884964113935331e-05  2.5210580568619784e-05 
 2.5540457671423959e-05  2.5874651172363355e-05  2.6213217550935055e-05  2.6556214025662855e-05 
 2.6903698563767358e-05  2.7255729890962542e-05  2.7612367501380597e-05  2.7973671667626460e-05 
 2.8339703450964194e-05  2.8710524711636392e-05  2.9086198119318672e-05  2.9466787163711084e-05 
 2.9852356165267968e-05  3.0242970286068281e-05  3.0638695540828126e-05  3.1039598808057473e-05 
 3.1445747841362588e-05  3.1857211280896814e-05  3.2274058664960764e-05  3.2696360441754473e-05 
 3.3124187981283334e-05  3.3557613587419810e-05  3.3996710510122929e-05  3.4441552957817709e-05 
 3.4892216109936631e-05  3.5348776129624939e-05  3.5811310176612673e-05  3.6279896420254625e-05 
 3.6754614052741266e-05  3.7235543302482368e-05  3.7722765447665771e-05  3.8216362829993665e-05 
 3.8716418868598504e-05  3.9223018074140926e-05  3.9736246063092448e-05  4.0256189572204752e-05 
 4.0782936473168383e-05  4.1316575787463304e-05  4.1857197701403760e-05  4.2404893581379934e-05 
 4.2959755989299109e-05  4.3521878698228849e-05  4.4091356708244907e-05  4.4668286262486317e-05 
 4.5252764863420937e-05  4.5844891289323423e-05  4.6444765610969090e-05  4.7052489208546044e-05 
 4.7668164788788712e-05  4.8291896402335541e-05  4.8923789461313778e-05  4.9563950757154293e-05 
 5.0212488478639766e-05  5.0869512230188709e-05  5.1535133050378915e-05  5.2209463430713226e-05 
 5.2892617334630912e-05  5.3584710216767708e-05  5.4285859042467917e-05  5.4996182307551888e-05 
 5.5715800058342131e-05  5.6444833911951188e-05  5.7183407076835515e-05  5.7931644373617891e-05 
 5.8689672256182294e-05  5.9457618833045107e-05  6.0235613889005590e-05  6.1023788907079896e-05 
 6.1822277090722090e-05  6.2631213386335542e-05  6.3450734506079653e-05  6.4280978950974146e-05 
 6.5122087034306321e-05  6.5974200905344162e-05  6.6837464573359990e-05  6.7712023931968364e-05 
 6.8598026783782369e-05  6.9495622865392779e-05  7.0404963872673773e-05  7.1326203486419895e-05 
 7.2259497398318470e-05  7.3205003337261932e-05  7.4162881096004384e-05  7.5133292558166888e-05 
 7.6116401725596244e-05  7.7112374746081608e-05  7.8121379941434047e-05  7.9143587835932950e-05 
 8.0179171185145519e-05  8.1228305005122587e-05  8.2291166601976737e-05  8.3367935601847545e-05 
 8.4458793981258829e-05  8.5563926097873024e-05  8.6683518721648192e-05  8.7817761066402502e-05 
 8.8966844821791776e-05  9.0130964185705715e-05  9.1310315897087397e-05  9.2505099269183026e-05 
 9.3715516223226268e-05  9.4941771322563218e-05  9.6184071807224283e-05  9.7442627628948169e-05 
 9.8717651486664268e-05  1.0000935886243912e-04  1.0131796805789373e-04  1.0264370023109663e-04 
 1.0398677943394053e-04  1.0534743265000735e-04  1.0672588983292911e-04  1.0812238394525057e-04 
 1.0953715099780053e-04  1.1097043008957813e-04  1.1242246344816124e-04  1.1389349647064353e-04 
 1.1538377776510677e-04  1.1689355919263688e-04  1.1842309590988851e-04  1.1997264641220733e-04 
 1.2154247257731637e-04  1.2313283970957377e-04  1.2474401658481028e-04  1.2637627549575231e-04 
 1.2802989229804092e-04  1.2970514645685145e-04  1.3140232109412397e-04  1.3312170303641163e-04 
 1.3486358286335495e-04  1.3662825495679056e-04  1.3841601755050238e-04  1.4022717278062367e-04 
 1.4206202673669915e-04  1.4392088951341463e-04  1.4580407526300346e-04  1.4771190224833940e-04 
 1.4964469289672404e-04  1.5160277385437704e-04  1.5358647604164069e-04  1.5559613470890606e-04 
 1.5763208949327119e-04  1.5969468447594019e-04  1.6178426824037443e-04  1.6390119393120350e-04 
 1.6604581931390765e-04  1.6821850683528095e-04  1.7041962368468571e-04  1.7264954185610844e-04 
 1.7490863821102742e-04  1.7719729454210352e-04  1.7951589763770399e-04  1.8186483934727040e-04 
 1.8424451664754256e-04  1.8665533170964782e-04  1.8909769196706969e-04  1.9157201018450481e-04 
 1.9407870452762125e-04  1.9661819863372873e-04  1.9919092168337567e-04  2.0179730847288076e-04 
 2.0443779948781484e-04  2.0711284097744417e-04  2.0982288503014726e-04  2.1256838964981919e-04 
 2.1534981883327526e-04  2.1816764264866761e-04  2.2102233731492759e-04  2.2391438528224854e-04 
 2.2684427531361994e-04  2.2981250256743065e-04  2.3281956868115143e-04  2.3586598185611221e-04 
 2.3895225694339057e-04  2.4207891553082184e-04  2.4524648603114915e-04  2.4845550377132605e-04 
 2.5170651108298835e-04  2.5500005739410956e-04  2.5833669932185516e-04  2.6171700076665271e-04 
 2.6514153300749138e-04  2.6861087479847082e-04  2.7212561246661108e-04  2.7568634001094358e-04 
 2.7929365920289801e-04  2.8294817968800367e-04  2.8665051908892067e-04  2.9040130310981961e-04 
 2.9420116564212736e-04  2.9805074887165588e-04  3.0195070338713325e-04  3.0590168829015488e-04 
 3.0990437130657333e-04  3.1395942889934496e-04  3.1806754638285417e-04  3.2222941803873383e-04 
 3.2644574723319906e-04  3.3071724653591935e-04  3.3504463784044317e-04  3.3942865248620061e-04 
 3.4387003138210126e-04  3.4836952513174962e-04  3.5292789416029816e-04  3.5754590884296250e-04 
 3.6222434963521501e-04  3.6696400720468488e-04  3.7176568256478234e-04  3.7663018721007142e-04 
 3.8155834325341527e-04  3.8655098356491462e-04  3.9160895191266550e-04  3.9673310310535653e-04 
 4.0192430313673561e-04  4.0718342933196352e-04  4.1251137049588447e-04  4.1790902706323631e-04 
 4.2337731125082552e-04  4.2891714721169527e-04  4.3452947119130799e-04  4.4021523168577428e-04 
 4.4597538960215028e-04  4.5181091842083371e-04  4.5772280436008378e-04  4.6371204654269545e-04 
 4.6977965716485230e-04  4.7592666166719098e-04  4.8215409890810289e-04  4.8846302133930366e-04 
 4.9485449518370023e-04  5.0132960061558430e-04  5.0788943194318519e-04  5.1453509779361055e-04 
 5.2126772130020626e-04  5.2808844029236975e-04  5.3499840748784389e-04  5.4199879068753142e-04 
 5.4909077297285458e-04  5.5627555290569970e-04  5.6355434473097507e-04  5.7092837858182404e-04 
 5.7839890068751821e-04  5.8596717358407372e-04  5.9363447632762372e-04  6.0140210471058039e-04 
 6.0927137148062836e-04  6.1724360656258126e-04  6.2532015728314317e-04  6.3350238859860802e-04 
 6.4179168332554291e-04  6.5018944237448645e-04  6.5869708498670471e-04  6.6731604897404893e-04 
 6.7604779096194615e-04  6.8489378663557515e-04  6.9385553098925913e-04  7.0293453857912358e-04 
 7.1213234377906021e-04  7.2145050104003899e-04  7.3089058515281573e-04  7.4045419151407346e-04 
 7.5014293639605008e-04  7.5995845721969020e-04  7.6990241283137492e-04  7.7997648378327054e-04 
 7.9018237261734524e-04  8.0052180415310240e-04  8.1099652577908078e-04  8.2160830774816597e-04 
 8.3235894347676791e-04  8.4325024984791247e-04  8.5428406751829821e-04  8.6546226122937342e-04 
 8.7678672012248026e-04  8.8825935805812533e-04  8.9988211393942480e-04  9.1165695203978701e-04 
 9.2358586233487537e-04  9.3567086083892227e-04  9.4791398994543800e-04  9.6031731877238146e-04 
 9.7288294351184569e-04  9.8561298778431883e-04  9.9850960299758228e-04  1.0115749687103011e-03 
 1.0248112930003783e-03  1.0382208128381228e-03  1.0518057944643030e-03  1.0655685337731472e-03 
 1.0795113567003550e-03  1.0936366196161870e-03  1.1079467097236946e-03  1.1224440454621664e-03 
 1.1371310769158463e-03  1.1520102862280070e-03  1.1670841880204363e-03  1.1823553298184139e-03 
 1.1978262924812516e-03  1.2134996906384610e-03  1.2293781731316346e-03  1.2454644234621063e-03 
 1.2617611602444687e-03  1.2782711376660265e-03  1.2949971459522598e-03  1.3119420118383766e-03 
 1.3291085990470427e-03  1.3464998087723548e-03  1.3641185801701494e-03  1.3819678908547270e-03 
 1.4000507574020759e-03  1.4183702358596822e-03  1.4369294222630075e-03  1.4557314531587274e-03 
 1.4747795061348112e-03  1.4940768003575498e-03  1.5136265971155965e-03  1.5334322003711335e-03 
 1.5534969573182495e-03  1.5738242589486259e-03  1.5944175406246183e-03  1.6152802826598445e-03 
 1.6364160109073650e-03  1.6578282973555558e-03  1.6795207607317910e-03  1.7014970671140122e-03 
 1.7237609305503034e-03  1.7463161136865753e-03  1.7691664284024610e-03  1.7923157364555344e-03 
 1.8157679501339535e-03  1.8395270329176502e-03  1.8635970001481610e-03  1.8879819197072378e-03 
 1.9126859127043248e-03  1.9377131541730359e-03  1.9630678737767469e-03  1.9887543565234186e-03 
 2.0147769434897701e-03  2.0411400325549348e-03  2.0678480791437143e-03  2.0949055969795459e-03 
 2.1223171588473449e-03  2.1500873973663097e-03  2.1782210057728446e-03  2.2067227387137320e-03 
 2.2355974130496763e-03  2.2648499086693630e-03  2.2944851693141774e-03  2.3245082034137046e-03 
 2.3549240849321607e-03  2.3857379542259177e-03  2.4169550189122261e-03  2.4485805547493178e-03 
 2.4806199065280205e-03  2.5130784889750408e-03  2.5459617876680686e-03  2.5792753599628480e-03 
 2.6130248359323882e-03  2.6472159193184500e-03  2.6818543884955066e-03  2.7169460974472925e-03 
 2.7524969767561414e-03  2.7885130346052703e-03  2.8250003577941791e-03  2.8619651127673291e-03 
 2.8994135466562901e-03  2.9373519883355240e-03  2.9757868494919657e-03  3.0147246257086328e-03 
 3.0541718975623799e-03  3.0941353317360401e-03  3.1346216821451045e-03  3.1756377910791547e-03 
 3.2171905903582228e-03  3.2592871025042863e-03  3.3019344419280938e-03  3.3451398161315083e-03 
 3.3889105269256053e-03  3.4332539716646878e-03  3.4781776444964573e-03  3.5236891376285466e-03 
 3.5697961426116162e-03  3.6165064516392466e-03  3.6638279588648410e-03  3.7117686617357502e-03 
 3.7603366623448586e-03  3.8095401687998679e-03  3.8593874966104786e-03  3.9098870700937328e-03 
 3.9610474237977414e-03  4.0128772039440489e-03  4.0653851698888568e-03  4.1185801956033878e-03 
 4.1724712711735988e-03  4.2270675043195186e-03  4.2823781219344988e-03  4.3384124716445600e-03 
 4.3951800233881710e-03  4.4526903710166875e-03  4.5109532339157390e-03  4.5699784586478286e-03 
 4.6297760206164204e-03  4.6903560257518144e-03  4.7517287122190582e-03  4.8139044521482415e-03 
 4.8768937533873952e-03  4.9407072612783504e-03  5.0053557604558237e-03  5.0708501766700441e-03 
 5.1372015786332343e-03  5.2044211798902536e-03  5.2725203407137031e-03  5.3415105700238370e-03 
 5.4114035273336164e-03  5.4822110247191797e-03  5.5539450288161129e-03  5.6266176628418435e-03 
 5.7002412086444880e-03  5.7748281087785193e-03  5.8503909686075835e-03  5.9269425584348419e-03 
 6.0044958156611700e-03  6.0830638469716253e-03  6.1626599305504987e-03  6.2432975183253610e-03 
 6.3249902382404750e-03  6.4077518965599380e-03  6.4915964802009906e-03  6.5765381590978233e-03 
 6.6625912885963472e-03  6.7497704118802482e-03  6.8380902624288658e-03  6.9275657665071495e-03 
 7.0182120456882494e-03  7.1100444194090937e-03  7.2030784075594141e-03  7.2973297331046325e-03 
 7.3928143247430980e-03  7.4895483195980637e-03  7.5875480659448845e-03  7.6868301259739504e-03 
 7.7874112785897027e-03  7.8893085222463324e-03  7.9925390778205364e-03  8.0971203915219062e-03 
 8.2030701378413770e-03  8.3104062225382407e-03  8.4191467856662948e-03  8.5293102046395015e-03 
 8.6409150973378746e-03  8.7539803252539138e-03  8.8685249966802375e-03  8.9845684699389507e-03 
 9.1021303566532225e-03  9.2212305250617254e-03  9.3418891033763777e-03  9.4641264831841123e-03 
 9.5879633228930315e-03  9.7134205512238014e-03  9.8405193707466077e-03  9.9692812614644594e-03 
 1.0099727984443351e-02  1.0231881585489943e-02  1.0365764398877354e-02  1.0501399051119692e-02 
 1.0638808464796029e-02  1.0778015862424299e-02  1.0919044770386039e-02  1.1061919022902357e-02 
 1.1206662766061986e-02  1.1353300461902015e-02  1.1501856892542061e-02  1.1652357164372481e-02 
 1.1804826712297413e-02  1.1959291304033367e-02  1.2115777044463961e-02  1.2274310380051794e-02 
 1.2434918103307898e-02  1.2597627357319769e-02  1.2762465640338600e-02  1.2929460810426553e-02 
 1.3098641090164835e-02  1.3270035071423384e-02  1.3443671720192986e-02  1.3619580381480530e-02 
 1.3797790784268456e-02  1.3978333046539006e-02  1.4161237680364204e-02  1.4346535597062501e-02 
 1.4534258112422843e-02  1.4724436951997127e-02  1.4917104256461880e-02  1.5112292587050137e-02 
 1.5310034931054312e-02  1.5510364707401202e-02  1.5713315772299809e-02  1.5918922424963153e-02 
 1.6127219413404885e-02  1.6338241940311825e-02  1.6552025668993275e-02  1.6768606729408206e-02 
 1.6988021724271329e-02  1.7210307735238975e-02  1.7435502329176074e-02  1.7663643564504984e-02 
 1.7894769997637474e-02  1.8128920689490853e-02  1.8366135212089338e-02  1.8606453655251851e-02 
 1.8849916633367249e-02  1.9096565292258338e-02  1.9346441316135467e-02  1.9599586934641432e-02 
 1.9856044929988263e-02  2.0115858644187568e-02  2.0379071986375428e-02  2.0645729440233154e-02 
 2.0915876071505107e-02  2.1189557535614953e-02  2.1466820085381540e-02  2.1747710578835639e-02 
 2.2032276487139221e-02  2.2320565902608083e-02  2.2612627546839577e-02  2.2908510778946747e-02 
 2.3208265603900012e-02  2.3511942680978268e-02  2.3819593332330302e-02  2.4131269551648453e-02 
 2.4447024012955575e-02  2.4766910079507164e-02  2.5090981812809835e-02  2.5419293981757830e-02 
 2.5751902071889130e-02  2.6088862294762587e-02  2.6430231597457887e-02  2.6776067672199651e-02 
 2.7126428966107674e-02  2.7481374691074478e-02  2.7840964833772405e-02  2.8205260165791429e-02 
 2.8574322253909712e-02  2.8948213470498564e-02  2.9326997004063472e-02  2.9710736869923166e-02 
 3.0099497921028291e-02  3.0493345858921821e-02  3.0892347244842598e-02  3.1296569510974530e-02 
 3.1706080971842673e-02  3.2120950835858607e-02  3.2541249217016753e-02  3.2967047146743908e-02 
 3.3398416585903624e-02  3.3835430436957831e-02  3.4278162556287496e-02  3.4726687766674494e-02 
 3.5181081869946930e-02  3.5641421659789771e-02  3.6107784934723143e-02  3.6580250511250509e-02 
 3.7058898237178811e-02  3.7543809005112949e-02  3.8035064766126864e-02  3.8532748543613410e-02 
 3.9036944447315473e-02  3.9547737687540829e-02  4.0065214589562824e-02  4.0589462608209531e-02 
 4.1120570342643888e-02  4.1658627551337077e-02  4.2203725167238013e-02  4.2755955313141150e-02 
 4.3315411317255574e-02  4.3882187728977430e-02  4.4456380334869344e-02  4.5038086174848328e-02 
 4.5627403558585876e-02  4.6224432082122451e-02  4.6829272644699528e-02  4.7442027465811748e-02 
 4.8062800102482317e-02  4.8691695466764356e-02  4.9328819843471185e-02  4.9974280908138928e-02 
 5.0628187745223770e-02  5.1290650866537529e-02  5.1961782229924453e-02  5.2641695258182290e-02 
 5.3330504858231084e-02  5.4028327440532695e-02  5.4735280938764459e-02  5.5451484829750056e-02 
 5.6177060153651814e-02  5.6912129534426356e-02  5.7656817200548605e-02  5.8411249006006534e-02 
 5.9175552451570912e-02  5.9949856706343146e-02  6.0734292629585192e-02  6.1528992792835212e-02 
 6.2334091502312096e-02  6.3149724821614059e-02  6.3976030594713323e-02  6.4813148469252235e-02 
 6.5661219920143996e-02  6.6520388273482334e-02  6.7390798730763868e-02  6.8272598393427475e-02 
 6.9165936287715002e-02  7.0070963389856758e-02  7.0987832651587063e-02  7.1916699025993402e-02 
 7.2857719493703968e-02  7.3811053089417281e-02  7.4776860928780123e-02  7.5755306235616077e-02 
 7.6746554369510847e-02  7.7750772853758268e-02  7.8768131403672323e-02  7.9798801955269394e-02 
 8.0842958694325756e-02  8.1900778085815543e-02  8.2972438903733597e-02  8.4058122261308821e-02 
 8.5158011641612658e-02  8.6272292928568223e-02  8.7401154438365117e-02  8.8544786951285329e-02 
 8.9703383743945458e-02  9.0877140621961019e-02  9.2066255953038273e-02  9.3270930700497995e-02 
 9.4491368457239960e-02  9.5727775480149796e-02  9.6980360724957138e-02  9.8249335881549646e-02 
 9.9534915409749042e-02  1.0083731657555543e-01  1.0215675948786562e-01  1.0349346713567227e-01 
 1.0484766542574930e-01  1.0621958322083087e-01  1.0760945237828963e-01  1.0901750778932127e-01 
 1.1044398741864146e-01  1.1188913234470281e-01  1.1335318680043735e-01  1.1483639821453273e-01 
 1.1633901725324834e-01  1.1786129786277763e-01  1.1940349731216701e-01  1.2096587623679403e-01 
 1.2254869868241557e-01  1.2415223214979217e-01  1.2577674763989644e-01  1.2742251969971269e-01 
 1.2908982646863607e-01  1.3077894972547893e-01  1.3249017493609197e-01  1.3422379130160861e-01 
 1.3598009180732087e-01  1.3775937327219431e-01  1.3956193639903142e-01  1.4138808582529083e-01 
 1.4323813017457207e-01  1.4511238210877339e-01  1.4701115838093293e-01  1.4893477988875931e-01 
 1.5088357172886607e-01  1.5285786325171249e-01  1.5485798811726501e-01  1.5688428435138629e-01 
 1.5893709440296275e-01  1.6101676520177899e-01  1.6312364821714978e-01  1.6525809951731932e-01 
 1.6742047982963756e-01  1.6961115460152396e-01  1.7183049406222900e-01  1.7407887328540370e-01 
 1.7635667225248822e-01  1.7866427591692935e-01  1.8100207426923867e-01  1.8337046240290200e-01 
 1.8576984058115115e-01  1.8820061430460835e-01  1.9066319437981877e-01  1.9315799698867619e-01 
 1.9568544375875938e-01  1.9824596183458817e-01  2.0083998394981151e-01  2.0346794850034097e-01 
 2.0613029961844037e-01  2.0882748724778541e-01  2.1155996721950487e-01  2.1432820132921762e-01 
 2.1713265741507687e-01  2.1997380943683600e-01  2.2285213755594893e-01  2.2576812821671843e-01 
 2.2872227422850655e-01  2.3171507484902049e-01  2.3474703586868853e-01  2.3781866969613874e-01 
 2.4093049544479886e-01  2.4408303902062720e-01  2.4727683321099120e-01  2.5051241777471062e-01 
 2.5379033953327779e-01  2.5711115246327165e-01  2.6047541778998118e-01  2.6388370408225392e-01 
 2.6733658734858534e-01  2.7083465113446559e-01  2.7437848662100023e-01  2.7796869272482116e-01 
 2.8160587619930499e-01  2.8529065173711576e-01  2.8902364207408932e-01  2.9280547809447771e-01 
 2.9663679893756995e-01  3.0051825210570637e-01  3.0445049357371129e-01  3.0843418789975163e-01 
 3.1247000833765032e-01  3.1655863695066688e-01  3.2070076472676834e-01  3.2489709169540743e-01 
 3.2914832704582953e-01  3.3345518924692735e-01  3.3781840616866332e-01  3.4223871520508242e-01 
 3.4671686339893237e-01  3.5125360756791640e-01  3.5584971443259711e-01  3.6050596074597346e-01 
 3.6522313342475510e-01  3.7000202968235180e-01  3.7484345716360618e-01  3.7974823408128427e-01 
 3.8471718935435967e-01  3.8975116274809996e-01  3.9485100501599024e-01  4.0001757804351173e-01 
 4.0525175499380317e-01  4.1055442045522689e-01  4.1592647059086690e-01  4.2136881328998183e-01 
 4.2688236832144150e-01  4.3246806748916861e-01  4.3812685478961738e-01  4.4385968657130975e-01 
 4.4966753169646173e-01  4.5555137170472271e-01  4.6151220097905821e-01  4.6755102691380257e-01 
 4.7366887008491321e-01  4.7986676442244486e-01  4.8614575738529325e-01  4.9250691013821379e-01 
 4.9895129773116165e-01  5.0548000928097858e-01  5.1209414815545518e-01  5.1879483215980371e-01 
 5.2558319372556916e-01  5.3246038010201302e-01  5.3942755355000149e-01  5.4648589153842941e-01 
 5.5363658694321694e-01  5.6088084824890627e-01  5.6821989975290033e-01  5.7565498177237107e-01 
 5.8318735085387585e-01  5.9081827998571734e-01  5.9854905881308196e-01  6.0638099385598954e-01 
 6.1431540873010448e-01  6.2235364437042473e-01  6.3049705925790556e-01  6.3874702964904495e-01 
 6.4710494980847466e-01  6.5557223224459438e-01  6.6415030794828889e-01  6.7284062663476862e-01 
 6.8164465698857546e-01  6.9056388691179349e-01  6.9959982377550844e-01  7.0875399467455680e-01 
 7.1802794668560810e-01  7.2742324712862538e-01  7.3694148383174507e-01  7.4658426539962441e-01 
 7.5635322148530015e-01  7.6625000306559954e-01  7.7627628272016624e-01  7.8643375491412526e-01 
 7.9672413628445327e-01  8.0714916593009367e-01  8.1771060570586962e-01  8.2841024052023993e-01 
 8.3924987863695488e-01  8.5023135198065525e-01  8.6135651644647326e-01  8.7262725221368243e-01 
 8.8404546406345297e-01  8.9561308170076426e-01  9.0733206008052847e-01  9.1920437973798452e-01 
 9.3123204712341179e-01  9.4341709494122516e-01  9.5576158249350907e-01  9.6826759602803769e-01 
 9.8093724909086588e-01  9.9377268288351583e-01  1.0067760666248482e+00  1.0199495979176647e+00 
 1.0332955031201079e+00  1.0468160377219216e+00  1.0605134867256336e+00  1.0743901650327274e+00 
 1.0884484178348641e+00  1.1026906210102274e+00  1.1171191815250516e+00  1.1317365378404052e+00 
 1.1465451603242967e+00  1.1615475516691711e+00  1.1767462473148731e+00  1.1921438158771414e+00 
 1.2077428595817119e+00  1.2235460147040955e+00  1.2395559520151216e+00  1.2557753772323013e+00 
 1.2722070314771001e+00  1.2888536917381945e+00  1.3057181713407890e+00  1.3228033204220755e+00 
 1.3401120264129134e+00  1.3576472145258116e+00  1.3754118482492954e+00  1.3934089298487475e+00 
 1.4116415008737921e+00  1.4301126426723274e+00  1.4488254769112807e+00  1.4677831661041771e+00 
 1.4869889141456107e+00  1.5064459668527126e+00  1.5261576125137024e+00  1.5461271824436069e+00 
 1.5663580515472770e+00  1.5868536388897421e+00  1.6076174082740446e+00  1.6286528688266302e+00 
 1.6499635755903996e+00  1.6715531301255162e+00  1.6934251811180823e+00  1.7155834249967730e+00 
 1.7380316065575425e+00  1.7607735195965040e+00  1.7838130075510878e+00  1.8071539641495962e+00 
 1.8308003340692471e+00  1.8547561136028372e+00  1.8790253513341248e+00  1.9036121488220508e+00 
 1.9285206612939119e+00  1.9537550983475940e+00  1.9793197246630225e+00  2.0052188607228922e+00 
 2.0314568835428393e+00  2.0580382274111684e+00  2.0849673846382593e+00  2.1122489063157790e+00 
 2.1398874030858233e+00  2.1678875459201272e+00  2.1962540669094741e+00  2.2249917600634257e+00 
 2.2541054821205240e+00  2.2836001533690893e+00  2.3134807584787631e+00  2.3437523473429289e+00 
 2.3744200359321521e+00  2.4054890071587973e+00  2.4369645117529530e+00  2.4688518691498023e+00 
 2.5011564683886442e+00  2.5338837690236380e+00  2.5670393020464854e+00  2.6006286708211803e+00 
 2.6346575520309918e+00  2.6691316966378369e+00  2.7040569308542053e+00  2.7394391571278045e+00 
 2.7752843551390893e+00  2.8115985828118375e+00  2.8483879773369574e+00  2.8856587562096863e+00 
 2.9234172182803619e+00  2.9616697448189417e+00  3.0004228005934572e+00  3.0396829349625696e+00 
 3.0794567829824353e+00  3.1197510665280248e+00  3.1605725954291670e+00  3.2019282686214052e+00 
 3.2438250753119391e+00  3.2862700961608184e+00  3.3292705044775901e+00  3.3728335674336041e+00 
 3.4169666472901850e+00  3.4616772026428673e+00  3.5069727896819236e+00  3.5528610634693716e+00 
 3.5993497792326985e+00  3.6464467936755165e+00  3.6941600663053618e+00  3.7424976607788705e+00 
 3.7914677462645581e+00  3.8410785988234246e+00  3.8913386028076364e+00  3.9422562522774793e+00 
 3.9938401524369080e+00  4.0460990210878247e+00  4.0990416901034132e+00  4.1526771069207431e+00 
 4.2070143360529162e+00  4.2620625606209837e+00  4.3178310839059186e+00  4.3743293309208875e+00 
 4.4315668500041090e+00  4.4895533144325395e+00  4.5482985240566807e+00  4.6078124069567776e+00 
 4.6681050211206889e+00  4.7291865561437127e+00  4.7910673349506450e+00  4.8537578155403880e+00 
 4.9172685927533797e+00  4.9816104000621131e+00  5.0467941113851706e+00  5.1128307429249107e+00 
 5.1797314550292368e+00  5.2475075540777256e+00  5.3161704943924279e+00  5.3857318801736840e+00 
 5.4562034674612523e+00  5.5275971661211125e+00  5.5999250418582642e+00  5.6731993182558522e+00 
 5.7474323788409887e+00  5.8226367691775955e+00  5.8988251989866312e+00  5.9760105442940716e+00 
 6.0542058496069799e+00  6.1334243301180660e+00  6.2136793739390992e+00  6.2949845443634738e+00 
 6.3773535821585163e+00  6.4608004078876640e+00  6.5453391242630730e+00  6.6309840185290261e+00 
 6.7177495648764918e+00  6.8056504268893150e+00  6.8947014600223886e+00  6.9849177141122638e+00 
 7.0763144359206036e+00  7.1689070717109269e+00  7.2627112698590617e+00  7.3577428834977576e+00 
 7.4540179731959055e+00  7.5515528096728071e+00  7.6503638765479698e+00  7.7504678731268735e+00 
 7.8518817172232156e+00  7.9546225480179888e+00  8.0587077289561506e+00  8.1641548506810118e+00 
 8.2709817340071154e+00  8.3792064329319977e+00  8.4888472376873736e+00  8.5999226778301949e+00 
 8.7124515253742167e+00  8.8264527979625065e+00  8.9419457620814615e+00  9.0589499363169015e+00 
 9.1774850946527611e+00  9.2975712698129165e+00  9.4192287566467883e+00  9.5424781155592147e+00 
 9.6673401759851831e+00  9.7938360399101043e+00  9.9219870854360632e+00  1.0051814970394732e+01 
 1.0183341636007691e+01  1.0316589310594473e+01  1.0451580513329224e+01  1.0588338058046503e+01 
 1.0726885057096858e+01  1.0867244925252889e+01  1.1009441383666381e+01  1.1153498463877249e+01 
 1.1299440511874918e+01  1.1447292192212853e+01  1.1597078492176935e+01  1.1748824726008367e+01 
 1.1902556539181830e+01  1.2058299912739651e+01  1.2216081167682647e+01  1.2375926969418437e+01 
 1.2537864332267983e+01  1.2701920624030990e+01  1.2868123570611260e+01  1.3036501260702339e+01 
 1.3207082150534616e+01  1.3379895068684464e+01  1.3554969220946360e+01  1.3732334195268738e+01 
 1.3912019966754398e+01  1.4094056902726393e+01  1.4278475767860172e+01  1.4465307729382868e+01 
 1.4654584362340664e+01  1.4846337654935025e+01  1.5040600013928785e+01  1.5237404270122987e+01 
 1.5436783683905338e+01  1.5638771950871329e+01  1.5843403207518785e+01  1.6050712037017142e+01 
 1.6260733475052000e+01  1.6473503015746264e+01  1.6689056617658714e+01  1.6907430709861128e+01 
 1.7128662198094819e+01  1.7352788471007866e+01  1.7579847406473828e+01  1.7809877377993221e+01 
 1.8042917261178726e+01  1.8279006440325261e+01  1.8518184815066011e+01  1.8760492807115583e+01 
 1.9005971367101342e+01  1.9254661981484187e+01  1.9506606679569870e+01  1.9761848040612037e+01 
 2.0020429201008149e+01  2.0282393861589792e+01  2.0547786295008102e+01  2.0816651353215985e+01 
 2.1089034475048202e+01  2.1364981693900649e+01  2.1644539645510090e+01  2.1927755575835715e+01 
 2.2214677349043839e+01  2.2505353455597032e+01  2.2799833020449142e+01  2.3098165811347510e+01 
 2.3400402247243875e+01  2.3706593406815234e+01  2.4016791037096336e+01  2.4331047562224992e+01 
 2.4649416092301912e+01  2.4971950432366469e+01  2.5298705091489708e+01  2.5629735291986783e+01 
 2.5965096978749443e+01  2.6304846828700956e+01  2.6649042260374610e+01  2.6997741443617560e+01 
 2.7351003309421714e+01  2.7708887559883184e+01  2.8071454678292127e+01  2.8438765939354468e+01 
 2.8810883419547576e+01  2.9187870007611288e+01  2.9569789415176224e+01  2.9956706187531292e+01 
 3.0348685714531911e+01  3.0745794241651090e+01  3.1148098881175081e+01  3.1555667623545528e+01 
 3.1968569348849837e+01  3.2386873838462392e+01  3.2810651786837546e+01  3.3239974813457202e+01 
 3.3674915474934679e+01  3.4115547277276981e+01  3.4561944688307442e+01  3.5014183150251007e+01 
 3.5472339092484106e+01  3.5936489944451431e+01  3.6406714148751654e+01  3.6883091174394615e+01 
 3.7365701530231249e+01  3.7854626778560601e+01  3.8349949548913081e+01  3.8851753552016049e+01 
 3.9360123593940095e+01  3.9875145590432560e+01  4.0396906581436518e+01  4.0925494745801139e+01 
 4.1460999416184585e+01  4.2003511094150412e+01  4.2553121465463704e+01  4.3109923415585065e+01 
 4.3674011045369603e+01  4.4245479686969020e+01  4.4824425919944218e+01  4.5410947587586193e+01 
 4.6005143813453081e+01  4.6607115018120979e+01  4.7216962936156534e+01  4.7834790633309076e+01 
 4.8460702523930244e+01  4.9094804388618961e+01  4.9737203392099893e+01  5.0388008101333462e+01 
 5.1047328503864286e+01  5.1715276026410052e+01  5.2391963553691447e+01  5.3077505447511555e+01 
 5.3772017566081693e+01  5.4475617283603285e+01  5.5188423510102851e+01  5.5910556711529608e+01 
 5.6642138930112964e+01  5.7383293804989471e+01  5.8134146593096609e+01  5.8894824190343080e+01 
 5.9665455153052889e+01  6.0446169719693323e+01  6.1237099832883899e+01  6.2038379161696689e+01 
 6.2850143124244923e+01  6.3672528910570790e+01  6.4505675505829331e+01  6.5349723713777891e+01 
 6.6204816180572948e+01  6.7071097418876150e+01  6.7948713832279111e+01  6.8837813740043984e+01 
 6.9738547402171832e+01  7.0651067044794871e+01  7.1575526885905106e+01  7.2512083161415504e+01 
 7.3460894151566208e+01  7.4422120207672293e+01  7.5395923779225583e+01  7.6382469441346899e+01 
 7.7381923922601715e+01  7.8394456133175652e+01  7.9420237193422778e+01  8.0459440462783419e+01 
 8.1512241569083258e+01  8.2578818438215563e+01  8.3659351324209226e+01  8.4754022839694315e+01 
 8.5863017986761804e+01  8.6986524188231613e+01  8.8124731319325306e+01  8.9277831739757644e+01 
 9.0446020326243570e+01  9.1629494505435233e+01  9.2828454287285012e+01  9.4043102298850414e+01 
 9.5273643818535660e+01  9.6520286810787056e+01  9.7783241961236740e+01  9.9062722712311853e+01 
 1.0035894529930378e+02  1.0167212878691572e+02  1.0300249510628210e+02  1.0435026909247696e+02 
 1.0571567852251266e+02  1.0709895415383176e+02  1.0850032976330908e+02  1.0992004218675733e+02 
 1.1135833135895585e+02  1.1281544035419728e+02  1.1429161542737059e+02  1.1578710605557583e+02 
 1.1730216498028940e+02 
  </PP_R>
  <PP_RAB>
 2.9923018529563562e-07  3.0314557258028008e-07  3.0711219218820645e-07  3.1113071448756932e-07 
 3.1520181861820180e-07  3.1932619260639183e-07  3.2350453348115927e-07  3.2773754739205718e-07 
 3.3202594972851145e-07  3.3637046524072362e-07  3.4077182816215568e-07  3.4523078233361711e-07 
 3.4974808132897562e-07  3.5432448858251302e-07  3.5896077751794772e-07  3.6365773167914397e-07 
 3.6841614486253450e-07  3.7323682125127310e-07  3.7812057555114271e-07  3.8306823312824407e-07 
 3.8808063014848358e-07  3.9315861371888761e-07  3.9830304203076560e-07  4.0351478450474713e-07 
 4.0879472193771362e-07  4.1414374665165856e-07  4.1956276264448989e-07  4.2505268574280815e-07 
 4.3061444375668332e-07  4.3624897663645748e-07  4.4195723663159806e-07  4.4774018845163019e-07 
 4.5359880942917620e-07  4.5953408968512418e-07  4.6554703229596471e-07  4.7163865346331013e-07 
 4.7780998268563643e-07  4.8406206293227080e-07  4.9039595081965496e-07  4.9681271678991764e-07 
 5.0331344529178048e-07  5.0989923496383197e-07  5.1657119882020178e-07  5.2333046443866174e-07 
 5.3017817415118897e-07  5.3711548523702297e-07  5.4414357011824885e-07  5.5126361655793908e-07 
 5.5847682786088843e-07  5.6578442307697505e-07  5.7318763720718375e-07  5.8068772141232212e-07 
 5.8828594322447218e-07  5.9598358676120443e-07  6.0378195294259818e-07  6.1168235971109852e-07 
 6.1968614225425324e-07  6.2779465323036197e-07  6.3600926299707908e-07  6.4433135984300579e-07 
 6.5276235022231696e-07  6.6130365899245321e-07  6.6995672965492587e-07  6.7872302459927194e-07 
 6.8760402535020183e-07  6.9660123281798019e-07  7.0571616755208291e-07  7.1495036999817454e-07 
 7.2430540075844770e-07  7.3378284085536540e-07  7.4338429199886162e-07  7.5311137685703250e-07 
 7.6296573933036981e-07  7.7294904482958637e-07  7.8306298055707264e-07  7.9330925579203859e-07 
 8.0368960217938718e-07  8.1420577402236205e-07  8.2485954857903547e-07  8.3565272636266386e-07 
 8.4658713144598210e-07  8.5766461176947407e-07  8.6888703945367979e-07  8.8025631111558874e-07 
 8.9177434818917072e-07  9.0344309725010612e-07  9.1526453034475895e-07  9.2724064532345864e-07 
 9.3937346617814008e-07  9.5166504338440511e-07  9.6411745424805700e-07  9.7673280325616943e-07 
 9.8951322243275116e-07  1.0024608716990609e-06  1.0155779392386426e-06  1.0288666418671284e-06 
 1.0423292254068917e-06  1.0559679650665936e-06  1.0697851658256974e-06  1.0837831628240180e-06 
 1.0979643217563648e-06  1.1123310392723492e-06  1.1268857433814264e-06  1.1416308938632324e-06 
 1.1565689826832930e-06  1.1717025344141741e-06  1.1870341066621361e-06  1.2025662904993793e-06 
 1.2183017109019413e-06  1.2342430271933218e-06  1.2503929334939155e-06  1.2667541591763261e-06 
 1.2833294693266355e-06  1.3001216652117087e-06  1.3171335847526183e-06  1.3343681030042562e-06 
 1.3518281326412269e-06  1.3695166244500954e-06  1.3874365678280783e-06  1.4055909912882574e-06 
 1.4239829629714069e-06  1.4426155911645157e-06  1.4614920248260960e-06  1.4806154541183659e-06 
 1.4999891109463879e-06  1.5196162695042794e-06  1.5395002468285506e-06  1.5596444033586953e-06 
 1.5800521435051127e-06  1.6007269162244589e-06  1.6216722156025335e-06  1.6428915814447800e-06 
 1.6643885998745318e-06  1.6861669039390687e-06  1.7082301742236116e-06  1.7305821394733511e-06 
 1.7532265772236143e-06  1.7761673144382773e-06  1.7994082281565309e-06  1.8229532461481077e-06 
 1.8468063475770889e-06  1.8709715636743901e-06  1.8954529784190450e-06  1.9202547292284122e-06 
 1.9453810076574126e-06  1.9708360601069013e-06  1.9966241885413287e-06  2.0227497512157785e-06 
 2.0492171634125253e-06  2.0760308981872224e-06  2.1031954871248673e-06  2.1307155211056454e-06 
 2.1585956510807993e-06  2.1868405888586524e-06  2.2154551079009141e-06  2.2444440441294094e-06 
 2.2738122967433564e-06  2.3035648290473458e-06  2.3337066692901517e-06  2.3642429115145150e-06 
 2.3951787164180529e-06  2.4265193122254215e-06  2.4582699955719060e-06  2.4904361323985626e-06 
 2.5230231588590762e-06  2.5560365822384733e-06  2.5894819818838837e-06  2.6233650101474499e-06 
 2.6576913933415927e-06  2.6924669327067740e-06  2.7276975053919144e-06  2.7633890654476494e-06 
 2.7995476448325784e-06  2.8361793544326787e-06  2.8732903850940586e-06  2.9108870086692308e-06 
 2.9489755790770589e-06  2.9875625333765984e-06  3.0266543928549683e-06  3.0662577641294587e-06 
 3.1063793402640774e-06  3.1470259019006840e-06  3.1882043184049389e-06  3.2299215490272384e-06 
 3.2721846440788486e-06  3.3150007461234241e-06  3.3583770911841169e-06  3.4023210099664852e-06 
 3.4468399290973877e-06  3.4919413723801206e-06  3.5376329620659438e-06  3.5839224201422665e-06 
 3.6308175696376741e-06  3.6783263359440474e-06  3.7264567481559685e-06  3.7752169404276546e-06 
 3.8246151533476554e-06  3.8746597353315267e-06  3.9253591440327325e-06  3.9767219477720134e-06 
 4.0287568269854527e-06  4.0814725756914846e-06  4.1348781029771037e-06  4.1889824345035395e-06 
 4.2437947140315876e-06  4.2993242049669514e-06  4.3555802919257613e-06  4.4125724823206077e-06 
 4.4703104079673162e-06  4.5288038267127450e-06  4.5880626240838759e-06  4.6480968149585119e-06 
 4.7089165452577946e-06  4.7705320936609031e-06  4.8329538733421700e-06  4.8961924337309282e-06 
 4.9602584622943982e-06  5.0251627863438895e-06  5.0909163748646514e-06  5.1575303403696347e-06 
 5.2250159407775624e-06  5.2933845813155256e-06  5.3626478164464981e-06  5.4328173518220716e-06 
 5.5039050462607318e-06  5.5759229137520380e-06  5.6488831254870032e-06  5.7227980119150651e-06 
 5.7976800648279536e-06  5.8735419394708380e-06  5.9503964566810887e-06  6.0282566050550406e-06 
 6.1071355431430793e-06  6.1870466016734820e-06  6.2680032858053377e-06  6.3500192774109471e-06 
 6.4331084373881023e-06  6.5172848080025955e-06  6.6025626152614068e-06  6.6889562713169370e-06 
 6.7764803769026807e-06  6.8651497238008067e-06  6.9549792973419702e-06  7.0459842789379085e-06 
 7.1381800486471088e-06  7.2315821877740960e-06  7.3262064815026755e-06  7.4220689215637122e-06 
 7.5191857089377360e-06  7.6175732565929579e-06  7.7172481922591073e-06  7.8182273612375440e-06 
 7.9205278292481678e-06  8.0241668853135566e-06  8.1291620446808603e-06  8.2355310517819032e-06 
 8.3432918832320579e-06  8.4524627508683229e-06  8.5630621048271615e-06  8.6751086366626361e-06 
 8.7886212825053000e-06  8.9036192262624759e-06  9.0201219028603681e-06  9.1381490015286053e-06 
 9.2577204691277825e-06  9.3788565135205062e-06  9.5015776069866046e-06  9.6259044896829552e-06 
 9.7518581731486513e-06  9.8794599438559726e-06  1.0008731366807873e-05  1.0139694289182516e-05 
 1.0272370844025487e-05  1.0406783453990331e-05  1.0542954835128050e-05  1.0680908000726158e-05 
 1.0820666265197982e-05  1.0962253248022861e-05  1.1105692877737876e-05  1.1251009395981854e-05 
 1.1398227361592242e-05  1.1547371654755629e-05  1.1698467481212522e-05  1.1851540376517230e-05 
 1.2006616210353378e-05  1.2163721190905989e-05  1.2322881869290693e-05  1.2484125144040958e-05 
 1.2647478265653993e-05  1.2812968841196145e-05  1.2980624838968568e-05  1.3150474593233913e-05 
 1.3322546809004918e-05  1.3496870566895596e-05  1.3673475328035939e-05  1.3852390939050914e-05 
 1.4033647637104614e-05  1.4217276055010431e-05  1.4403307226408030e-05  1.4591772591008162e-05 
 1.4782703999906001e-05  1.4976133720964090e-05  1.5172094444265672e-05  1.5370619287639379e-05 
 1.5571741802256269e-05  1.5775495978299992e-05  1.5981916250711250e-05  1.6191037505007382e-05 
 1.6402895083178091e-05  1.6617524789658344e-05  1.6834962897379376e-05  1.7055246153898895e-05 
 1.7278411787611554e-05  1.7504497514040613e-05  1.7733541542211940e-05  1.7965582581111450e-05 
 1.8200659846226987e-05  1.8438813066175868e-05  1.8680082489419098e-05  1.8924508891063455e-05 
 1.9172133579752544e-05  1.9422998404648145e-05  1.9677145762502754e-05  1.9934618604824733e-05 
 2.0195460445137244e-05  2.0459715366332135e-05  2.0727428028120038e-05  2.0998643674577978e-05 
 2.1273408141795745e-05  2.1551767865622226e-05  2.1833769889513282e-05  2.2119461872482158e-05 
 2.2408892097153943e-05  2.2702109477925478e-05  2.2999163569231992e-05  2.3300104573921947e-05 
 2.3604983351741394e-05  2.3913851427929452e-05  2.4226761001926092e-05  2.4543764956194090e-05 
 2.4864916865156220e-05  2.5190271004249465e-05  2.5519882359097707e-05  2.5853806634804441e-05 
 2.6192100265367009e-05  2.6534820423214151e-05  2.6882025028868285e-05  2.7233772760734093e-05 
 2.7590123065015483e-05  2.7951136165762026e-05  2.8316873075046980e-05  2.8687395603278514e-05 
 2.9062766369645791e-05  2.9443048812701720e-05  2.9828307201084307e-05  3.0218606644378158e-05 
 3.0614013104118087e-05  3.1014593404936928e-05  3.1420415245858939e-05  3.1831547211741130e-05 
 3.2248058784864265e-05  3.2670020356675530e-05  3.3097503239684887e-05  3.3530579679517020e-05 
 3.3969322867121045e-05  3.4413806951139851e-05  3.4864107050441588e-05  3.5320299266814801e-05 
 3.5782460697829837e-05  3.6250669449868513e-05  3.6725004651324327e-05  3.7205546465975275e-05 
 3.7692376106531767e-05  3.8185575848361814e-05  3.8685229043395551e-05  3.9191420134212222e-05 
 3.9704234668310938e-05  4.0223759312568521e-05  4.0750081867886359e-05  4.1283291284029006e-05 
 4.1823477674656891e-05  4.2370732332555718e-05  4.2925147745065219e-05  4.3486817609709608e-05 
 4.4055836850032865e-05  4.4632301631640938e-05  4.5216309378453942e-05  4.5807958789171101e-05 
 4.6407349853951010e-05  4.7014583871310201e-05  4.7629763465242931e-05  4.8252992602564749e-05 
 4.8884376610483157e-05  4.9524022194398279e-05  5.0172037455936221e-05  5.0828531911218523e-05 
 5.1493616509370637e-05  5.2167403651272635e-05  5.2850007208555134e-05  5.3541542542844040e-05 
 5.4242126525256784e-05  5.4951877556153737e-05  5.5670915585148483e-05  5.6399362131379279e-05 
 5.7137340304046219e-05  5.7884974823216937e-05  5.8642392040904608e-05  5.9409719962421772e-05 
 6.0187088268013461e-05  6.0974628334773584e-05  6.1772473258847751e-05  6.2580757877927137e-05 
 6.3399618794036133e-05  6.4229194396618551e-05  6.5069624885925702e-05  6.5921052296710576e-05 
 6.6783620522232041e-05  6.7657475338573291e-05  6.8542764429278133e-05  6.9439637410309874e-05 
 7.0348245855337009e-05  7.1268743321349333e-05  7.2201285374609464e-05  7.3146029616943955e-05 
 7.4103135712378339e-05  7.5072765414120745e-05  7.6055082591898587e-05  7.7050253259652944e-05 
 7.8058445603595205e-05  7.9079830010631128e-05  8.0114579097156484e-05  8.1162867738229693e-05 
 8.2224873097126177e-05  8.3300774655279192e-05  8.4390754242612875e-05  8.5494996068271706e-05 
 8.6613686751752504e-05  8.7747015354443220e-05  8.8895173411575256e-05  9.0058354964592940e-05 
 9.1236756593947234e-05  9.2430577452318216e-05  9.3640019298272376e-05  9.4865286530360223e-05 
 9.6106586221660276e-05  9.7364128154774822e-05  9.8638124857283488e-05  9.9928791637661344e-05 
 1.0123634662166613e-04  1.0256101078920232e-04  1.0390300801166697e-04  1.0526256508978478e-04 
 1.0663991179193790e-04  1.0803528089299713e-04  1.0944890821366183e-04  1.1088103266031351e-04 
 1.1233189626539237e-04  1.1380174422830087e-04  1.1529082495684309e-04  1.1679939010920635e-04 
 1.1832769463649189e-04  1.1987599682580243e-04  1.2144455834389290e-04  1.2303364428139347e-04 
 1.2464352319760942e-04  1.2627446716590942e-04  1.2792675181970590e-04  1.2960065639903797e-04 
 1.3129646379776355e-04  1.3301446061136926e-04  1.3475493718540559e-04  1.3651818766455598e-04 
 1.3830451004234837e-04  1.4011420621151587e-04  1.4194758201501850e-04  1.4380494729773064e-04 
 1.4568661595880581e-04  1.4759290600472618e-04  1.4952413960304679e-04  1.5148064313684224e-04 
 1.5346274725986636e-04  1.5547078695243375e-04  1.5750510157803150e-04  1.5956603494067330e-04 
 1.6165393534300267e-04  1.6376915564515700e-04  1.6591205332440180e-04  1.6808299053554517e-04 
 1.7028233417214285e-04  1.7251045592850398e-04  1.7476773236250882e-04  1.7705454495924689e-04 
 1.7937128019548994e-04  1.8171832960500706e-04  1.8409608984473465e-04  1.8650496276181251e-04 
 1.8894535546149695e-04  1.9141768037596264e-04  1.9392235533400443e-04  1.9645980363165177e-04 
 1.9903045410370605e-04  2.0163474119621561e-04  2.0427310503989750e-04  2.0694599152452098e-04 
 2.0965385237426350e-04  2.1239714522405372e-04  2.1517633369691258e-04  2.1799188748230667e-04 
 2.2084428241552726e-04  2.2373400055810666e-04  2.2666153027928895e-04  2.2962736633856478e-04 
 2.3263200996928715e-04  2.3567596896338107e-04  2.3875975775716139e-04  2.4188389751827406e-04 
 2.4504891623377422e-04  2.4825534879935839e-04  2.5150373710976107e-04  2.5479463015033862e-04 
 2.5812858408984739e-04  2.6150616237443838e-04  2.6492793582288054e-04  2.6839448272303096e-04 
 2.7190638892956638e-04  2.7546424796299438e-04  2.7906866110996001e-04  2.8272023752486331e-04 
 2.8641959433280985e-04  2.9016735673390509e-04  2.9396415810891449e-04  2.9781064012630772e-04 
 3.0170745285070015e-04  3.0565525485271749e-04  3.0965471332029392e-04  3.1370650417142989e-04 
 3.1781131216842244e-04  3.2196983103359314e-04  3.2618276356652782e-04  3.3045082176285176e-04 
 3.3477472693455869e-04  3.3915520983191362e-04  3.4359301076695254e-04  3.4808887973859543e-04 
 3.5264357655939976e-04  3.5725787098396820e-04  3.6193254283904122e-04  3.6666838215528854e-04 
 3.7146618930082625e-04  3.7632677511648132e-04  3.8125096105282513e-04  3.8623957930900113e-04 
 3.9129347297336774e-04  3.9641349616598365e-04  4.0160051418295376e-04  4.0685540364266884e-04 
 4.1217905263395474e-04  4.1757236086616188e-04  4.2303623982121780e-04  4.2857161290767078e-04 
 4.3417941561674710e-04  4.3986059568045178e-04  4.4561611323173743e-04  4.5144694096676841e-04 
 4.5735406430931009e-04  4.6333848157726698e-04  4.6940120415140085e-04  4.7554325664625658e-04 
 4.8176567708332451e-04  4.8806951706646830e-04  4.9445584195964923e-04  5.0092573106697426e-04 
 5.0748027781510115e-04  5.1412058993803079e-04  5.2084778966431664e-04  5.2766301390672391e-04 
 5.3456741445437046e-04  5.4156215816738196e-04  5.4864842717409416e-04  5.5582741907083495e-04 
 5.6310034712432242e-04  5.7046844047670651e-04  5.7793294435330147e-04  5.8549512027302819e-04 
 5.9315624626161631e-04  6.0091761706759187e-04  6.0878054438109387e-04  6.1674635705555271e-04 
 6.2481640133227009e-04  6.3299204106793657e-04  6.4127465796512536e-04  6.4966565180580606e-04 
 6.5816644068790898e-04  6.6677846126498783e-04  6.7550316898901781e-04  6.8434203835636973e-04 
 6.9329656315700403e-04  7.0236825672692496e-04  7.1155865220393793e-04  7.2086930278675071e-04 
 7.3030178199747354e-04  7.3985768394754260e-04  7.4953862360713187e-04  7.5934623707808486e-04 
 7.6928218187042186e-04  7.7934813718246083e-04  7.8954580418460747e-04  7.9987690630685772e-04 
 8.1034318953005717e-04  8.2094642268098269e-04  8.3168839773127318e-04  8.4257093010027897e-04 
 8.5359585896187186e-04  8.6476504755527025e-04  8.7608038349993027e-04  8.8754377911455713e-04 
 8.9915717174029498e-04  9.1092252406813783e-04  9.2284182447063172e-04  9.3491708733791420e-04 
 9.4715035341815153e-04  9.5954369016242459e-04  9.7209919207414156e-04  9.8481898106300898e-04 
 9.9770520680364104e-04  1.0107600470988575e-03  1.0239857082477402e-03  1.0373844254185020e-03 
 1.0509584630262348e-03  1.0647101151156019e-03  1.0786417057485366e-03  1.0927555893970146e-03 
 1.1070541513409644e-03  1.1215398080713869e-03  1.1362150076987465e-03  1.1510822303667093e-03 
 1.1661439886712910e-03  1.1814028280854932e-03  1.1968613273894975e-03  1.2125220991064738e-03 
 1.2283877899441195e-03  1.2444610812419473e-03  1.2607446894244427e-03  1.2772413664601454e-03 
 1.2939539003267375e-03  1.3108851154822205e-03  1.3280378733422531e-03  1.3454150727637395e-03 
 1.3630196505347409e-03  1.3808545818708013e-03  1.3989228809177651e-03  1.4172276012611766e-03 
 1.4357718364423390e-03  1.4545587204811364e-03  1.4735914284056855e-03  1.4928731767889255e-03 
 1.5124072242922284e-03  1.5321968722161092e-03  1.5522454650581711e-03  1.5725563910783222e-03 
 1.5931330828714023e-03  1.6139790179472981e-03  1.6350977193186535e-03  1.6564927560962649e-03 
 1.6781677440922689e-03  1.7001263464312261e-03  1.7223722741691956e-03  1.7449092869209117e-03 
 1.7677411934951712e-03  1.7908718525385260e-03  1.8143051731874084e-03  1.8380451157287807e-03 
 1.8620956922694369e-03  1.8864609674140540e-03  1.9111450589521281e-03  1.9361521385538709e-03 
 1.9614864324752589e-03  1.9871522222722625e-03  2.0131538455244449e-03  2.0394956965680217e-03 
 2.0661822272385155e-03  2.0932179476231268e-03  2.1206074268229473e-03  2.1483552937251512e-03 
 2.1764662377852882e-03  2.2049450098198115e-03  2.2337964228089768e-03  2.2630253527102478e-03 
 2.2926367392823465e-03  2.3226355869200815e-03  2.3530269655001024e-03  2.3838160112377260e-03 
 2.4150079275549650e-03  2.4466079859599083e-03  2.4786215269376440e-03  2.5110539608527906e-03 
 2.5439107688638718e-03  2.5771975038496463e-03  2.6109197913475493e-03  2.6450833305044323e-03 
 2.6796938950397245e-03  2.7147573342212101e-03  2.7502795738535632e-03  2.7862666172798292e-03 
 2.8227245463959992e-03  2.8596595226788677e-03  2.8970777882273359e-03  2.9349856668173394e-03 
 2.9733895649705850e-03  3.0122959730372661e-03  3.0517114662929508e-03  3.0916427060498036e-03 
 3.1320964407823850e-03  3.1730795072681534e-03  3.2145988317428854e-03  3.2566614310712378e-03 
 3.2992744139326109e-03  3.3424449820225314e-03  3.3861804312697551e-03  3.4304881530693009e-03 
 3.4753756355316093e-03  3.5208504647480524e-03  3.5669203260730027e-03  3.6135930054226749e-03 
 3.6608763905909649e-03  3.7087784725825046e-03  3.7573073469631610e-03  3.8064712152282099e-03 
 3.8562783861884093e-03  3.9067372773741831e-03  3.9578564164582464e-03  4.0096444426967713e-03 
 4.0621101083894535e-03  4.1152622803586692e-03  4.1691099414479880e-03  4.2236621920402964e-03 
 4.2789282515957837e-03  4.3349174602100556e-03  4.3916392801926227e-03  4.4491032976660709e-03 
 4.5073192241861203e-03  4.5662968983829133e-03  4.6260462876237625e-03  4.6865774896976548e-03 
 4.7479007345218160e-03  4.8100263858705727e-03  4.8729649431268800e-03  4.9367270430566955e-03 
 5.0013234616066759e-03  5.0667651157252991e-03  5.1330630652078732e-03  5.2002285145656526e-03 
 5.2682728149194410e-03  5.3372074659179492e-03  5.4070441176812698e-03  5.4777945727697633e-03 
 5.5494707881787392e-03  5.6220848773591917e-03  5.6956491122650259e-03  5.7701759254270265e-03 
 5.8456779120540023e-03  5.9221678321613952e-03  5.9996586127277563e-03  6.0781633498794329e-03 
 6.1576953111038713e-03  6.2382679374917826e-03  6.3198948460088120e-03  6.4025898317967792e-03 
 6.4863668705051015e-03  6.5712401206527212e-03  6.6572239260209174e-03  6.7443328180774482e-03 
 6.8325815184323985e-03  6.9219849413261689e-03  7.0125581961500193e-03  7.1043165899995825e-03 
 7.1972756302618197e-03  7.2914510272357813e-03  7.3868586967877035e-03  7.4835147630408234e-03 
 7.5814355611003859e-03  7.6806376398143254e-03  7.7811377645700648e-03  7.8829529201278632e-03 
 7.9861003134913573e-03  8.0905973768155212e-03  8.1964617703527715e-03  8.3037113854375847e-03 
 8.4123643475101702e-03  8.5224390191797270e-03  8.6339540033277557e-03  8.7469281462519925e-03 
 8.8613805408514802e-03  8.9773305298533144e-03  9.0947977090816094e-03  9.2138019307692384e-03 
 9.3343633069129048e-03  9.4565022126721302e-03  9.5802392898126851e-03  9.7055954501951164e-03 
 9.8325918793089016e-03  9.9612500398527943e-03  1.0091591675362161e-02  1.0223638813883627e-02 
 1.0357413771697892e-02  1.0492939157091217e-02  1.0630237874176305e-02  1.0769333126763118e-02 
 1.0910248422280413e-02  1.1053007575748518e-02  1.1197634713804153e-02  1.1344154278777871e-02 
 1.1492591032824889e-02  1.1642970062109934e-02  1.1795316781046870e-02  1.1949656936593799e-02 
 1.2106016612604353e-02  1.2264422234235926e-02  1.2424900572415618e-02  1.2587478748364489e-02 
 1.2752184238181256e-02  1.2919044877485705e-02  1.3088088866123025e-02  1.3259344772929640e-02 
 1.3432841540561402e-02  1.3608608490384980e-02  1.3786675327433237e-02  1.3967072145425457e-02 
 1.4149829431853233e-02  1.4334978073132956e-02  1.4522549359825670e-02  1.4712574991925267e-02 
 1.4905087084215856e-02  1.5100118171699223e-02  1.5297701215093350e-02  1.5497869606402837e-02 
 1.5700657174562253e-02  1.5906098191153240e-02  1.6114227376196579e-02  1.6325079904019917e-02 
 1.6538691409202302e-02  1.6755097992596529e-02  1.6974336227430258e-02  1.7196443165486981e-02 
 1.7421456343367874e-02  1.7649413788835552e-02  1.7880354027240839e-02  1.8114316088033718e-02 
 1.8351339511359296e-02  1.8591464354740257e-02  1.8834731199846650e-02  1.9081181159354303e-02 
 1.9330855883892939e-02  1.9583797569085262e-02  1.9840048962678131e-02  2.0099653371766890e-02 
 2.0362654670114600e-02  2.0629097305566647e-02  2.0899026307562581e-02  2.1172487294746193e-02 
 2.1449526482675195e-02  2.1730190691631710e-02  2.2014527354535067e-02  2.2302584524958046e-02 
 2.2594410885248051e-02  2.2890055754754550e-02  2.3189569098164140e-02  2.3493001533944749e-02 
 2.3800404342900212e-02  2.4111829476836884e-02  2.4427329567343621e-02  2.4746957934686658e-02 
 2.5070768596820853e-02  2.5398816278518720e-02  2.5731156420619291e-02  2.6067845189397598e-02 
 2.6408939486056909e-02  2.6754496956345186e-02  2.7104576000297368e-02  2.7459235782105126e-02 
 2.7818536240115700e-02  2.8182538096961654e-02  2.8551302869823162e-02  2.8924892880824532e-02 
 2.9303371267566811e-02  2.9686801993798161e-02  3.0075249860223918e-02  3.0468780515458073e-02 
 3.0867460467117976e-02  3.1271357093064361e-02  3.1680538652788387e-02  3.2095074298947431e-02 
 3.2515034089052375e-02  3.2940488997307289e-02  3.3371510926604307e-02  3.3808172720675343e-02 
 3.4250548176402891e-02  3.4698712056291880e-02  3.5152740101104668e-02  3.5612709042661457e-02 
 3.6078696616808160e-02  3.6550781576553885e-02  3.7029043705380446e-02  3.7513563830725918e-02 
 3.8004423837644706e-02  3.8501706682646242e-02  3.9005496407714939e-02  3.9515878154513399e-02 
 4.0032938178771654e-02  4.0556763864864322e-02  4.1087443740579169e-02  4.1625067492078269e-02 
 4.2169725979055203e-02  4.2721511250090639e-02  4.3280516558208672e-02  4.3846836376636854e-02 
 4.4420566414772406e-02  4.5001803634357275e-02  4.5590646265865002e-02  4.6187193825101829e-02 
 4.6791547130025077e-02  4.7403808317781709e-02  4.8024080861969701e-02  4.8652469590125313e-02 
 4.9289080701439253e-02  4.9934021784704519e-02  5.0587401836499270e-02  5.1249331279607228e-02 
 5.1919921981679801e-02  5.2599287274141718e-02  5.3287541971344367e-02  5.3984802389969659e-02 
 5.4691186368687909e-02  5.5406813288072787e-02  5.6131804090776942e-02  5.6866281301971536e-02 
 5.7610369050053414e-02  5.8364193087623008e-02  5.9127880812736844e-02  5.9901561290438103e-02 
 6.0685365274568956e-02  6.1479425229868261e-02  6.2283875354358378e-02  6.3098851602025038e-02 
 6.3924491705793937e-02  6.4760935200807473e-02  6.5608323448007211e-02  6.6466799658023837e-02 
 6.7336508915380081e-02  6.8217598203010432e-02  6.9110216427101565e-02  7.0014514442257883e-02 
 7.0930645076996271e-02  7.1858763159574457e-02  7.2799025544157431e-02  7.3751591137326072e-02 
 7.4716620924932850e-02  7.5694277999308737e-02  7.6684727586826207e-02  7.7688137075822922e-02 
 7.8704676044890731e-02  7.9734516291534857e-02  8.0777831861208280e-02  8.1834799076725154e-02 
 8.2905596568060708e-02  8.3990405302539622e-02  8.5089408615419942e-02  8.6202792240877332e-02 
 8.7330744343394384e-02  8.8473455549561097e-02  8.9631118980291052e-02  9.0803930283459428e-02 
 9.1992087666967842e-02  9.3195791932242047e-02  9.4415246508167794e-02  9.5650657485470844e-02 
 9.6902233651546765e-02  9.8170186525746481e-02  9.9454730395123606e-02  1.0075608235064935e-01 
 1.0207446232390180e-01  1.0341009312423385e-01  1.0476320047642995e-01  1.0613401305885314e-01 
 1.0752276254209249e-01  1.0892968362811596e-01  1.1035501408993585e-01  1.1179899481179253e-01 
 1.1326186982986482e-01  1.1474388637351259e-01  1.1624529490705900e-01  1.1776634917211971e-01 
 1.1930730623048588e-01  1.2086842650756791e-01  1.2244997383640824e-01  1.2405221550226979e-01 
 1.2567542228780737e-01  1.2731986851883134e-01  1.2898583211066880e-01  1.3067359461513151e-01 
 1.3238344126809998e-01  1.3411566103772815e-01  1.3587054667327991e-01  1.3764839475460453e-01 
 1.3944950574225914e-01  1.4127418402828754e-01  1.4312273798766295e-01  1.4499548003040422e-01 
 1.4689272665437392e-01  1.4881479849876708e-01  1.5076202039830017e-01  1.5273472143810876e-01 
 1.5473323500936378e-01  1.5675789886561545e-01  1.5880905517987440e-01  1.6088705060243969e-01 
 1.6299223631948376e-01  1.6512496811240285e-01  1.6728560641794638e-01  1.6947451638913041e-01 
 1.7169206795695000e-01  1.7393863589289801e-01  1.7621459987230267e-01  1.7852034453849358e-01 
 1.8085625956780718e-01  1.8322273973544312e-01  1.8562018498218222e-01  1.8804900048197729e-01 
 1.9050959671042864e-01  1.9300238951415533e-01  1.9552780018107419e-01  1.9808625551159881e-01 
 2.0067818789076938e-01  2.0330403536132727e-01  2.0596424169774419e-01  2.0865925648122283e-01 
 2.1138953517567599e-01  2.1415553920470143e-01  2.1695773602956328e-01  2.1979659922819464e-01 
 2.2267260857523263e-01  2.2558625012310224e-01  2.2853801628415976e-01  2.3152840591391186e-01 
 2.3455792439532341e-01  2.3762708372422839e-01  2.4073640259585813e-01  2.4388640649250257e-01 
 2.4707762777231743e-01  2.5031060575929442e-01  2.5358588683440830e-01  2.5690402452795646e-01 
 2.6026557961310592e-01  2.6367112020066730e-01  2.6712122183510534e-01  2.7061646759180780e-01 
 2.7415744817562659e-01  2.7774476202070841e-01  2.8137901539163118e-01  2.8506082248586428e-01 
 2.8879080553756992e-01  2.9256959492276141e-01  2.9639782926583885e-01  3.0027615554751763e-01 
 3.0420522921417037e-01  3.0818571428859803e-01  3.1221828348225233e-01  3.1630361830892489e-01 
 3.2044240919992484e-01  3.2463535562076407e-01  3.2888316618936619e-01  3.3318655879582815e-01 
 3.3754626072374272e-01  3.4196300877311242e-01  3.4643754938486993e-01  3.5097063876702828e-01 
 3.5556304302248226e-01  3.6021553827848135e-01  3.6492891081779766e-01  3.6970395721160809e-01 
 3.7454148445411845e-01  3.7944231009894674e-01  3.8440726239729089e-01  3.8943718043790676e-01 
 3.9453291428891479e-01  3.9969532514146416e-01  4.0492528545527601e-01  4.1022367910609187e-01 
 4.1559140153504787e-01  4.2102935990001106e-01  4.2653847322888810e-01  4.3211967257494360e-01 
 4.3777390117415083e-01  4.4350211460460076e-01  4.4930528094799671e-01  4.5518438095326308e-01 
 4.6114040820229335e-01  4.6717436927786860e-01  4.7328728393377145e-01  4.7948018526712999e-01 
 4.8575411989300621e-01  4.9211014812128778e-01  4.9854934413587004e-01  5.0507279617620859e-01 
 5.1168160672122120e-01  5.1837689267562326e-01  5.2515978555867471e-01  5.3203143169541478e-01 
 5.3899299241039955e-01  5.4604564422395530e-01  5.5319057905102809e-01  5.6042900440260579e-01 
 5.6776214358980481e-01  5.7519123593059718e-01  5.8271753695927486e-01  5.9034231863862052e-01 
 5.9806686957489008e-01  6.0589249523557265e-01  6.1382051817003491e-01  6.2185227823301792e-01 
 6.2998913281109314e-01  6.3823245705204645e-01  6.4658364409729863e-01  6.5504410531733492e-01 
 6.6361527055023573e-01  6.7229858834333067e-01  6.8109552619798874e-01  6.9000757081765018e-01 
 6.9903622835906198e-01  7.0818302468684269e-01  7.1744950563133703e-01  7.2683723724988492e-01 
 7.3634780609146855e-01  7.4598281946486311e-01  7.5574390571025585e-01  7.6563271447446002e-01 
 7.7565091698968758e-01  7.8580020635601311e-01  7.9608229782749063e-01  8.0649892910205689e-01 
 8.1705186061518398e-01  8.2774287583742023e-01  8.3857378157578122e-01  8.4954640827911254e-01 
 8.6066261034744829e-01  8.7192426644538989e-01  8.8333327981962839e-01  8.9489157862057178e-01 
 9.0660111622823381e-01  9.1846387158233334e-01  9.3048184951676638e-01  9.4265708109840152e-01 
 9.5499162397036064e-01  9.6748756269973979e-01  9.8014700912993258e-01  9.9297210273750969e-01 
 1.0059650109938223e+00  1.0191279297312834e+00  1.0324630835144961e+00  1.0459727260161844e+00 
 1.0596591403980824e+00  1.0735246396968023e+00  1.0875715672147199e+00  1.1018022969160259e+00 
 1.1162192338279033e+00  1.1308248144470110e+00  1.1456215071512290e+00  1.1606118126168494e+00 
 1.1757982642411664e+00  1.1911834285706580e+00  1.2067699057347052e+00  1.2225603298850554e+00 
 1.2385573696409635e+00  1.2547637285402318e+00  1.2711821454960777e+00  1.2878153952600540e+00 
 1.3046662888909490e+00  1.3217376742299043e+00  1.3390324363816672e+00  1.3565534982022005e+00 
 1.3743038207926646e+00  1.3922864039998128e+00  1.4105042869230180e+00  1.4289605484278451e+00 
 1.4476583076664260e+00  1.4666007246045645e+00  1.4857910005558175e+00  1.5052323787224857e+00 
 1.5249281447437621e+00 
  </PP_RAB>
</PP_MESH>


<PP_LOCAL>
-2.6135566624691165e+01 -2.6135566626157615e+01 -2.6135566627662680e+01 -2.6135566629207400e+01 
-2.6135566630792802e+01 -2.6135566632419952e+01 -2.6135566634089976e+01 -2.6135566635804004e+01 
-2.6135566637563166e+01 -2.6135566639368673e+01 -2.6135566641221736e+01 -2.6135566643123628e+01 
-2.6135566645075595e+01 -2.6135566647078974e+01 -2.6135566649135114e+01 -2.6135566651245441e+01 
-2.6135566653411352e+01 -2.6135566655634314e+01 -2.6135566657915827e+01 -2.6135566660257453e+01 
-2.6135566662660736e+01 -2.6135566665127332e+01 -2.6135566667658907e+01 -2.6135566670257138e+01 
-2.6135566672923837e+01 -2.6135566675660776e+01 -2.6135566678469807e+01 -2.6135566681352834e+01 
-2.6135566684311808e+01 -2.6135566687348714e+01 -2.6135566690465616e+01 -2.6135566693664625e+01 
-2.6135566696947869e+01 -2.6135566700317629e+01 -2.6135566703776142e+01 -2.6135566707325758e+01 
-2.6135566710968881e+01 -2.6135566714707956e+01 -2.6135566718545537e+01 -2.6135566722484192e+01 
-2.6135566726526580e+01 -2.6135566730675460e+01 -2.6135566734933629e+01 -2.6135566739303965e+01 
-2.6135566743789422e+01 -2.6135566748393035e+01 -2.6135566753117903e+01 -2.6135566757967229e+01 
-2.6135566762944290e+01 -2.6135566768052449e+01 -2.6135566773295150e+01 -2.6135566778675965e+01 
-2.6135566784198510e+01 -2.6135566789866537e+01 -2.6135566795683850e+01 -2.6135566801654402e+01 
-2.6135566807782237e+01 -2.6135566814071471e+01 -2.6135566820526353e+01 -2.6135566827151280e+01 
-2.6135566833950715e+01 -2.6135566840929254e+01 -2.6135566848091621e+01 -2.6135566855442637e+01 
-2.6135566862987300e+01 -2.6135566870730685e+01 -2.6135566878678038e+01 -2.6135566886834752e+01 
-2.6135566895206289e+01 -2.6135566903798342e+01 -2.6135566912616746e+01 -2.6135566921667408e+01 
-2.6135566930956504e+01 -2.6135566940490264e+01 -2.6135566950275148e+01 -2.6135566960317792e+01 
-2.6135566970624932e+01 -2.6135566981203596e+01 -2.6135566992060919e+01 -2.6135567003204237e+01 
-2.6135567014641079e+01 -2.6135567026379164e+01 -2.6135567038426451e+01 -2.6135567050791064e+01 
-2.6135567063481389e+01 -2.6135567076505993e+01 -2.6135567089873657e+01 -2.6135567103593441e+01 
-2.6135567117674611e+01 -2.6135567132126713e+01 -2.6135567146959481e+01 -2.6135567162182969e+01 
-2.6135567177807459e+01 -2.6135567193843510e+01 -2.6135567210301939e+01 -2.6135567227193924e+01 
-2.6135567244530865e+01 -2.6135567262324475e+01 -2.6135567280586784e+01 -2.6135567299330134e+01 
-2.6135567318567212e+01 -2.6135567338311009e+01 -2.6135567358574868e+01 -2.6135567379372500e+01 
-2.6135567400717964e+01 -2.6135567422625673e+01 -2.6135567445110450e+01 -2.6135567468187528e+01 
-2.6135567491872454e+01 -2.6135567516181275e+01 -2.6135567541130406e+01 -2.6135567566736718e+01 
-2.6135567593017523e+01 -2.6135567619990592e+01 -2.6135567647674154e+01 -2.6135567676086939e+01 
-2.6135567705248135e+01 -2.6135567735177474e+01 -2.6135567765895178e+01 -2.6135567797422009e+01 
-2.6135567829779280e+01 -2.6135567862988879e+01 -2.6135567897073251e+01 -2.6135567932055409e+01 
-2.6135567967959062e+01 -2.6135568004808441e+01 -2.6135568042628474e+01 -2.6135568081444735e+01 
-2.6135568121283416e+01 -2.6135568162171513e+01 -2.6135568204136611e+01 -2.6135568247207132e+01 
-2.6135568291412170e+01 -2.6135568336781596e+01 -2.6135568383346111e+01 -2.6135568431137177e+01 
-2.6135568480187104e+01 -2.6135568530529046e+01 -2.6135568582197031e+01 -2.6135568635226026e+01 
-2.6135568689651830e+01 -2.6135568745511254e+01 -2.6135568802842062e+01 -2.6135568861683065e+01 
-2.6135568922073947e+01 -2.6135568984055599e+01 -2.6135569047669900e+01 -2.6135569112959853e+01 
-2.6135569179969597e+01 -2.6135569248744446e+01 -2.6135569319330905e+01 -2.6135569391776666e+01 
-2.6135569466130708e+01 -2.6135569542443303e+01 -2.6135569620766049e+01 -2.6135569701151880e+01 
-2.6135569783655146e+01 -2.6135569868331615e+01 -2.6135569955238548e+01 -2.6135570044434679e+01 
-2.6135570135980316e+01 -2.6135570229937333e+01 -2.6135570326369283e+01 -2.6135570425341324e+01 
-2.6135570526920354e+01 -2.6135570631175089e+01 -2.6135570738175975e+01 -2.6135570847995364e+01 
-2.6135570960707486e+01 -2.6135571076388540e+01 -2.6135571195116725e+01 -2.6135571316972310e+01 
-2.6135571442037669e+01 -2.6135571570397360e+01 -2.6135571702138137e+01 -2.6135571837349051e+01 
-2.6135571976121543e+01 -2.6135572118549398e+01 -2.6135572264728907e+01 -2.6135572414758890e+01 
-2.6135572568740770e+01 -2.6135572726778626e+01 -2.6135572888979311e+01 -2.6135573055452451e+01 
-2.6135573226310594e+01 -2.6135573401669227e+01 -2.6135573581646899e+01 -2.6135573766365255e+01 
-2.6135573955949170e+01 -2.6135574150526796e+01 -2.6135574350229639e+01 -2.6135574555192694e+01 
-2.6135574765554502e+01 -2.6135574981457225e+01 -2.6135575203046823e+01 -2.6135575430473040e+01 
-2.6135575663889572e+01 -2.6135575903454182e+01 -2.6135576149328756e+01 -2.6135576401679447e+01 
-2.6135576660676772e+01 -2.6135576926495716e+01 -2.6135577199315897e+01 -2.6135577479321608e+01 
-2.6135577766702006e+01 -2.6135578061651184e+01 -2.6135578364368349e+01 -2.6135578675057918e+01 
-2.6135578993929649e+01 -2.6135579321198779e+01 -2.6135579657086204e+01 -2.6135580001818539e+01 
-2.6135580355628356e+01 -2.6135580718754223e+01 -2.6135581091440940e+01 -2.6135581473939641e+01 
-2.6135581866507952e+01 -2.6135582269410175e+01 -2.6135582682917335e+01 -2.6135583107307486e+01 
-2.6135583542865728e+01 -2.6135583989884406e+01 -2.6135584448663270e+01 -2.6135584919509618e+01 
-2.6135585402738371e+01 -2.6135585898672250e+01 -2.6135586407641927e+01 -2.6135586929986072e+01 
-2.6135587466051469e+01 -2.6135588016193132e+01 -2.6135588580774311e+01 -2.6135589160166557e+01 
-2.6135589754749780e+01 -2.6135590364912112e+01 -2.6135590991049963e+01 -2.6135591633567856e+01 
-2.6135592292878297e+01 -2.6135592969401561e+01 -2.6135593663565437e+01 -2.6135594375804875e+01 
-2.6135595106561546e+01 -2.6135595856283331e+01 -2.6135596625423677e+01 -2.6135597414440937e+01 
-2.6135598223797526e+01 -2.6135599053958806e+01 -2.6135599905392102e+01 -2.6135600778565312e+01 
-2.6135601673945800e+01 -2.6135602591998726e+01 -2.6135603533184845e+01 -2.6135604497959477e+01 
-2.6135605486770626e+01 -2.6135606500055886e+01 -2.6135607538241569e+01 -2.6135608601740760e+01 
-2.6135609690950595e+01 -2.6135610806250796e+01 -2.6135611948002982e+01 -2.6135613116549472e+01 
-2.6135614312212365e+01 -2.6135615535294608e+01 -2.6135616786082331e+01 -2.6135618064846764e+01 
-2.6135619371848371e+01 -2.6135620707344458e+01 -2.6135622071598391e+01 -2.6135623464889530e+01 
-2.6135624887524813e+01 -2.6135626339861801e+01 -2.6135627822328484e+01 -2.6135629335438374e+01 
-2.6135630879827364e+01 -2.6135632456285759e+01 -2.6135634065785421e+01 -2.6135635709522465e+01 
-2.6135637388949515e+01 -2.6135639105818051e+01 -2.6135640862223728e+01 -2.6135642660635522e+01 
-2.6135644503920691e+01 -2.6135646395381475e+01 -2.6135648338772814e+01 -2.6135650338292120e+01 
-2.6135652398579410e+01 -2.6135654524691290e+01 -2.6135656722051877e+01 -2.6135658996377451e+01 
-2.6135661353599225e+01 -2.6135663799766405e+01 -2.6135666340901142e+01 -2.6135668969163692e+01 
-2.6135671666904020e+01 -2.6135674435727008e+01 -2.6135677277509735e+01 -2.6135680194166049e+01 
-2.6135683187681440e+01 -2.6135686260078991e+01 -2.6135689413431198e+01 -2.6135692649879168e+01 
-2.6135695971608271e+01 -2.6135699380867948e+01 -2.6135702879971330e+01 -2.6135706471282351e+01 
-2.6135710157227695e+01 -2.6135713940306871e+01 -2.6135717823082658e+01 -2.6135721808178413e+01 
-2.6135725898295288e+01 -2.6135730096205013e+01 -2.6135734404741687e+01 -2.6135738826826902e+01 
-2.6135743365456925e+01 -2.6135748023701343e+01 -2.6135752804715718e+01 -2.6135757711735213e+01 
-2.6135762748086336e+01 -2.6135767917177883e+01 -2.6135773222507691e+01 -2.6135778667675726e+01 
-2.6135784256368172e+01 -2.6135789992364302e+01 -2.6135795879551086e+01 -2.6135801921921498e+01 
-2.6135808123568658e+01 -2.6135814488689924e+01 -2.6135821021596694e+01 -2.6135827726718155e+01 
-2.6135834608601616e+01 -2.6135841671905286e+01 -2.6135848921412698e+01 -2.6135856362042517e+01 
-2.6135863998835120e+01 -2.6135871836965912e+01 -2.6135879881752835e+01 -2.6135888138648291e+01 
-2.6135896613241499e+01 -2.6135905311281764e+01 -2.6135914238674211e+01 -2.6135923401467245e+01 
-2.6135932805874887e+01 -2.6135942458269682e+01 -2.6135952365202424e+01 -2.6135962533400917e+01 
-2.6135972969752245e+01 -2.6135983681337450e+01 -2.6135994675426499e+01 -2.6136005959481853e+01 
-2.6136017541161557e+01 -2.6136029428319581e+01 -2.6136041629027815e+01 -2.6136054151568146e+01 
-2.6136067004443706e+01 -2.6136080196379751e+01 -2.6136093736329116e+01 -2.6136107633494262e+01 
-2.6136121897313181e+01 -2.6136136537470030e+01 -2.6136151563913817e+01 -2.6136166986855162e+01 
-2.6136182816771896e+01 -2.6136199064421369e+01 -2.6136215740851036e+01 -2.6136232857396266e+01 
-2.6136250425689799e+01 -2.6136268457682881e+01 -2.6136286965639805e+01 -2.6136305962145215e+01 
-2.6136325460125068e+01 -2.6136345472846372e+01 -2.6136366013926249e+01 -2.6136387097344080e+01 
-2.6136408737454907e+01 -2.6136430948994835e+01 -2.6136453747086289e+01 -2.6136477147256887e+01 
-2.6136501165448170e+01 -2.6136525818028268e+01 -2.6136551121793904e+01 -2.6136577093989739e+01 
-2.6136603752332363e+01 -2.6136631114998028e+01 -2.6136659200644040e+01 -2.6136688028435131e+01 
-2.6136717618042567e+01 -2.6136747989656747e+01 -2.6136779164016414e+01 -2.6136811162412588e+01 
-2.6136844006695320e+01 -2.6136877719303385e+01 -2.6136912323272508e+01 -2.6136947842259687e+01 
-2.6136984300552506e+01 -2.6137021723079503e+01 -2.6137060135443637e+01 -2.6137099563927759e+01 
-2.6137140035521234e+01 -2.6137181577941416e+01 -2.6137224219633165e+01 -2.6137267989810837e+01 
-2.6137312918479495e+01 -2.6137359036432596e+01 -2.6137406375297751e+01 -2.6137454967556522e+01 
-2.6137504846544218e+01 -2.6137556046507445e+01 -2.6137608602617775e+01 -2.6137662550966997e+01 
-2.6137717928629517e+01 -2.6137774773687479e+01 -2.6137833125232060e+01 -2.6137893023407454e+01 
-2.6137954509446963e+01 -2.6138017625693333e+01 -2.6138082415618726e+01 -2.6138148923871992e+01 
-2.6138217196319513e+01 -2.6138287280048377e+01 -2.6138359223415222e+01 -2.6138433076095819e+01 
-2.6138508889098976e+01 -2.6138586714811307e+01 -2.6138666607042733e+01 -2.6138748621050318e+01 
-2.6138832813587801e+01 -2.6138919242951903e+01 -2.6139007969014752e+01 -2.6139099053261599e+01 
-2.6139192558856983e+01 -2.6139288550681030e+01 -2.6139387095359520e+01 -2.6139488261335160e+01 
-2.6139592118910134e+01 -2.6139698740296804e+01 -2.6139808199670327e+01 -2.6139920573218358e+01 
-2.6140035939204182e+01 -2.6140154378020718e+01 -2.6140275972248418e+01 -2.6140400806725008e+01 
-2.6140528968592680e+01 -2.6140660547357569e+01 -2.6140795634981043e+01 -2.6140934325938655e+01 
-2.6141076717265324e+01 -2.6141222908651500e+01 -2.6141373002512925e+01 -2.6141527104052852e+01 
-2.6141685321358878e+01 -2.6141847765462366e+01 -2.6142014550428513e+01 -2.6142185793443549e+01 
-2.6142361614887271e+01 -2.6142542138435637e+01 -2.6142727491149426e+01 -2.6142917803551004e+01 
-2.6143113209727819e+01 -2.6143313847437863e+01 -2.6143519858201643e+01 -2.6143731387404817e+01 
-2.6143948584399315e+01 -2.6144171602607297e+01 -2.6144400599644332e+01 -2.6144635737431571e+01 
-2.6144877182289171e+01 -2.6145125105067937e+01 -2.6145379681279302e+01 -2.6145641091200719e+01 
-2.6145909520005194e+01 -2.6146185157899374e+01 -2.6146468200242964e+01 -2.6146758847688879e+01 
-2.6147057306317357e+01 -2.6147363787767873e+01 -2.6147678509397437e+01 -2.6148001694410638e+01 
-2.6148333572008127e+01 -2.6148674377537120e+01 -2.6149024352643274e+01 -2.6149383745433123e+01 
-2.6149752810607136e+01 -2.6150131809634580e+01 -2.6150521010921064e+01 -2.6150920689948226e+01 
-2.6151331129449844e+01 -2.6151752619578520e+01 -2.6152185458063833e+01 -2.6152629950388842e+01 
-2.6153086409947633e+01 -2.6153555158217259e+01 -2.6154036524938299e+01 -2.6154530848264727e+01 
-2.6155038474930759e+01 -2.6155559760437445e+01 -2.6156095069213485e+01 -2.6156644774766171e+01 
-2.6157209259849665e+01 -2.6157788916628487e+01 -2.6158384146832521e+01 -2.6158995361910332e+01 
-2.6159622983173605e+01 -2.6160267441941247e+01 -2.6160929179682530e+01 -2.6161608648146121e+01 
-2.6162306309484897e+01 -2.6163022636374752e+01 -2.6163758112118472e+01 -2.6164513230750021e+01 
-2.6165288497135077e+01 -2.6166084427036527e+01 -2.6166901547184217e+01 -2.6167740395347575e+01 
-2.6168601520371386e+01 -2.6169485482204966e+01 -2.6170392851925882e+01 -2.6171324211751845e+01 
-2.6172280155033018e+01 -2.6173261286220242e+01 -2.6174268220837533e+01 -2.6175301585444466e+01 
-2.6176362017565808e+01 -2.6177450165624510e+01 -2.6178566688872866e+01 -2.6179712257297876e+01 
-2.6180887551535804e+01 -2.6182093262786637e+01 -2.6183330092725164e+01 -2.6184598753430212e+01 
-2.6185899967325430e+01 -2.6187234467142346e+01 -2.6188602995920391e+01 -2.6190006307052300e+01 
-2.6191445164383765e+01 -2.6192920342388440e+01 -2.6194432626434004e+01 -2.6195982813158480e+01 
-2.6197571710986843e+01 -2.6199200140809314e+01 -2.6200868936858718e+01 -2.6202578947822555e+01 
-2.6204331038232397e+01 -2.6206126090185780e+01 -2.6207965005449751e+01 -2.6209848708011158e+01 
-2.6211778147158622e+01 -2.6213754301173275e+01 -2.6215778181717660e+01 -2.6217850839047347e+01 
-2.6219973368161128e+01 -2.6222146916029782e+01 -2.6224372690066918e+01 -2.6226651968021525e+01 
-2.6228986109494318e+01 -2.6231376569309269e+01 -2.6233824913001953e+01 -2.6236332834710229e+01 
-2.6238902177800096e+01 -2.6241534958592876e+01 -2.6244233393604731e+01 -2.6246999930760783e+01 
-2.6249837285099151e+01 -2.6252748479539324e+01 -2.6255736891355760e+01 -2.6258806040511903e+01 
-2.6261960479618697e+01 -2.6265205681188007e+01 -2.6268545831156718e+01 -2.6271987522744197e+01 
-2.6275537655017587e+01 -2.6279204037054498e+01 -2.6282995513164348e+01 -2.6286922103631564e+01 
-2.6290995162640293e+01 -2.6295227555171824e+01 -2.6299633854797925e+01 -2.6304230564424593e+01 
-2.6309036362149335e+01 -2.6314072374503240e+01 -2.6319362479444496e+01 -2.6324933641502145e+01 
-2.6330816281486975e+01 -2.6337044683139968e+01 -2.6343657438964691e+01 -2.6350697937255124e+01 
-2.6358214892007226e+01 -2.6366262916889141e+01 -2.6374903143726147e+01 -2.6384203885071305e+01 
-2.6394241339174254e+01 -2.6405100334076526e+01 -2.6416875105554912e+01 -2.6429670101139983e+01 
-2.6443600799387148e+01 -2.6458794529624040e+01 -2.6475391272966281e+01 -2.6493544419904204e+01 
-2.6513421453099426e+01 -2.6535204516614346e+01 -2.6559090823884819e+01 -2.6585292846811523e+01 
-2.6614038217124911e+01 -2.6645569258684755e+01 -2.6680142056391478e+01 -2.6718024953419114e+01 
-2.6759496354683886e+01 -2.6804841701544792e+01 -2.6854349471563467e+01 -2.6908306049665836e+01 
-2.6966989314560575e+01 -2.7030660789249175e+01 -2.7099556220370680e+01 -2.7173874480043057e+01 
-2.7253764729532985e+01 -2.7339311850845494e+01 -2.7430520242045159e+01 -2.7527296188339829e+01 
-2.7629429165184909e+01 -2.7736572600476869e+01 -2.7848224817994659e+01 -2.7963711097095363e+01 
-2.8082168002449777e+01 -2.8202531347910455e+01 -2.8323529339150131e+01 -2.8443682562759076e+01 
-2.8561312527237714e+01 -2.8674560377092710e+01 -2.8781417161106873e+01 -2.8879766609555201e+01 
-2.8967440738118242e+01 -2.9042287744239449e+01 -2.9102250611899013e+01 -2.9145453645667651e+01 
-2.9170292908339995e+01 -2.9175525371623717e+01 -2.9160350678181764e+01 -2.9124478943437250e+01 
-2.9068178170302133e+01 -2.8992295731011009e+01 -2.8898250012924255e+01 -2.8787990632790208e+01 
-2.8663928364879464e+01 -2.8528838762272507e+01 -2.8385745984395225e+01 -2.8237795204344074e+01 
-2.8088122882408857e+01 -2.7939734041904273e+01 -2.7795394532635196e+01 -2.7657544337343595e+01 
-2.7528235594354527e+01 -2.7409096533795992e+01 -2.7301320276403860e+01 -2.7205675657254282e+01 
-2.7122536034753470e+01 -2.7051921444738987e+01 -2.6993549394001715e+01 -2.6946889937582014e+01 
-2.6911221311803224e+01 -2.6885683169127137e+01 -2.6869325267677478e+01 -2.6861150230115719e+01 
-2.6860149649903764e+01 -2.6865333361208837e+01 -2.6875752098977532e+01 -2.6890514061085124e+01 
-2.6908796064192110e+01 -2.6929850076733210e+01 -2.6953005934546827e+01 -2.6977671018530021e+01 
-2.7003327613330804e+01 -2.7029528585165981e+01 -2.7055891926932180e+01 -2.7082094626119225e+01 
-2.7107866222455492e+01 -2.7132982341191294e+01 -2.7157258415373729e+01 -2.7180543749030935e+01 
-2.7202716021864084e+01 -2.7223676294343580e+01 -2.7243344539607296e+01 -2.7261655703899816e+01 
-2.7278556279379913e+01 -2.7294001360586599e+01 -2.7307952148117561e+01 -2.7320373858703903e+01 
-2.7331233999152214e+01 -2.7340500962015074e+01 -2.7348142902590116e+01 -2.7354126859467701e+01 
-2.7358418084050324e+01 -2.7360979547998234e+01 -2.7361771601070487e+01 -2.7360751755284554e+01 
-2.7357874574596611e+01 -2.7353091652337632e+01 -2.7346351661385860e+01 -2.7337600464480111e+01 
-2.7326781274185173e+01 -2.7313834853974789e+01 -2.7298699753369316e+01 -2.7281312571371238e+01 
-2.7261608243690130e+01 -2.7239520350001015e+01 -2.7214981438141450e+01 -2.7187923362844781e+01 
-2.7158277636906426e+01 -2.7125975792883423e+01 -2.7090949753676615e+01 -2.7053132210357120e+01 
-2.7012457005512143e+01 -2.6968859520306150e+01 -2.6922277063316098e+01 -2.6872649258882142e+01 
-2.6819918432488389e+01 -2.6764029990384596e+01 -2.6704932790314718e+01 -2.6642579499940027e+01 
-2.6576926939170839e+01 -2.6507936402317654e+01 -2.6435573955811364e+01 -2.6359810707011988e+01 
-2.6280623039472321e+01 -2.6197992810117736e+01 -2.6111907503940689e+01 -2.6022360342074677e+01 
-2.5929350339595310e+01 -2.5832882310134352e+01 -2.5732966815280836e+01 -2.5629620057843251e+01 
-2.5522863719457540e+01 -2.5412724744680762e+01 -2.5299235075441707e+01 -2.5182431341737317e+01 
-2.5062354516631430e+01 -2.4939049545682753e+01 -2.4812564963075090e+01 -2.4682952508637914e+01 
-2.4550266761550176e+01 -2.4414564807652972e+01 -2.4275905957783056e+01 -2.4134351534233257e+01 
-2.3989964741102245e+01 -2.3842810631841324e+01 -2.3692956183596763e+01 -2.3540470482889386e+01 
-2.3385425020766469e+01 -2.3227894087922522e+01 -2.3067955251479880e+01 -2.2905689885501605e+01 
-2.2741183717227507e+01 -2.2574527340873281e+01 -2.2405816641329430e+01 -2.2235153061810582e+01 
-2.2062643643216852e+01 -2.1888400759554028e+01 -2.1712541473952097e+01 -2.1535186444564857e+01 
-2.1356458319667681e+01 -2.1176479577231969e+01 -2.0995369786651850e+01 -2.0813242299220068e+01 
-2.0630200409136421e+01 -2.0446333067432921e+01 -2.0261710275730959e+01 -2.0076378696674826e+01 
-1.9890355546273646e+01 -1.9703626334901930e+01 -1.9516139776311235e+01 -1.9327805325507672e+01 
-1.9138491638085895e+01 -1.8948026588824376e+01 -1.8756199128391405e+01 -1.8562763207077619e+01 
-1.8367443931680501e+01 -1.8169946045670031e+01 -1.7969964734759870e+01 -1.7767198670051773e+01 
-1.7561365105538446e+01 -1.7352216757069396e+01 -1.7139560098520629e+01 -1.6923274631152967e+01 
-1.6703332600985966e+01 -1.6479818571612959e+01 -1.6252948192177417e+01 -1.6023085445466354e+01 
-1.5790757614008598e+01 -1.5556667167246891e+01 -1.5321699756916622e+01 -1.5086927514666835e+01 
-1.4853606881675722e+01 -1.4623170274169896e+01 -1.4397211007095045e+01 -1.4177461066244765e+01 
-1.3965761543784923e+01 -1.3764025831224300e+01 -1.3574195996905535e+01 -1.3398193148982573e+01 
-1.3237862989976277e+01 -1.3094918173069216e+01 -1.2970879456599603e+01 -1.2867017975082982e+01 
-1.2784301183983615e+01 -1.2723345145177113e+01 -1.2684375795615949e+01 -1.2667201656076299e+01 
-1.2671200110591547e+01 -1.2695318925690385e+01 -1.2738094116046305e+01 -1.2797684629480512e+01 
-1.2871923647740660e+01 -1.2958385603153886e+01 -1.3054467306846282e+01 -1.3157553216932264e+01 
-1.3264801962900377e+01 -1.3373744186795390e+01 -1.3482131559586005e+01 -1.3587937316176616e+01 
-1.3689610528139237e+01 -1.3786109047457895e+01 -1.3876958649920326e+01 -1.3962286816298368e+01 
-1.4042826776984340e+01 -1.4119888530427630e+01 -1.4195295014333659e+01 -1.4271283420164663e+01 
-1.4350373746780829e+01 -1.4435208992044069e+01 -1.4528373757260495e+01 -1.4632200323835107e+01 
-1.4748573267218227e+01 -1.4878745188294465e+01 -1.5023176962863038e+01 -1.5181415852477786e+01 
-1.5352023752960946e+01 -1.5532565726226011e+01 -1.5719665798318623e+01 -1.5909132945175923e+01 
-1.6096155445028067e+01 -1.6275556642122812e+01 -1.6442099975021303e+01 -1.6590826219594025e+01 
-1.6717401635680762e+01 -1.6818452411215912e+01 -1.6891858790171362e+01 -1.6936981851653371e+01 
-1.6954797373252681e+01 -1.6947914839603424e+01 -1.6920465676727861e+01 -1.6877853327999045e+01 
-1.6826368772259382e+01 -1.6772688144191658e+01 -1.6723283456959802e+01 -1.6683791728289751e+01 
-1.6658400218308234e+01 -1.6649313726854011e+01 -1.6656371596074379e+01 -1.6676875275872856e+01 
-1.6705671104765120e+01 -1.6735508439749673e+01 -1.6757659301303377e+01 -1.6762781136435233e+01 
-1.6741699239947032e+01 -1.6688418454688577e+01 -1.6582543941513453e+01 -1.6372556123517562e+01 
-1.6153733172338473e+01 -1.5940402201946510e+01 -1.5730280724459581e+01 -1.5523305142045299e+01 
-1.5319389666370308e+01 -1.5118466769924771e+01 -1.4920469781398491e+01 -1.4725334515176124e+01 
-1.4532999027873844e+01 -1.4343403561238564e+01 -1.4156490467890448e+01 -1.3972204139836936e+01 
-1.3790490937511450e+01 -1.3611299119526121e+01 -1.3434578773103587e+01 -1.3260281745341292e+01 
-1.3088361575523635e+01 -1.2918773428751866e+01 -1.2751474031443180e+01 -1.2586421608927218e+01 
-1.2423575826016082e+01 -1.2262897730285486e+01 -1.2104349698791975e+01 -1.1947895389921181e+01 
-1.1793499697291098e+01 -1.1641128708458030e+01 -1.1490749667547099e+01 -1.1342330939479922e+01 
-1.1195841977440233e+01 -1.1051253290601293e+01 -1.0908536411871944e+01 -1.0767663864188188e+01 
-1.0628609123699750e+01 -1.0491346583326868e+01 -1.0355851470337200e+01 -1.0222100169652220e+01 
-1.0090068748076822e+01 -9.9597355052583225e+00 -9.8310783484864448e+00 -9.7040760755847213e+00 
-9.5787079666105495e+00 -9.4549537433953912e+00 -9.3327935250178466e+00 -9.2122077495920589e+00 
-9.0931771223238034e+00 -8.9756825915524487e+00 -8.8597052809473613e+00 -8.7452264710300582e+00 
-8.6322275865804627e+00 -8.5206964100041862e+00 -8.4106014833304865e+00 -8.3019314271264548e+00 
-8.1946681061445279e+00 -8.0887935032467233e+00 -7.9842897293532156e+00 -7.8811390362081024e+00 
-7.7793238302168586e+00 -7.6788266867135864e+00 -7.5796303637497324e+00 -7.4817178135804348e+00 
-7.3850721937551116e+00 -7.2896768760245703e+00 -7.1955154522749609e+00 -7.1025717391705712e+00 
-7.0108297803275921e+00 -6.9202738467236786e+00 -6.8308884354942148e+00 -6.7426582674177586e+00 
-6.6555682833999299e+00 -6.5696036402414739e+00 -6.4847497059599348e+00 -6.4009920548887722e+00 
-6.3183164627382311e+00 -6.2367089017526416e+00 -6.1561555360643183e+00 -6.0766427173027298e+00 
-5.9981569804867441e+00 -5.9206850402101381e+00 -5.8442137871082789e+00 -5.7687302845882718e+00 
-5.6942217657922116e+00 -5.6206756307681349e+00 -5.5480794438170378e+00 -5.4764209309904404e+00 
-5.4056879777126561e+00 -5.3358686265072404e+00 -5.2669510748105814e+00 -5.1989236728559867e+00 
-5.1317749216188639e+00 -5.0654934708100194e+00 -5.0000681169154468e+00 -4.9354878012710985e+00 
-4.8717416081717717e+00 -4.8088187630107049e+00 -4.7467086304466015e+00 -4.6854007125964330e+00 
-4.6248846472540492e+00 -4.5651502061312197e+00 -4.5061872931255875e+00 -4.4479859426011901e+00 
-4.3905363177112511e+00 -4.3338287085785225e+00 -4.2778535312170227e+00 -4.2226013250534393e+00 
-4.1680627518977982e+00 -4.1142285942157910e+00 -4.0610897535644952e+00 -4.0086372490527076e+00 
-3.9568622158169968e+00 -3.9057559035207525e+00 -3.8553096748708997e+00 -3.8055150041557613e+00 
-3.7563634758005775e+00 -3.7078467829425663e+00 -3.6599567260249501e+00 -3.6126852114088481e+00 
-3.5660242500030344e+00 -3.5199659559131287e+00 -3.4745025451061102e+00 -3.4296263340943494e+00 
-3.3853297386352090e+00 -3.3416052724617935e+00 -3.2984455459647366e+00 -3.2558432650217690e+00 
-3.2137912297102367e+00 -3.1722823331042318e+00 -3.1313095600725385e+00 -3.0908659860925822e+00 
-3.0509447760802928e+00 -3.0115391832344844e+00 -2.9726425478958385e+00 -2.9342482964219760e+00 
-2.8963499400764197e+00 -2.8589410739311591e+00 -2.8220153757841273e+00 -2.7855666050913275e+00 
-2.7495886019116087e+00 -2.7140752858659498e+00 -2.6790206551083835e+00 -2.6444187853133951e+00 
-2.6102638286689923e+00 -2.5765500129088843e+00 -2.5432716403047597e+00 -2.5104230867246469e+00 
-2.4779988006797087e+00 -2.4459933023818290e+00 -2.4144011828206686e+00 -2.3832171028477944e+00 
-2.3524357922755228e+00 -2.3220520489848786e+00 -2.2920607380469789e+00 -2.2624567908562310e+00 
-2.2332352042716894e+00 -2.2043910397731077e+00 -2.1759194226255989e+00 -2.1478155410558872e+00 
-2.1200746454390638e+00 -2.0926920474960644e+00 -2.0656631195011013e+00 -2.0389832934996619e+00 
-2.0126480605363697e+00 -1.9866529698930977e+00 -1.9609936283366760e+00 -1.9356656993762309e+00 
-1.9106649025290499e+00 -1.8859870124816556e+00 -1.8616278588749486e+00 -1.8375833248072488e+00 
-1.8138493466950671e+00 -1.7904219134396113e+00 -1.7672970657489069e+00 -1.7444708954686521e+00 
-1.7219395449217414e+00 -1.6996992062563048e+00 -1.6777461208021744e+00 -1.6560765784356570e+00 
-1.6346869169525184e+00 -1.6135735214490574e+00 -1.5927328237111824e+00 -1.5721613016113729e+00 
-1.5518554785134318e+00 -1.5318119226849252e+00 -1.5120272467172133e+00 -1.4924981069529675e+00 
-1.4732212029210865e+00 -1.4541932767789087e+00 -1.4354111127616267e+00 -1.4168715366388167e+00 
-1.3985714151779909e+00 -1.3805076556150664e+00 -1.3626772051316829e+00 -1.3450770503392704e+00 
-1.3277042167697790e+00 -1.3105557683729858e+00 -1.2936288070202970e+00 -1.2769204720149567e+00 
-1.2604279396085809e+00 -1.2441484225239396e+00 -1.2280791694838982e+00 -1.2122174647464470e+00 
-1.1965606276457326e+00 -1.1811060121390207e+00 -1.1658510063595064e+00 -1.1507930321749054e+00 
-1.1359295447517406e+00 -1.1212580321252590e+00 -1.1067760147749115e+00 -1.0924810452052942e+00 
-1.0783707075325280e+00 -1.0644426170759611e+00 -1.0506944199551560e+00 -1.0371237926920780e+00 
-1.0237284418138592e+00 -1.0105061034835006e+00 -9.9745454308973225e-01 -9.8457155488778469e-01 
-9.7185496162198870e-01 -9.5930261415781526e-01 -9.4691239111866810e-01 -9.3468219852736278e-01 
-9.2260996945224272e-01 -9.1069366365786109e-01 -8.9893126726017647e-01 -8.8732079238620076e-01 
-8.7586027683804946e-01 -8.6454778376131580e-01 -8.5338140131774498e-01 -8.4235924236212723e-01 
-8.3147944412336539e-01 -8.2074016788966164e-01 -8.1013959869777252e-01 -7.9967594502627359e-01 
-7.8934743849279032e-01 -7.7915233355513569e-01 -7.6908890721631051e-01 -7.5915545873330892e-01 
-7.4935030932969915e-01 -7.3967180191188997e-01 -7.3011830078909656e-01 -7.2068819139688634e-01 
-7.1137988002433239e-01 -7.0219179354465300e-01 -6.9312237914936692e-01 -6.8417010408585799e-01 
-6.7533345539832812e-01 -6.6661093967212182e-01 -6.5800108278131653e-01 -6.4950242963960969e-01 
-6.4111354395438813e-01 -6.3283300798400954e-01 -6.2465942229818172e-01 -6.1659140554147451e-01 
-6.0862759419984869e-01 -6.0076664237023725e-01 -5.9300722153306717e-01 -5.8534802032775279e-01 
-5.7778774433105662e-01 -5.7032511583834511e-01 -5.6295887364763730e-01 -5.5568777284647242e-01 
-5.4851058460151148e-01 -5.4142609595085422e-01 -5.3443310959906121e-01 -5.2753044371479085e-01 
-5.2071693173108380e-01 -5.1399142214819415e-01 -5.0735277833899872e-01 -5.0079987835688955e-01 
-4.9433161474617637e-01 -4.8794689435491073e-01 -4.8164463815015357e-01 -4.7542378103560295e-01 
-4.6928327167160361e-01 -4.6322207229745477e-01 -4.5723915855603914e-01 -4.5133351932069121e-01 
-4.4550415652432757e-01 -4.3975008499075796e-01 -4.3407033226819958e-01 -4.2846393846492531e-01 
-4.2292995608703587e-01 -4.1746744987834095e-01 -4.1207549666228660e-01 -4.0675318518594938e-01 
-4.0149961596601896e-01 -3.9631390113679626e-01 -3.9119516430012974e-01 -3.8614254037731349e-01 
-3.8115517546287631e-01 -3.7623222668027989e-01 -3.7137286203946018e-01 -3.6657626029622981e-01 
-3.6184161081347527e-01 -3.5716811342416743e-01 -3.5255497829612165e-01 -3.4800142579852295e-01 
-3.4350668637016246e-01 -3.3907000038937646e-01 -3.3469061804567685e-01 -3.3036779921302184e-01 
-3.2610081332474228e-01 -3.2188893925006506e-01 -3.1773146517224887e-01 -3.1362768846827743e-01 
-3.0957691559012240e-01 -3.0557846194752403e-01 -3.0163165179230222e-01 -2.9773581810414473e-01 
-2.9389030247788789e-01 -2.9009445501223619e-01 -2.8634763419993547e-01 -2.8264920681934846e-01 
-2.7899854782744754e-01 -2.7539504025417183e-01 -2.7183807509816610e-01 -2.6832705122385386e-01 
-2.6486137525984155e-01 -2.6144046149864503e-01 -2.5806373179769443e-01 -2.5473061548163517e-01 
-2.5144054924587494e-01 -2.4819297706139090e-01 -2.4498735008075276e-01 -2.4182312654537266e-01 
-2.3869977169394030e-01 
</PP_LOCAL>


<PP_NONLOCAL>
  <PP_BETA>
  1  1      Beta    L
  1188  
 5.5312486256396086e-09  5.6769469584730821e-09  5.8264831234665106e-09  5.9799582127527919e-09 
 6.1374759813271291e-09  6.2991429171893639e-09  6.4650683133338774e-09  6.6353643416358117e-09 
 6.8101461286834412e-09  6.9895318336081718e-09  7.1736427279645178e-09  7.3626032777142964e-09 
 7.5565412273702786e-09  7.7555876863563533e-09  7.9598772176424046e-09  8.1695479287139995e-09 
 8.3847415649382249e-09  8.6056036053889134e-09  8.8322833611959966e-09  9.0649340764854647e-09 
 9.3037130319781304e-09  9.5487816513174033e-09  9.8003056101976529e-09  1.0058454948367321e-08 
 1.0323404184582155e-08  1.0595332434586422e-08  1.0874423532201939e-08  1.1160866153606641e-08 
 1.1454853944886794e-08  1.1756585652948963e-08  1.2066265259880483e-08  1.2384102120848966e-08 
 1.2710311105634251e-08  1.3045112743888486e-08  1.3388733374222406e-08  1.3741405297218740e-08 
 1.4103366932476145e-08  1.4474862979789744e-08  1.4856144584577420e-08  1.5247469507663464e-08 
 1.5649102299534593e-08  1.6061314479185975e-08  1.6484384717678199e-08  1.6918599026529349e-08 
 1.7364250951069484e-08  1.7821641768888259e-08  1.8291080693509798e-08  1.8772885083432578e-08 
 1.9267380656675622e-08  1.9774901710976091e-08  2.0295791349786863e-08  2.0830401714227334e-08 
 2.1379094221143924e-08  2.1942239807441319e-08  2.2520219180849498e-08  2.3113423077296444e-08 
 2.3722252525060080e-08  2.4347119115878171e-08  2.4988445283199710e-08  2.5646664587765592e-08 
 2.6322222010711615e-08  2.7015574254392232e-08  2.7727190051128287e-08  2.8457550480087205e-08 
 2.9207149292510542e-08  2.9976493245507674e-08  3.0766102444642559e-08  3.1576510695544097e-08 
 3.2408265864778350e-08  3.3261930250226550e-08  3.4138080961219133e-08  3.5037310308682514e-08 
 3.5960226205563420e-08  3.6907452577799819e-08  3.7879629786118020e-08  3.8877415058939717e-08 
 3.9901482936692347e-08  4.0952525727823092e-08  4.2031253976824619e-08  4.3138396944588630e-08 
 4.4274703101413156e-08  4.5440940632995137e-08  4.6637897959752314e-08  4.7866384269823209e-08 
 4.9127230066108289e-08  5.0421287727719245e-08  5.1749432086218002e-08  5.3112561017034775e-08 
 5.4511596046463492e-08  5.5947482974646977e-08  5.7421192514971246e-08  5.8933720950302979e-08 
 6.0486090806511446e-08  6.2079351543733238e-08  6.3714580265843789e-08  6.5392882448618418e-08 
 6.7115392687072557e-08  6.8883275462488010e-08  7.0697725929643803e-08  7.2559970724782210e-08 
 7.4471268794858337e-08  7.6432912248631823e-08  7.8446227230177858e-08  8.0512574815406766e-08 
 8.2633351932198059e-08  8.4809992304772619e-08  8.7043967422939639e-08  8.9336787536874585e-08 
 9.1690002678099402e-08  9.4105203707358210e-08  9.6584023390092571e-08  9.9128137500246733e-08 
 1.0173926595314814e-07  1.0441917396822746e-07  1.0716967326236765e-07  1.0999262327468451e-07 
 1.1288993242357037e-07  1.1586355939684805e-07  1.1891551447590991e-07  1.2204786089473361e-07 
 1.2526271623469687e-07  1.2856225385613241e-07  1.3194870436758993e-07  1.3542435713380040e-07 
 1.3899156182336139e-07  1.4265272999718825e-07  1.4641033673880720e-07  1.5026692232759048e-07 
 1.5422509395606640e-07  1.5828752749246461e-07  1.6245696928968564e-07  1.6673623804192319e-07 
 1.7112822669018830e-07  1.7563590437802648e-07  1.8026231845875153e-07  1.8501059655554832e-07 
 1.8988394867584145e-07  1.9488566938135698e-07  2.0001914001534537e-07  2.0528783098846961e-07 
 2.1069530412490500e-07  2.1624521507023738e-07  2.2194131576278524e-07  2.2778745697001960e-07 
 2.3378759089178929e-07  2.3994577383212527e-07  2.4626616894141112e-07  2.5275304903079169e-07 
 2.5941079946071022e-07  2.6624392110553100e-07  2.7325703339625290e-07  2.8045487744336702e-07 
 2.8784231924197292e-07  2.9542435296131886e-07  3.0320610432098819e-07  3.1119283405601644e-07 
 3.1938994147327940e-07  3.2780296810156002e-07  3.3643760143775657e-07  3.4529967879176632e-07 
 3.5439519123264678e-07  3.6373028763871628e-07  3.7331127885433943e-07  3.8314464195619710e-07 
 3.9323702463193502e-07  4.0359524967414475e-07  4.1422631959271635e-07  4.2513742134868029e-07 
 4.3633593121274044e-07  4.4782941975177987e-07  4.5962565694670862e-07  4.7173261744512192e-07 
 4.8415848595230530e-07  4.9691166276424438e-07  5.1000076944636807e-07  5.2343465466187405e-07 
 5.3722240015357074e-07  5.5137332688327234e-07  5.6589700133291548e-07  5.8080324197163638e-07 
 5.9610212589319241e-07  6.1180399562821300e-07  6.2791946613587874e-07  6.4445943197975892e-07 
 6.6143507469266161e-07  6.7885787033546627e-07  6.9673959725505316e-07  7.1509234404657147e-07 
 7.3392851772542970e-07  7.5326085211453318e-07  7.7310241645243136e-07  7.9346662422820058e-07 
 8.1436724224902849e-07  8.3581839994663507e-07  8.5783459892881303e-07  8.8043072278254687e-07 
 9.0362204713534131e-07  9.2742424998154812e-07  9.5185342228068773e-07  9.7692607883490287e-07 
 1.0026591694529311e-06  1.0290700904081036e-06  1.0561766961981497e-06  1.0839973116147261e-06 
 1.1125507441308505e-06  1.1418562966145930e-06  1.1719337803776311e-06  1.2028035285674897e-06 
 1.2344864099124956e-06  1.2670038428287648e-06  1.3003778098987318e-06  1.3346308727310221e-06 
 1.3697861872117091e-06  1.4058675191572447e-06  1.4428992603796692e-06  1.4809064451749329e-06 
 1.5199147672454951e-06  1.5599505970686138e-06  1.6010409997220759e-06  1.6432137531794168e-06 
 1.6864973670869885e-06  1.7309211020355548e-06  1.7765149893394606e-06  1.8233098513367223e-06 
 1.8713373222237463e-06  1.9206298694387945e-06  1.9712208156086119e-06  2.0231443610730439e-06 
 2.0764356070028869e-06  2.1311305791265864e-06  2.1872662520817901e-06  2.2448805744082495e-06 
 2.3040124941989211e-06  2.3647019854266161e-06  2.4269900749639997e-06  2.4909188703151617e-06 
 2.5565315880775237e-06  2.6238725831532898e-06  2.6929873787302166e-06  2.7639226970518926e-06 
 2.8367264909983889e-06  2.9114479764985494e-06  2.9881376657958615e-06  3.0668474015903666e-06 
 3.1476303920796870e-06  3.2305412469227807e-06  3.3156360141508274e-06  3.4029722180500640e-06 
 3.4926088980422480e-06  3.5846066485889657e-06  3.6790276601467089e-06  3.7759357612004857e-06 
 3.8753964614042524e-06  3.9774769958573516e-06  4.0822463705468537e-06  4.1897754089864756e-06 
 4.3001368000836312e-06  4.4134051472668485e-06  4.5296570189068163e-06  4.6489710000650586e-06 
 4.7714277456051855e-06  4.8971100347026391e-06  5.0261028267896413e-06  5.1584933189732505e-06 
 5.2943710049651008e-06  5.4338277355628795e-06  5.5769577807241419e-06  5.7238578932744505e-06 
 5.8746273742929159e-06  6.0293681402191633e-06  6.1881847917271506e-06  6.3511846844121758e-06 
 6.5184780013389755e-06  6.6901778274996792e-06  6.8664002262320910e-06  7.0472643176496619e-06 
 7.2328923591362577e-06  7.4234098279599078e-06  7.6189455060614333e-06  7.8196315670750093e-06 
 8.0256036656395013e-06  8.2370010290607995e-06  8.4539665513869282e-06  8.6766468899595539e-06 
 8.9051925645068666e-06  9.1397580588447733e-06  9.3805019252549971e-06  9.6275868916103914e-06 
 9.8811799713199572e-06  1.0141452576167440e-05  1.0408580632119720e-05  1.0682744698183182e-05 
 1.0964130088388048e-05  1.1252926996982980e-05  1.1549330626924499e-05  1.1853541321747574e-05 
 1.2165764700906429e-05  1.2486211798676962e-05  1.2815099206714050e-05  1.3152649220360005e-05 
 1.3499089988802797e-05  1.3854655669185303e-05  1.4219586584769072e-05  1.4594129387259639e-05 
 1.4978537223402348e-05  1.5373069905961113e-05  1.5777994089195226e-05  1.6193583448952460e-05 
 1.6620118867499465e-05  1.7057888623214335e-05  1.7507188585268814e-05  1.7968322413430970e-05 
 1.8441601763123532e-05  1.8927346495875002e-05  1.9425884895305927e-05  1.9937553888795183e-05 
 2.0462699274975748e-05  2.1001675957212548e-05  2.1554848183220023e-05  2.2122589790980129e-05 
 2.2705284461126031e-05  2.3303325975961742e-05  2.3917118485291441e-05  2.4547076779236886e-05 
 2.5193626568226977e-05  2.5857204770346814e-05  2.6538259806240119e-05  2.7237251901762294e-05 
 2.7954653398588077e-05  2.8690949072981779e-05  2.9446636462944630e-05  3.0222226203958427e-05 
 3.1018242373551175e-05  3.1835222844915449e-05  3.2673719649817138e-05  3.3534299351037917e-05 
 3.4417543424600708e-05  3.5324048652035420e-05  3.6254427522946436e-05  3.7209308648153397e-05 
 3.8189337183680109e-05  3.9195175265877407e-05  4.0227502457970148e-05  4.1287016208327696e-05 
 4.2374432320764628e-05  4.3490485437186425e-05  4.4635929532902881e-05  4.5811538424940150e-05 
 4.7018106293692540e-05  4.8256448218260752e-05  4.9527400725836257e-05  5.0831822355497082e-05 
 5.2170594236792690e-05  5.3544620683503910e-05  5.4954829802973367e-05  5.6402174121414105e-05 
 5.7887631225612168e-05  5.9412204421452279e-05  6.0976923409703811e-05  6.2582844979518570e-05 
 6.4231053720101395e-05  6.5922662751027313e-05  6.7658814471691596e-05  6.9440681330390313e-05 
 7.1269466613543402e-05  7.3146405255583574e-05  7.5072764670050602e-05  7.7049845602440947e-05 
 7.9078983005378937e-05  8.1161546936691105e-05  8.3298943480976831e-05  8.5492615695287736e-05 
 8.7744044579540707e-05  9.0054750072307463e-05  9.2426292072637247e-05  9.4860271488592508e-05 
 9.7358331313184012e-05  9.9922157728421114e-05  1.0255348123820198e-04  1.0525407783079229e-04 
 1.0802577017165804e-04  1.1087042882743804e-04  1.1378997352185928e-04  1.1678637442442433e-04 
 1.1986165347271498e-04  1.2301788572917995e-04  1.2625720077329833e-04  1.2958178413002863e-04 
 1.3299387873548198e-04  1.3649578644077501e-04  1.4008986955504812e-04  1.4377855242865551e-04 
 1.4756432307755940e-04  1.5144973484998987e-04  1.5543740813645220e-04  1.5953003212419676e-04 
 1.6373036659728978e-04  1.6804124378345605e-04  1.7246557024888707e-04  1.7700632884224700e-04 
 1.8166658068912914e-04  1.8644946723825464e-04  1.9135821236073561e-04  1.9639612450375010e-04 
 2.0156659890002086e-04  2.0687311983451603e-04  2.1231926296982692e-04  2.1790869773171258e-04 
 2.2364518975634325e-04  2.2953260340079858e-04  2.3557490431842923e-04  2.4177616210072357e-04 
 2.4814055298735371e-04  2.5467236264612760e-04  2.6137598902460863e-04  2.6825594527520410e-04 
 2.7531686275557722e-04  2.8256349410626491e-04  2.9000071640744834e-04  2.9763353441684932e-04 
 3.0546708389079174e-04  3.1350663499049407e-04  3.2175759577573001e-04  3.3022551578802212e-04 
 3.3891608972560469e-04  3.4783516121242476e-04  3.5698872666351563e-04  3.6638293924913051e-04 
 3.7602411296006099e-04  3.8591872677665602e-04  3.9607342894406938e-04  4.0649504135635822e-04 
 4.1719056405209687e-04  4.2816717982422406e-04  4.3943225894692409e-04  4.5099336402237806e-04 
 4.6285825495030449e-04  4.7503489402325559e-04  4.8753145115072071e-04  5.0035630921512982e-04 
 5.1351806956293497e-04  5.2702555763400308e-04  5.4088782873263784e-04  5.5511417394359108e-04 
 5.6971412619652830e-04  5.8469746648244980e-04  6.0007423022566246e-04  6.1585471381497522e-04 
 6.3204948129783381e-04  6.4866937124121848e-04  6.6572550376318540e-04  6.8322928773900942e-04 
 7.0119242818596423e-04  7.1962693383085922e-04  7.3854512486451094e-04  7.5795964088741508e-04 
 7.7788344905098535e-04  7.9832985239874726e-04  8.1931249841201228e-04  8.4084538776459745e-04 
 8.6294288329124929e-04  8.8561971917450622e-04  9.0889101035481260e-04  9.3277226216875785e-04 
 9.5727938022041853e-04  9.8242868049084535e-04  1.0082368996907919e-03  1.0347212058618854e-03 
 1.0618992092314963e-03  1.0897889733266332e-03  1.1184090263522736e-03  1.1477783728395829e-03 
 1.1779165055695621e-03  1.2088434177777150e-03  1.2405796156454026e-03  1.2731461310835710e-03 
 1.3065645348146401e-03  1.3408569497583643e-03  1.3760460647275121e-03  1.4121551484392945e-03 
 1.4492080638484526e-03  1.4872292828080065e-03  1.5262439010636296e-03  1.5662776535877057e-03 
 1.6073569302590654e-03  1.6495087918944652e-03  1.6927609866378220e-03  1.7371419667132513e-03 
 1.7826809055479116e-03  1.8294077152706178e-03  1.8773530645921934e-03  1.9265483970733980e-03 
 1.9770259497863545e-03  2.0288187723751035e-03  2.0819607465210601e-03  2.1364866058188547e-03 
 2.1924319560680684e-03  2.2498332959860912e-03  2.3087280383473408e-03  2.3691545315537459e-03 
 2.4311520816413211e-03  2.4947609747274246e-03  2.5600224999029692e-03  2.6269789725737172e-03 
 2.6956737582544284e-03  2.7661512968193132e-03  2.8384571272119254e-03  2.9126379126172600e-03 
 2.9887414660983579e-03  3.0668167766993108e-03  3.1469140360161634e-03  3.2290846652364555e-03 
 3.3133813426478509e-03  3.3998580316155270e-03  3.4885700090273959e-03  3.5795738942055112e-03 
 3.6729276782812782e-03  3.7686907540312627e-03  3.8669239461695173e-03  3.9676895420914212e-03 
 4.0710513230630451e-03  4.1770745958489277e-03  4.2858262247701144e-03  4.3973746641830123e-03 
 4.5117899913683160e-03  4.6291439398179523e-03  4.7495099329064438e-03  4.8729631179315553e-03 
 4.9995804005074675e-03  5.1294404792918075e-03  5.2626238810261749e-03  5.3992129958677082e-03 
 5.5392921129870662e-03  5.6829474564060100e-03  5.8302672210455066e-03  5.9813416089524304e-03 
 6.1362628656706055e-03  6.2951253167189943e-03  6.4580254041366018e-03  6.6250617230509618e-03 
 6.7963350582231985e-03  6.9719484205196967e-03  7.1520070832559882e-03  7.3366186183552807e-03 
 7.5258929322591676e-03  7.7199423015241551e-03  7.9188814080329781e-03  8.1228273737443835e-03 
 8.3318997949004044e-03  8.5462207756045027e-03  8.7659149606783369e-03  8.9911095676984808e-03 
 9.2219344181092167e-03  9.4585219672995765e-03  9.7010073335261366e-03  9.9495283255572175e-03 
 1.0204225468903731e-02  1.0465242030496473e-02  1.0732724041659232e-02  1.1006820319220180e-02 
 1.1287682484591445e-02  1.1575464980641817e-02  1.1870325086171663e-02  1.2172422927793532e-02 
 1.2481921489007361e-02  1.2798986616248514e-02  1.3123787021675248e-02  1.3456494282448026e-02 
 1.3797282836240897e-02  1.4146329972710871e-02  1.4503815820635523e-02  1.4869923330416311e-02 
 1.5244838251625698e-02  1.5628749105263143e-02  1.6021847150365993e-02  1.6424326344602586e-02 
 1.6836383298458425e-02  1.7258217222605642e-02  1.7690029868025130e-02  1.8132025458431584e-02 
 1.8584410614529253e-02  1.9047394269602648e-02  1.9521187575925199e-02  2.0006003801443947e-02 
 2.0502058216172892e-02  2.1009567967703018e-02  2.1528751945209843e-02  2.2059830631313039e-02 
 2.2603025941113217e-02  2.3158561047703131e-02  2.3726660193421342e-02  2.4307548486084490e-02 
 2.4901451679405207e-02  2.5508595936768692e-02  2.6129207577511342e-02  2.6763512804808581e-02 
 2.7411737414248839e-02  2.8074106482132891e-02  2.8750844032507192e-02  2.9442172681901285e-02 
 3.0148313260707271e-02  3.0869484410101851e-02  3.1605902153377684e-02  3.2357779440515343e-02 
 3.3125325664791011e-02  3.3908746150183099e-02  3.4708241608304428e-02  3.5524007563555539e-02 
 3.6356233745161649e-02  3.7205103444726072e-02  3.8070792837901858e-02  3.8953470268759109e-02 
 3.9853295495397470e-02  4.0770418895332221e-02  4.1704980629163640e-02  4.2657109761020336e-02 
 4.3626923334258487e-02  4.4614525400888061e-02  4.5620006003194977e-02  4.6643440106031338e-02 
 4.7684886478252919e-02  4.8744386521798959e-02  4.9821963046933232e-02  5.0917618992194186e-02 
 5.2031336087643980e-02  5.3163073460057435e-02  5.4312766178750901e-02  5.5480323740827189e-02 
 5.6665628494699097e-02  5.7868534000853601e-02  5.9088863328940519e-02  6.0326407290397004e-02 
 6.1580922605979423e-02  6.2852130007741369e-02  6.4139712275192995e-02  6.5443312205595947e-02 
 6.6762530518588686e-02  6.8096923695608796e-02  6.9446001754876377e-02  7.0809225963033531e-02 
 7.2186006484898396e-02  7.3575699973187733e-02  7.4977607100502788e-02  7.6390970036344527e-02 
 7.7814969872448542e-02  7.9248724000287971e-02  8.0691283445211356e-02  8.2141630162337720e-02 
 8.3598674300052758e-02  8.5061251437717519e-02  8.6528119805032805e-02  8.7997957491393677e-02 
 8.9469359654523864e-02  9.0940835738701889e-02  9.2410806713985300e-02  9.3877602348998140e-02 
 9.5339458531090174e-02  9.6794514648983809e-02  9.8240811054426641e-02  9.9676286620825630e-02 
 1.0109877641840552e-01  1.0250600952705685e-01  1.0389560700976196e-01  1.0526508007128166e-01 
 1.0661182842866213e-01  1.0793313892208019e-01  1.0922618439657464e-01  1.1048802288731908e-01 
 1.1171559714325681e-01  1.1290573452615967e-01  1.1405514732444905e-01  1.1516043352345626e-01 
 1.1621807807615459e-01  1.1722445472078628e-01  1.1817582839418875e-01  1.1906835829200402e-01 
 1.1989810162929557e-01  1.2066101815738051e-01  1.2135297549488855e-01  1.2196975533314390e-01 
 1.2250706057791183e-01  1.2296052349130088e-01  1.2332571489914292e-01  1.2359815453042426e-01 
 1.2377332255626336e-01  1.2384667239647171e-01  1.2381364486182242e-01  1.2366968369972162e-01 
 1.2341025260994906e-01  1.2303085379543616e-01  1.2252704811056632e-01  1.2189447686614927e-01 
 1.2112888534589852e-01  1.2022614808384852e-01  1.1918229594553159e-01  1.1799354504779752e-01 
 1.1665632754273715e-01  1.1516732428013700e-01  1.1352349935009061e-01  1.1172213649265716e-01 
 1.0976087734464236e-01  1.0763776147449106e-01  1.0535126813477524e-01  1.0290035963764292e-01 
 1.0028452623170582e-01  9.7503832329006029e-02  9.4558963897757559e-02  9.1451276800354461e-02 
 8.8182845816522026e-02  8.4756514048373380e-02  8.1175942357375186e-02  7.7445658432824624e-02 
 7.3571105037301993e-02  6.9558686916791040e-02  6.5415815801762228e-02  6.1150952860704676e-02 
 5.6773647899569520e-02  5.2294574529701716e-02  4.7725560453516364e-02  4.3079611941991558e-02 
 3.8370931501708082e-02  3.3614927652550190e-02  2.8828215661318893e-02  2.4028608002674166e-02 
 1.9235093248483184e-02  1.4467802021504564e-02  9.7479585913917526e-03  5.0978166424607251e-03 
 5.4057770612877273e-04  -3.8997092707818322e-03  -8.1982687544053454e-03  -1.2329741363587370e-02 
 -1.6268349992709041e-02  -1.9988090716771396e-02  -2.3462949771689407e-02  -2.6667147758090353e-02 
 -2.9575412029055472e-02  -3.2163277986241794e-02  -3.4407419719706858e-02  -3.6286010079665414e-02 
 -3.7779109858630637e-02  -3.8869085285628463e-02  -3.9541052486670877e-02  -3.9783346944410838e-02 
 -3.9588015292874597e-02  -3.8951326009612722e-02  -3.7874294718326484e-02  -3.6363218892589567e-02 
 -3.4430215760509142e-02  -3.2093756158261724e-02  -2.9379185977435687e-02  -2.6319225710171177e-02 
 -2.2954437433718021e-02  -1.9333647412428358e-02  -1.5514311354438981e-02  -1.1562808270444374e-02 
 -7.5546478752974476e-03  -3.5745755860861869e-03  2.8344155660569914e-04  3.9163652397716303e-03 
 7.2123899660296517e-03  1.0051418307395003e-02  1.2305724357451036e-02  1.3840840021440419e-02 
 1.4516570489509712e-02  1.4188418462955637e-02  1.2709079211832548e-02  9.9302703770701734e-03 
 5.7047979438660280e-03  -1.1112953376795654e-04  -7.6553020432394711e-03  -1.7056738083136385e-02 
 -2.8432656544357629e-02  -4.1885273758201148e-02  -5.7498451919371023e-02  -7.5334246941614280e-02 
 -9.5429414642369551e-02  -1.1779194586137870e-01  -1.4239771424453931e-01  -1.6918733275898495e-01 
 -1.9806332844199603e-01  -2.2888775741483622e-01  -2.6148039340354945e-01  -2.9561763334020430e-01 
 -3.3103227041713779e-01  -3.6741428798483727e-01  -4.0441282663305395e-01  -4.4163946750312039e-01 
 -4.7867295980566260e-01  -5.1506549381139388e-01  -5.5035058491755884e-01  -5.8405258560938633e-01 
 -6.1569778125390018e-01  -6.4482695202989904e-01  -6.7100919707926621e-01  -6.9385672208161553e-01 
 -7.1304018665700919e-01  -7.2830410323314310e-01  -7.3948167371583784e-01  -7.4650835689972483e-01 
 -7.4943338051505914e-01  -7.4842836081290742e-01  -7.4379217342765358e-01  -7.3595124345956808e-01 
 -7.2545449655727678e-01  -7.1296234056336683e-01  -6.9922923459130948e-01  -6.8507964792344578e-01 
 -6.7137751324814599e-01  -6.5898963191387983e-01  -6.4874388322271681e-01  -6.4138351351814860e-01 
 -6.3751921653453936e-01  -6.3758114575242431e-01  -6.4177339600326144e-01  -6.5003382906512719e-01 
 -6.6200236186324635e-01  -6.7700094898991181e-01  -6.9402843345441534e-01  -7.1177316721173556e-01 
 -7.2864577650000384e-01  -7.4283363298372285e-01  -7.5237747003087141e-01  -7.5526915875378331e-01 
 -7.4956796297493422e-01  -7.3353070003013976e-01  -7.0574926064944299e-01  -6.6528704609798450e-01 
 -6.1180426201730986e-01  -5.4566088624370257e-01  -4.6798572682188222e-01  -3.8070050578131936e-01 
 -2.8648949249568928e-01  -1.8870793574190539e-01  -9.1226378023892829e-02  1.7872595335562823e-03 
 8.6140401031996341e-02  1.5793000821168529e-01  2.1387901197770690e-01  2.5167037352485155e-01 
 2.7024982031555550e-01  2.7006555392494030e-01  2.5321266583243779e-01  2.2345222124726560e-01 
 1.8608054073924465e-01  1.4763356364732652e-01  1.1542449627176382e-01  9.6929974595689569e-02 
 9.9059810274464921e-02  1.2736634381171327e-01  1.8526895093081683e-01  2.7338407304467055e-01 
 3.8905767873319314e-01  5.2619201939617521e-01  6.7543970751575066e-01  8.2480514172155961e-01 
 9.6064805385154273e-01  1.0690309809939693e+00  1.1372960931022107e+00  1.1557230528151579e+00 
 1.1189327424237923e+00  1.0281586324675518e+00  8.8108617088413999e-01  6.6033482731847259e-01 
 4.3815853753882528e-01  2.4313388838702396e-01  9.1665413781211694e-02  6.1151652339081312e-03 
 -6.8708413711980317e-04  -9.9378451695557415e-06  -7.3847883809311204e-05  -6.4418133769516100e-05 
 -6.2331842616535042e-05  -5.9596622805726720e-05  -5.7004803769627317e-05  -5.4478085256492081e-05 
 -5.2024112812798561e-05  -4.9641737168998337e-05  -4.7330430702482261e-05  -4.5089375302986735e-05 
 -4.2917584499948702e-05  -4.0813914714746883e-05  -3.8777098524200197e-05  -3.6805758071168153e-05 
 -3.4898445004958742e-05  -3.3053654728806920e-05  -3.1269859943661929e-05  -2.9545531310286537e-05 
 -2.7879173251532914e-05  -2.6269339451612485e-05  -2.4714658553952748e-05  -2.3213865259755243e-05 
 -2.1765805510401100e-05  -2.0369458849414320e-05  -1.9023949655108858e-05  -1.7728517888867049e-05 
 -1.6482781718329844e-05  -1.5284195393528344e-05  -1.4152779169093559e-05  -1.2888207172970015e-05 
 -1.1994471091211429e-05  -1.0981982066982202e-05  -1.0034142313994518e-05  -9.1322565066699236e-06 
 -8.2757142343536481e-06  -7.4679976265204763e-06  -6.7043422936420411e-06  -5.9840331653862112e-06 
 -5.3104621631894036e-06  -4.6777395902716434e-06  -4.0857437681434468e-06  -3.5357593595635862e-06 
 -3.0233942832614654e-06  6.4888196513963990e-07  7.1383981336572199e-07  7.6331955111230380e-07 
 7.9979971763513959e-07  8.2485211328987582e-07  0.0000000000000000e+00  0.0000000000000000e+00 
 0.0000000000000000e+00  0.0000000000000000e+00  0.0000000000000000e+00  0.0000000000000000e+00 
 0.0000000000000000e+00  0.0000000000000000e+00  0.0000000000000000e+00  0.0000000000000000e+00 
 0.0000000000000000e+00  0.0000000000000000e+00  0.0000000000000000e+00  0.0000000000000000e+00 
 0.0000000000000000e+00  0.0000000000000000e+00  0.0000000000000000e+00  0.0000000000000000e+00 
 0.0000000000000000e+00  0.0000000000000000e+00  0.0000000000000000e+00  0.0000000000000000e+00 
 0.0000000000000000e+00  0.0000000000000000e+00  0.0000000000000000e+00  0.0000000000000000e+00 
 0.0000000000000000e+00  0.0000000000000000e+00  0.0000000000000000e+00  0.0000000000000000e+00 
 0.0000000000000000e+00  0.0000000000000000e+00  0.0000000000000000e+00  0.0000000000000000e+00 
 0.0000000000000000e+00  0.0000000000000000e+00  0.0000000000000000e+00  0.0000000000000000e+00 
 0.0000000000000000e+00  0.0000000000000000e+00  0.0000000000000000e+00  0.0000000000000000e+00 
 0.0000000000000000e+00  0.0000000000000000e+00  0.0000000000000000e+00  0.0000000000000000e+00 
 0.0000000000000000e+00  0.0000000000000000e+00  0.0000000000000000e+00  0.0000000000000000e+00 
 0.0000000000000000e+00  0.0000000000000000e+00  0.0000000000000000e+00  0.0000000000000000e+00 
 0.0000000000000000e+00  0.0000000000000000e+00  0.0000000000000000e+00  0.0000000000000000e+00 
 0.0000000000000000e+00  0.0000000000000000e+00  0.0000000000000000e+00  0.0000000000000000e+00 
 0.0000000000000000e+00  0.0000000000000000e+00  0.0000000000000000e+00  0.0000000000000000e+00 
 0.0000000000000000e+00  0.0000000000000000e+00  0.0000000000000000e+00  0.0000000000000000e+00 
 0.0000000000000000e+00  0.0000000000000000e+00  0.0000000000000000e+00  0.0000000000000000e+00 
 0.0000000000000000e+00  0.0000000000000000e+00  0.0000000000000000e+00  0.0000000000000000e+00 
 0.0000000000000000e+00  0.0000000000000000e+00  0.0000000000000000e+00  0.0000000000000000e+00 
 0.0000000000000000e+00  0.0000000000000000e+00  0.0000000000000000e+00  0.0000000000000000e+00 
 0.0000000000000000e+00  0.0000000000000000e+00  0.0000000000000000e+00  0.0000000000000000e+00 
 0.0000000000000000e+00  0.0000000000000000e+00  0.0000000000000000e+00  0.0000000000000000e+00 
 0.0000000000000000e+00  0.0000000000000000e+00  0.0000000000000000e+00  0.0000000000000000e+00 
 0.0000000000000000e+00  0.0000000000000000e+00  0.0000000000000000e+00  0.0000000000000000e+00 
 0.0000000000000000e+00  0.0000000000000000e+00  0.0000000000000000e+00  0.0000000000000000e+00 
 0.0000000000000000e+00  0.0000000000000000e+00  0.0000000000000000e+00  0.0000000000000000e+00 
 0.0000000000000000e+00  0.0000000000000000e+00  0.0000000000000000e+00  0.0000000000000000e+00 
 0.0000000000000000e+00  0.0000000000000000e+00  0.0000000000000000e+00  0.0000000000000000e+00 
 0.0000000000000000e+00  0.0000000000000000e+00  0.0000000000000000e+00  0.0000000000000000e+00 
 0.0000000000000000e+00  0.0000000000000000e+00  0.0000000000000000e+00  0.0000000000000000e+00 
 0.0000000000000000e+00  0.0000000000000000e+00  0.0000000000000000e+00  0.0000000000000000e+00 
 0.0000000000000000e+00  0.0000000000000000e+00  0.0000000000000000e+00  0.0000000000000000e+00 
 0.0000000000000000e+00  0.0000000000000000e+00  0.0000000000000000e+00  0.0000000000000000e+00 
 0.0000000000000000e+00  0.0000000000000000e+00  0.0000000000000000e+00  0.0000000000000000e+00 
 0.0000000000000000e+00  0.0000000000000000e+00  0.0000000000000000e+00  0.0000000000000000e+00 
 0.0000000000000000e+00  0.0000000000000000e+00  0.0000000000000000e+00  0.0000000000000000e+00 
 0.0000000000000000e+00  0.0000000000000000e+00  0.0000000000000000e+00  0.0000000000000000e+00 
 0.0000000000000000e+00  0.0000000000000000e+00  0.0000000000000000e+00  0.0000000000000000e+00 
 0.0000000000000000e+00  0.0000000000000000e+00  0.0000000000000000e+00  0.0000000000000000e+00 
 0.0000000000000000e+00  0.0000000000000000e+00  0.0000000000000000e+00  0.0000000000000000e+00 
 0.0000000000000000e+00  0.0000000000000000e+00  0.0000000000000000e+00  0.0000000000000000e+00 
 0.0000000000000000e+00  0.0000000000000000e+00  0.0000000000000000e+00  0.0000000000000000e+00 
 0.0000000000000000e+00  0.0000000000000000e+00  0.0000000000000000e+00  0.0000000000000000e+00 
 0.0000000000000000e+00  0.0000000000000000e+00  0.0000000000000000e+00  0.0000000000000000e+00 
 0.0000000000000000e+00  0.0000000000000000e+00  0.0000000000000000e+00  0.0000000000000000e+00 
 0.0000000000000000e+00  0.0000000000000000e+00  0.0000000000000000e+00  0.0000000000000000e+00 
 0.0000000000000000e+00  0.0000000000000000e+00  0.0000000000000000e+00  0.0000000000000000e+00 
 0.0000000000000000e+00  0.0000000000000000e+00  0.0000000000000000e+00  0.0000000000000000e+00 
 0.0000000000000000e+00  0.0000000000000000e+00  0.0000000000000000e+00  0.0000000000000000e+00 
 0.0000000000000000e+00  0.0000000000000000e+00  0.0000000000000000e+00  0.0000000000000000e+00 
 0.0000000000000000e+00  0.0000000000000000e+00  0.0000000000000000e+00  0.0000000000000000e+00 
 0.0000000000000000e+00  0.0000000000000000e+00  0.0000000000000000e+00  0.0000000000000000e+00 
 0.0000000000000000e+00  0.0000000000000000e+00  0.0000000000000000e+00  0.0000000000000000e+00 
 0.0000000000000000e+00  0.0000000000000000e+00  0.0000000000000000e+00  0.0000000000000000e+00 
 0.0000000000000000e+00  0.0000000000000000e+00  0.0000000000000000e+00  0.0000000000000000e+00 
 0.0000000000000000e+00  0.0000000000000000e+00  0.0000000000000000e+00  0.0000000000000000e+00 
 0.0000000000000000e+00  0.0000000000000000e+00  0.0000000000000000e+00  0.0000000000000000e+00 
 0.0000000000000000e+00  0.0000000000000000e+00  0.0000000000000000e+00  0.0000000000000000e+00 
 0.0000000000000000e+00  0.0000000000000000e+00  0.0000000000000000e+00  0.0000000000000000e+00 
 0.0000000000000000e+00  0.0000000000000000e+00  0.0000000000000000e+00  0.0000000000000000e+00 
 0.0000000000000000e+00  0.0000000000000000e+00  0.0000000000000000e+00  0.0000000000000000e+00 
 0.0000000000000000e+00  0.0000000000000000e+00  0.0000000000000000e+00  0.0000000000000000e+00 
 0.0000000000000000e+00  0.0000000000000000e+00  0.0000000000000000e+00  0.0000000000000000e+00 
 0.0000000000000000e+00  0.0000000000000000e+00  0.0000000000000000e+00  0.0000000000000000e+00 
 0.0000000000000000e+00  0.0000000000000000e+00  0.0000000000000000e+00  0.0000000000000000e+00 
 0.0000000000000000e+00  0.0000000000000000e+00  0.0000000000000000e+00  0.0000000000000000e+00 
 0.0000000000000000e+00 
  </PP_BETA>
  <PP_BETA>
  2  1      Beta    L
  1188  
 7.8745148240546523e-09  8.0819370092656675e-09  8.2948228913548465e-09  8.5133163892686929e-09 
 8.7375652129146094e-09  8.9677209630184357e-09  9.2039392336122606e-09  9.4463797172218169e-09 
 9.6952063128246509e-09  9.9505872366521016e-09  1.0212695135909693e-08  1.0481707205493259e-08 
 1.0757805307779300e-08  1.1041176095570811e-08  1.1332011138281683e-08  1.1630507051444735e-08 
 1.1936865629631292e-08  1.2251293982871843e-08  1.2574004676670303e-08  1.2905215875706192e-08 
 1.3245151491322224e-08  1.3594041332896798e-08  1.3952121263203696e-08  1.4319633357864272e-08 
 1.4696826068999607e-08  1.5083954393193475e-08  1.5481280043879594e-08  1.5889071628269748e-08 
 1.6307604828942328e-08  1.6737162590214025e-08  1.7178035309420862e-08  1.7630521033237633e-08 
 1.8094925659168630e-08  1.8571563142345752e-08  1.9060755707773983e-08  1.9562834068167410e-08 
 2.0078137647523558e-08  2.0607014810586465e-08  2.1149823098354475e-08  2.1706929469791059e-08 
 2.2278710549902939e-08  2.2865552884352521e-08  2.3467853200777181e-08  2.4086018676991868e-08 
 2.4720467216256504e-08  2.5371627729794122e-08  2.6039940426750671e-08  2.6725857111792832e-08 
 2.7429841490544745e-08  2.8152369483070157e-08  2.8893929545611903e-08  2.9655023000806611e-08 
 3.0436164376597163e-08  3.1237881754072712e-08  3.2060717124470781e-08  3.2905226755583692e-08 
 3.3771981567815773e-08  3.4661567520146635e-08  3.5574586006261082e-08  3.6511654261113376e-08 
 3.7473405778200490e-08  3.8460490737827285e-08  3.9473576446651965e-08  4.0513347788809777e-08 
 4.1580507688920052e-08  4.2675777587288470e-08  4.3799897927627469e-08  4.4953628657622888e-08 
 4.6137749742686166e-08  4.7353061693239825e-08  4.8600386105891105e-08  4.9880566218861067e-08 
 5.1194467482044546e-08  5.2542978142085087e-08  5.3927009842862213e-08  5.5347498241795328e-08 
 5.6805403642381659e-08  5.8301711643396445e-08  5.9837433805192541e-08  6.1413608333551891e-08 
 6.3031300781549419e-08  6.4691604769905225e-08  6.6395642726311303e-08  6.8144566644232156e-08 
 6.9939558861693792e-08  7.1781832860586083e-08  7.3672634087018735e-08  7.5613240793288112e-08 
 7.7604964902019918e-08  7.9649152893075444e-08  8.1747186713818683e-08  8.3900484713362108e-08 
 8.6110502601419190e-08  8.8378734432415708e-08  9.0706713615521833e-08  9.3096013951290589e-08 
 9.5548250695600963e-08  9.8065081651626577e-08  1.0064820829056816e-07  1.0329937690190598e-07 
 1.0602037977395165e-07  1.0881305640549568e-07  1.1167929474937161e-07  1.1462103248877634e-07 
 1.1764025834720867e-07  1.2073901343291407e-07  1.2391939261874198e-07  1.2718354595835015e-07 
 1.3053368013971208e-07  1.3397205997691222e-07  1.3750100994123417e-07  1.4112291573258026e-07 
 1.4484022589228331e-07  1.4865545345839973e-07  1.5257117766460564e-07  1.5659004568384202e-07 
 1.6071477441788894e-07  1.6494815233407779e-07  1.6929304135038542e-07  1.7375237877018019e-07 
 1.7832917926793224e-07  1.8302653692722883e-07  1.8784762733247028e-07  1.9279570971566367e-07 
 1.9787412915976636e-07  2.0308631886006130e-07  2.0843580244510419e-07  2.1392619635880239e-07 
 2.1956121230523877e-07  2.2534465975789654e-07  2.3128044853497402e-07  2.3737259144253836e-07 
 2.4362520698729890e-07  2.5004252216083633e-07  2.5662887529717228e-07  2.6338871900560465e-07 
 2.7032662318079769e-07  2.7744727809215953e-07  2.8475549755459227e-07  2.9225622218276547e-07 
 2.9995452273110275e-07  3.0785560352175005e-07  3.1596480596283452e-07  3.2428761215939823e-07 
 3.3282964861943937e-07  3.4159669005758119e-07  3.5059466329892110e-07  3.5982965128571275e-07 
 3.6930789718958721e-07  3.7903580863208587e-07  3.8901996201636647e-07  3.9926710697300537e-07 
 4.0978417092290518e-07  4.2057826376038865e-07  4.3165668265964488e-07  4.4302691700778127e-07 
 4.5469665346780528e-07  4.6667378117497587e-07  4.7896639707002004e-07  4.9158281137282419e-07 
 5.0453155320031154e-07  5.1782137633228433e-07  5.3146126512914553e-07  5.4546044060548845e-07 
 5.5982836666366398e-07  5.7457475649154464e-07  5.8970957912879524e-07  6.0524306620610672e-07 
 6.2118571886193464e-07  6.3754831484142576e-07  6.5434191578232295e-07  6.7157787469278883e-07 
 6.8926784362617815e-07  7.0742378155797763e-07  7.2605796247020207e-07  7.4518298364874738e-07 
 7.6481177419928166e-07  7.8495760378744095e-07  8.0563409160924164e-07  8.2685521559775881e-07 
 8.4863532187231437e-07  8.7098913443654053e-07  8.9393176513188934e-07  9.1747872385330333e-07 
 9.4164592903396292e-07  9.6644971840619434e-07  9.9190686004580509e-07  1.0180345637073229e-06 
 1.0448504924577770e-06  1.0723727746169271e-06  1.1006200160119623e-06  1.1296113125549814e-06 
 1.1593662631517527e-06  1.1899049829504604e-06  1.2212481169394283e-06  1.2534168539029579e-06 
 1.2864329407447736e-06  1.3203186971886934e-06  1.3550970308665246e-06  1.3907914528033224e-06 
 1.4274260933105123e-06  1.4650257182976144e-06  1.5036157460135822e-06  1.5432222642290686e-06 
 1.5838720478712519e-06  1.6255925771231124e-06  1.6684120559994070e-06  1.7123594314119022e-06 
 1.7574644127367240e-06  1.8037574918970787e-06  1.8512699639748874e-06  1.9000339483652799e-06 
 1.9500824104882553e-06  2.0014491840721436e-06  2.0541689940239559e-06  2.1082774799020748e-06 
 2.1638112200071396e-06  2.2208077561074086e-06  2.2793056188152859e-06  2.3393443536322115e-06 
 2.4009645476794418e-06  2.4642078571328547e-06  2.5291170353802557e-06  2.5957359619202521e-06 
 2.6641096720221821e-06  2.7342843871671963e-06  2.8063075462909988e-06  2.8802278378493797e-06 
 2.9560952327282116e-06  3.0339610180201496e-06  3.1138778316908169e-06  3.1958996981579358e-06 
 3.2800820648074324e-06  3.3664818394711457e-06  3.4551574288915375e-06  3.5461687781992976e-06 
 3.6395774114305754e-06  3.7354464731111766e-06  3.8338407709358434e-06  3.9348268195713957e-06 
 4.0384728856133977e-06  4.1448490337266281e-06  4.2540271740005810e-06  4.3660811105519782e-06 
 4.4810865914070844e-06  4.5991213596975281e-06  4.7202652062042448e-06  4.8446000232849444e-06 
 4.9722098602216255e-06  5.1031809800254429e-06  5.2376019177372479e-06  5.3755635402633071e-06 
 5.5171591077864992e-06  5.6624843367944393e-06  5.8116374647672110e-06  5.9647193165681914e-06 
 6.1218333725830203e-06  6.2830858386525369e-06  6.4485857178469323e-06  6.6184448841296975e-06 
 6.7927781579608817e-06  6.9717033838909353e-06  7.1553415101972722e-06  7.3438166706175501e-06 
 7.5372562682345688e-06  7.7357910615697019e-06  7.9395552529427011e-06  8.1486865791576550e-06 
 8.3633264045762625e-06  8.5836198166412278e-06  8.8097157239142544e-06  9.0417669566947072e-06 
 9.2799303702869982e-06  9.5243669509861196e-06  9.7752419248531808e-06  1.0032724869353884e-05 
 1.0296989827935685e-05  1.0568215427620568e-05  1.0846584999693062e-05  1.1132286703564623e-05 
 1.1425513653898056e-05  1.1726464051077739e-05  1.2035341315113528e-05  1.2352354223068713e-05 
 1.2677717050104603e-05  1.3011649714236941e-05  1.3354377924901629e-05  1.3706133335429883e-05 
 1.4067153699535852e-05  1.4437683031921830e-05  1.4817971773109400e-05  1.5208276958607738e-05 
 1.5608862392533054e-05  1.6019998825795673e-05  1.6441964138975702e-05  1.6875043530009502e-05 
 1.7319529706813980e-05  1.7775723084978482e-05  1.8243931990656943e-05  1.8724472868797354e-05 
 1.9217670496848519e-05  1.9723858204088117e-05  2.0243378096719626e-05  2.0776581288889628e-05 
 2.1323828139780939e-05  2.1885488496941101e-05  2.2461941946010229e-05  2.3053578067015758e-05 
 2.3660796697406750e-05  2.4284008202004739e-05  2.4923633750052594e-05  2.5580105599547291e-05 
 2.6253867389048795e-05  2.6945374437159769e-05  2.7655094049878625e-05  2.8383505836031847e-05 
 2.9131102030997538e-05  2.9898387828937917e-05  3.0685881723763631e-05  3.1494115859059326e-05 
 3.2323636387204227e-05  3.3175003837930909e-05  3.4048793496567427e-05  3.4945595792218077e-05 
 3.5866016696142344e-05  3.6810678130600137e-05  3.7780218388436710e-05  3.8775292563688960e-05 
 3.9796572993501967e-05  4.0844749711651244e-05  4.1920530913975528e-05  4.3024643436031310e-05 
 4.4157833243289021e-05  4.5320865934198959e-05  4.6514527256464823e-05  4.7739623636868375e-05 
 4.8996982725001720e-05  5.0287453951269459e-05  5.1611909099534595e-05  5.2971242894790678e-05 
 5.4366373606253262e-05  5.5798243666272736e-05  5.7267820305483126e-05  5.8776096204609811e-05 
 6.0324090163371873e-05  6.1912847786925175e-05  6.3543442190303469e-05  6.5216974721328262e-05 
 6.6934575702468682e-05  6.8697405192145092e-05  7.0506653765984239e-05  7.2363543318545792e-05 
 7.4269327886053449e-05  7.6225294490678448e-05  7.8232764006935671e-05  8.0293092050770244e-05 
 8.2407669891922043e-05  8.4577925390177464e-05  8.6805323956126769e-05  8.9091369537065910e-05 
 9.1437605628696240e-05  9.3845616313291573e-05  9.6317027325021768e-05  9.8853507143135928e-05 
 1.0145676811373088e-04  1.0412856760084285e-04  1.0687070916762789e-04  1.0968504378840684e-04 
 1.1257347109237569e-04  1.1553794063980317e-04  1.1858045323155505e-04  1.2170306225280771e-04 
 1.2490787505183595e-04  1.2819705435478213e-04  1.3157281971733339e-04  1.3503744901426667e-04 
 1.3859327996783064e-04  1.4224271171597378e-04  1.4598820642144076e-04  1.4983229092279453e-04 
 1.5377755842843968e-04  1.5782667025475864e-04  1.6198235760948954e-04  1.6624742342151411e-04 
 1.7062474421824513e-04  1.7511727205183562e-04  1.7972803647546177e-04  1.8446014657096457e-04 
 1.8931679302916407e-04  1.9430125028419630e-04  1.9941687870325293e-04  2.0466712683313895e-04 
 2.1005553370510085e-04  2.1558573119941278e-04  2.2126144647123923e-04  2.2708650443934022e-04 
 2.3306483033921265e-04  2.3920045234231111e-04  2.4549750424302159e-04  2.5196022821510807e-04 
 2.5859297763939477e-04  2.6540022000448035e-04  2.7238653988234451e-04  2.7955664198071932e-04 
 2.8691535427417933e-04  2.9446763121592347e-04  3.0221855703228308e-04  3.1017334910203245e-04 
 3.1833736142263837e-04  3.2671608816561604e-04  3.3531516732322622e-04  3.4414038444880693e-04 
 3.5319767649305800e-04  3.6249313573868502e-04  3.7203301383584048e-04  3.8182372594087105e-04 
 3.9187185496093198e-04  4.0218415590708475e-04  4.1276756035856508e-04  4.2362918104096159e-04 
 4.3477631652110506e-04  4.4621645602154229e-04  4.5795728435752276e-04  4.7000668699949627e-04 
 4.8237275526419017e-04  4.9506379163739356e-04  5.0808831523165487e-04  5.2145506738215876e-04 
 5.3517301738413223e-04  5.4925136837519076e-04  5.6369956336611664e-04  5.7852729142362320e-04 
 5.9374449400875946e-04  6.0936137147465236e-04  6.2538838972739277e-04  6.4183628705392871e-04 
 6.5871608112091917e-04  6.7603907614856892e-04  6.9381687026358080e-04  7.1206136303538230e-04 
 7.3078476319993625e-04  7.4999959657546557e-04  7.6971871417456591e-04  7.8995530051720092e-04 
 8.1072288214921527e-04  8.3203533637106844e-04  8.5390690018152891e-04  8.7635217944126876e-04 
 8.9938615826125855e-04  9.2302420862101591e-04  9.4728210022186436e-04  9.7217601058037842e-04 
 9.9772253536734305e-04  1.0239386989976044e-03  1.0508419654762782e-03  1.0784502495068654e-03 
 1.1067819278669463e-03  1.1358558510571085e-03  1.1656913552289764e-03  1.1963082743981707e-03 
 1.2277269529481734e-03  1.2599682584311322e-03  1.2930535946716875e-03  1.3270049151800191e-03 
 1.3618447368803194e-03  1.3975961541610430e-03  1.4342828532532407e-03  1.4719291269434393e-03 
 1.5105598896275239e-03  1.5502006927121251e-03  1.5908777403701069e-03  1.6326179056567215e-03 
 1.6754487469930522e-03  1.7193985250234336e-03  1.7644962198534648e-03  1.8107715486753303e-03 
 1.8582549837870622e-03  1.9069777710124410e-03  1.9569719485281545e-03  2.0082703661048521e-03 
 2.0609067047686214e-03  2.1149154968894608e-03  2.1703321467031341e-03  2.2271929512728481e-03 
 2.2855351218969478e-03  2.3453968059688425e-03  2.4068171092951570e-03  2.4698361188779977e-03 
 2.5344949261670484e-03  2.6008356507869995e-03  2.6689014647456235e-03  2.7387366171275560e-03 
 2.8103864592786219e-03  2.8838974704851537e-03  2.9593172841525820e-03  3.0366947144870736e-03 
 3.1160797836837103e-03  3.1975237496242896e-03  3.2810791340872449e-03  3.3667997514718888e-03 
 3.4547407380384454e-03  3.5449585816649492e-03  3.6375111521212687e-03  3.7324577318599565e-03 
 3.8298590473229547e-03  3.9297773007621779e-03  4.0322762025713534e-03  4.1374210041256240e-03 
 4.2452785311241446e-03  4.3559172174301693e-03  4.4694071394020176e-03  4.5858200507067383e-03 
 4.7052294176074963e-03  4.8277104547139486e-03  4.9533401611837231e-03  5.0821973573613099e-03 
 5.2143627218391338e-03  5.3499188289238449e-03  5.4889501864889018e-03  5.6315432741925768e-03 
 5.7777865820382735e-03  5.9277706492520052e-03  6.0815881034492064e-03  6.2393337000607174e-03 
 6.4011043619849675e-03  6.5669992194304621e-03  6.7371196499097915e-03  6.9115693183429347e-03 
 7.0904542172244888e-03  7.2738827068053917e-03  7.4619655552364637e-03  7.6548159786163890e-03 
 7.8525496808830968e-03  8.0552848934822303e-03  8.2631424147425574e-03  8.4762456488819624e-03 
 8.6947206445632790e-03  8.9186961329130957e-03  9.1483035649106807e-03  9.3836771480480443e-03 
 9.6249538821553578e-03  9.8722735942793020e-03  1.0125778972493706e-02  1.0385615598515285e-02 
 1.0651931978987875e-02  1.0924879575290617e-02  1.1204612831716598e-02  1.1491289201858200e-02 
 1.1785069173026052e-02  1.2086116288517412e-02  1.2394597167539347e-02  1.2710681522578987e-02 
 1.3034542174003563e-02  1.3366355061655934e-02  1.3706299253202832e-02  1.4054556948973526e-02 
 1.4411313483017076e-02  1.4776757320085576e-02  1.5151080048238279e-02  1.5534476366743464e-02 
 1.5927144068933922e-02  1.6329284019659007e-02  1.6741100126950331e-02  1.7162799307501229e-02 
 1.7594591445539053e-02  1.8036689344642417e-02  1.8489308672038247e-02  1.8952667894882893e-02 
 1.9426988208011080e-02  1.9912493452604867e-02  2.0409410025210340e-02  2.0917966776500287e-02 
 2.1438394899147308e-02  2.1970927804145841e-02  2.2515800984883021e-02  2.3073251868227632e-02 
 2.3643519651870303e-02  2.4226845127109022e-02  2.4823470486238664e-02  2.5433639113660568e-02 
 2.6057595359789174e-02  2.6695584296787735e-02  2.7347851455122280e-02  2.8014642539877548e-02 
 2.8696203125728389e-02  2.9392778329414337e-02  3.0104612458513889e-02  3.0831948635259461e-02 
 3.1575028394086185e-02  3.2334091251548118e-02  3.3109374247178872e-02  3.3901111453819036e-02 
 3.4709533455869426e-02  3.5534866793869066e-02  3.6377333373736227e-02  3.7237149838945355e-02 
 3.8114526903849144e-02  3.9009668646288874e-02  3.9922771757568913e-02  4.0854024747805688e-02 
 4.1803607104590496e-02  4.2771688402841068e-02  4.3758427363642903e-02  4.4763970859819653e-02 
 4.5788452865895231e-02  4.6831993350049748e-02  4.7894697105602194e-02  4.8976652519483577e-02 
 5.0077930275108144e-02  5.1198581986979526e-02  5.2338638764317852e-02  5.3498109700932127e-02 
 5.4676980288512977e-02  5.5875210750472998e-02  5.7092734293417602e-02  5.8329455273295000e-02 
 5.9585247273241784e-02  6.0859951090122398e-02  6.2153372626739242e-02  6.3465280686696671e-02 
 6.4795404668902087e-02  6.6143432158706619e-02  6.7509006412727196e-02  6.8891723734430810e-02 
 7.0291130737633239e-02  7.1706721495143122e-02  7.3137934569887875e-02  7.4584149925979185e-02 
 7.6044685717328489e-02  7.7518794951594736e-02  7.9005662027454571e-02  8.0504399143413299e-02 
 8.2014042576653387e-02  8.3533548830713775e-02  8.5061790651144498e-02  8.6597552908666595e-02 
 8.8139528349803736e-02  8.9686313215433383e-02  9.1236402728246443e-02  9.2788186450696350e-02 
 9.4339943515679384e-02  9.5889837732904840e-02  9.7435912574711153e-02  9.8976086045950026e-02 
 1.0050814544350746e-01  1.0202974201206291e-01  1.0353838550380930e-01  1.0503143865107162e-01 
 1.0650611156208474e-01  1.0795945605160394e-01  1.0938835991956436e-01  1.1078954119265354e-01 
 1.1215954234543232e-01  1.1349472451954441e-01  1.1479126176158803e-01  1.1604513530239512e-01 
 1.1725212790278236e-01  1.1840781829330299e-01  1.1950757573814876e-01  1.2054655475612082e-01 
 1.2151969003453131e-01  1.2242169157498806e-01  1.2324704011328258e-01  1.2398998285902732e-01 
 1.2464452960428156e-01  1.2520444925415930e-01  1.2566326683633736e-01  1.2601426105044405e-01 
 1.2625046242253860e-01  1.2636465213424691e-01  1.2634936160061047e-01  1.2619687287530942e-01 
 1.2589921996660927e-01  1.2544819115216871e-01  1.2483533238565080e-01  1.2405195189293335e-01 
 1.2308912606053223e-01  1.2193770672362823e-01  1.2058832996575634e-01  1.1903142654673270e-01 
 1.1725723407970405e-01  1.1525581108222943e-01  1.1301705302997726e-01  1.1053071054485381e-01 
 1.0778640985208690e-01  1.0477367564284513e-01  1.0148195648029644e-01  9.7900652887433146e-02 
 9.4019148254410143e-02  8.9826842701384732e-02  8.5313190029731853e-02  8.0467737889899707e-02 
 7.5280171287808478e-02  6.9740359543423072e-02  6.3838406804664183e-02  5.7564706206981425e-02 
 5.0909997753357417e-02  4.3865429971019797e-02  3.6422625379396091e-02  2.8573749778535322e-02 
 2.0311585338012330e-02  1.1629607432922918e-02  2.5220651355551422e-03  -7.0159347715973066e-03 
 -1.6988340444038862e-02  -2.7398064521137237e-02  -3.8246890865969822e-02  -4.9535378861696094e-02 
 -6.1262765699907941e-02  -7.3426867176255295e-02  -8.6023977595724457e-02  -9.9048769484396171e-02 
 -1.1249419390658666e-01  -1.2635138229579143e-01  -1.4060955082507071e-01  -1.5525590846693241e-01 
 -1.7027557002428789e-01  -1.8565147555204128e-01  -2.0136431773265023e-01  -2.1739247891760402e-01 
 -2.3371197969898466e-01  -2.5029644102950965e-01  -2.6711706206388236e-01  -2.8414261604651264e-01 
 -3.0133946671802819e-01  -3.1867160785221560e-01  -3.3610072866233487e-01  -3.5358630792682799e-01 
 -3.7108573977426568e-01  -3.8855449413034748e-01  -4.0594631485965582e-01  -4.2321345862440862e-01 
 -4.4030697742427582e-01  -4.5717704766670286e-01  -4.7377334843713359e-01  -4.9004549138343240e-01 
 -5.0594350428826096e-01  -5.2141836996673685e-01  -5.3642262158342580e-01  -5.5091099482172901e-01 
 -5.6484113654950530e-01  -5.7817436869707883e-01  -5.9087650498865285e-01  -6.0291871693779997e-01 
 -6.1427844412626453e-01  -6.2494034222947625e-01  -6.3489726053174345e-01  -6.4415123879249714e-01 
 -6.5271451129057845e-01  -6.6061050369956664e-01  -6.6787480615355499e-01  -6.7455610347587236e-01 
 -6.8071704109767217e-01  -6.8643500273186198e-01  -6.9180277344271324e-01  -6.9692905942463135e-01 
 -7.0193883364714060e-01  -7.0697347461994930e-01  -7.1219066397534048e-01  -7.1776400745901114e-01 
 -7.2388234337891655e-01  -7.3074870270812742e-01  -7.3857888600426835e-01  -7.4759959048698710e-01 
 -7.5804625651672330e-01  -7.7016011870556444e-01  -7.8418508222609273e-01  -8.0036394018772927e-01 
 -8.1893412619663242e-01  -8.4012292897160179e-01  -8.6414224687664876e-01  -8.9118292396767873e-01 
 -9.2140865234280445e-01  -9.5494956012690047e-01  -9.9189556396983902e-01  -1.0322895990599457e+00 
 -1.0761208643697413e+00  -1.1233182458455162e+00  -1.1737441067417729e+00  -1.2271886601878912e+00 
 -1.2833651641470569e+00  -1.3419062018166286e+00  -1.4023613294679362e+00  -1.4641963873611474e+00 
 -1.5267947752469697e+00  -1.5894609895887599e+00  -1.6514267032453316e+00  -1.7118596358293678e+00 
 -1.7698754130970935e+00  -1.8245525429671610e+00  -1.8749505427897197e+00  -1.9201311359588475e+00 
 -1.9591822958158536e+00  -1.9912447529436252e+00  -2.0155404012987832e+00  -2.0314018457825376e+00 
 -2.0383021355829132e+00  -2.0358835359426353e+00  -2.0239840171479950e+00  -2.0026599995681673e+00 
 -1.9722038014134573e+00  -1.9331542095579843e+00  -1.8862986455679047e+00  -1.8326655443948439e+00 
 -1.7735058085867399e+00  -1.7102625527298794e+00  -1.6445288090193544e+00  -1.5779934183502964e+00 
 -1.5123759685547031e+00  -1.4493523420927006e+00  -1.3904731741755223e+00  -1.3370782666893346e+00 
 -1.2902107180402642e+00  -1.2505351713983222e+00  -1.2182651092010750e+00  -1.1931044783147116e+00 
 -1.1742090639224312e+00  -1.1601728820223847e+00  -1.1490443715875220e+00  -1.1383762820784549e+00 
 -1.1253118228582071e+00  -1.1067078435307578e+00  -1.0792935490017186e+00  -1.0398605706372894e+00 
 -9.8547721620404249e-01  -9.1371657620027724e-01  -8.2288510815494809e-01  -7.1223565235176634e-01 
 -5.8214689416677889e-01  -4.3425043704812594e-01  -2.7148721753467092e-01  -9.8077240030012641e-02 
 8.0609322315293816e-02  2.5828573402961708e-01  4.2808558019141529e-01  5.8299273434609433e-01 
 7.1634473516594910e-01  8.2238035218299499e-01  8.9679328193990471e-01  9.3724660533599891e-01 
 9.4379771619704111e-01  9.1918177613976393e-01  8.6890423497328151e-01  8.0110040338089783e-01 
 7.2613316306575593e-01  6.5591904099152543e-01  6.0299792246708528e-01  5.7939167497685717e-01 
 5.9532983665085604e-01  6.5795292641789238e-01  7.7013123570176167e-01  9.2955366290277874e-01 
 1.1282416574482195e+00  1.3526230915026372e+00  1.5842576271387390e+00  1.8012400488494649e+00 
 1.9802261648186414e+00  2.0989361529224362e+00  2.1389025641719783e+00  2.0881707294184140e+00 
 1.9435026883395463e+00  1.7127421612597229e+00  1.4070162203033194e+00  1.0305904987915386e+00 
 6.6075578140809310e-01  3.4326845165432407e-01  1.1294500240662085e-01  5.0823182039596692e-03 
 -5.4000377996597294e-04  1.8257175365584967e-05  -3.5833302256649513e-05  -2.9295805306896492e-05 
 -2.8797634049037627e-05  -2.7730148496208860e-05  -2.6744712250863794e-05  -2.5773953457166432e-05 
 -2.4822158560221296e-05  -2.3886910810282845e-05  -2.2966817482814189e-05  -2.2060692126384497e-05 
 -2.1167610524631229e-05  -2.0286865237528667e-05  -1.9417946433579725e-05  -1.8560518692369172e-05 
 -1.7714400357844540e-05  -1.6879548650729675e-05  -1.6056044930212064e-05  -1.5244075970773895e-05 
 -1.4443933157972545e-05  -1.3655998045951435e-05  -1.2880722409083063e-05  -1.2118642213218834e-05 
 -1.1370344562284650e-05  -1.0636479071845844e-05  -9.9177376348872127e-06  -9.2148251393688635e-06 
 -8.5287041574840276e-06  -7.8580355442142428e-06  -7.2242785475196994e-06  -6.4236970183293400e-06 
 -5.9729334453481273e-06  -5.3715365444314021e-06  -4.8083647114530059e-06  -4.2648754931567574e-06 
 -3.7411496510093032e-06  -3.2415951543183192e-06  -2.7619575798432996e-06  -2.3022686783552313e-06 
 -1.8670575312298213e-06  -1.4509462040128366e-06  -1.0548279358555230e-06  -6.8123420341155342e-07 
 -3.2656814421351719e-07  3.5629980602576024e-06  3.4805217772949433e-06  3.3951027484105045e-06 
 3.3083679850258605e-06  3.2209226637997788e-06  0.0000000000000000e+00  0.0000000000000000e+00 
 0.0000000000000000e+00  0.0000000000000000e+00  0.0000000000000000e+00  0.0000000000000000e+00 
 0.0000000000000000e+00  0.0000000000000000e+00  0.0000000000000000e+00  0.0000000000000000e+00 
 0.0000000000000000e+00  0.0000000000000000e+00  0.0000000000000000e+00  0.0000000000000000e+00 
 0.0000000000000000e+00  0.0000000000000000e+00  0.0000000000000000e+00  0.0000000000000000e+00 
 0.0000000000000000e+00  0.0000000000000000e+00  0.0000000000000000e+00  0.0000000000000000e+00 
 0.0000000000000000e+00  0.0000000000000000e+00  0.0000000000000000e+00  0.0000000000000000e+00 
 0.0000000000000000e+00  0.0000000000000000e+00  0.0000000000000000e+00  0.0000000000000000e+00 
 0.0000000000000000e+00  0.0000000000000000e+00  0.0000000000000000e+00  0.0000000000000000e+00 
 0.0000000000000000e+00  0.0000000000000000e+00  0.0000000000000000e+00  0.0000000000000000e+00 
 0.0000000000000000e+00  0.0000000000000000e+00  0.0000000000000000e+00  0.0000000000000000e+00 
 0.0000000000000000e+00  0.0000000000000000e+00  0.0000000000000000e+00  0.0000000000000000e+00 
 0.0000000000000000e+00  0.0000000000000000e+00  0.0000000000000000e+00  0.0000000000000000e+00 
 0.0000000000000000e+00  0.0000000000000000e+00  0.0000000000000000e+00  0.0000000000000000e+00 
 0.0000000000000000e+00  0.0000000000000000e+00  0.0000000000000000e+00  0.0000000000000000e+00 
 0.0000000000000000e+00  0.0000000000000000e+00  0.0000000000000000e+00  0.0000000000000000e+00 
 0.0000000000000000e+00  0.0000000000000000e+00  0.0000000000000000e+00  0.0000000000000000e+00 
 0.0000000000000000e+00  0.0000000000000000e+00  0.0000000000000000e+00  0.0000000000000000e+00 
 0.0000000000000000e+00  0.0000000000000000e+00  0.0000000000000000e+00  0.0000000000000000e+00 
 0.0000000000000000e+00  0.0000000000000000e+00  0.0000000000000000e+00  0.0000000000000000e+00 
 0.0000000000000000e+00  0.0000000000000000e+00  0.0000000000000000e+00  0.0000000000000000e+00 
 0.0000000000000000e+00  0.0000000000000000e+00  0.0000000000000000e+00  0.0000000000000000e+00 
 0.0000000000000000e+00  0.0000000000000000e+00  0.0000000000000000e+00  0.0000000000000000e+00 
 0.0000000000000000e+00  0.0000000000000000e+00  0.0000000000000000e+00  0.0000000000000000e+00 
 0.0000000000000000e+00  0.0000000000000000e+00  0.0000000000000000e+00  0.0000000000000000e+00 
 0.0000000000000000e+00  0.0000000000000000e+00  0.0000000000000000e+00  0.0000000000000000e+00 
 0.0000000000000000e+00  0.0000000000000000e+00  0.0000000000000000e+00  0.0000000000000000e+00 
 0.0000000000000000e+00  0.0000000000000000e+00  0.0000000000000000e+00  0.0000000000000000e+00 
 0.0000000000000000e+00  0.0000000000000000e+00  0.0000000000000000e+00  0.0000000000000000e+00 
 0.0000000000000000e+00  0.0000000000000000e+00  0.0000000000000000e+00  0.0000000000000000e+00 
 0.0000000000000000e+00  0.0000000000000000e+00  0.0000000000000000e+00  0.0000000000000000e+00 
 0.0000000000000000e+00  0.0000000000000000e+00  0.0000000000000000e+00  0.0000000000000000e+00 
 0.0000000000000000e+00  0.0000000000000000e+00  0.0000000000000000e+00  0.0000000000000000e+00 
 0.0000000000000000e+00  0.0000000000000000e+00  0.0000000000000000e+00  0.0000000000000000e+00 
 0.0000000000000000e+00  0.0000000000000000e+00  0.0000000000000000e+00  0.0000000000000000e+00 
 0.0000000000000000e+00  0.0000000000000000e+00  0.0000000000000000e+00  0.0000000000000000e+00 
 0.0000000000000000e+00  0.0000000000000000e+00  0.0000000000000000e+00  0.0000000000000000e+00 
 0.0000000000000000e+00  0.0000000000000000e+00  0.0000000000000000e+00  0.0000000000000000e+00 
 0.0000000000000000e+00  0.0000000000000000e+00  0.0000000000000000e+00  0.0000000000000000e+00 
 0.0000000000000000e+00  0.0000000000000000e+00  0.0000000000000000e+00  0.0000000000000000e+00 
 0.0000000000000000e+00  0.0000000000000000e+00  0.0000000000000000e+00  0.0000000000000000e+00 
 0.0000000000000000e+00  0.0000000000000000e+00  0.0000000000000000e+00  0.0000000000000000e+00 
 0.0000000000000000e+00  0.0000000000000000e+00  0.0000000000000000e+00  0.0000000000000000e+00 
 0.0000000000000000e+00  0.0000000000000000e+00  0.0000000000000000e+00  0.0000000000000000e+00 
 0.0000000000000000e+00  0.0000000000000000e+00  0.0000000000000000e+00  0.0000000000000000e+00 
 0.0000000000000000e+00  0.0000000000000000e+00  0.0000000000000000e+00  0.0000000000000000e+00 
 0.0000000000000000e+00  0.0000000000000000e+00  0.0000000000000000e+00  0.0000000000000000e+00 
 0.0000000000000000e+00  0.0000000000000000e+00  0.0000000000000000e+00  0.0000000000000000e+00 
 0.0000000000000000e+00  0.0000000000000000e+00  0.0000000000000000e+00  0.0000000000000000e+00 
 0.0000000000000000e+00  0.0000000000000000e+00  0.0000000000000000e+00  0.0000000000000000e+00 
 0.0000000000000000e+00  0.0000000000000000e+00  0.0000000000000000e+00  0.0000000000000000e+00 
 0.0000000000000000e+00  0.0000000000000000e+00  0.0000000000000000e+00  0.0000000000000000e+00 
 0.0000000000000000e+00  0.0000000000000000e+00  0.0000000000000000e+00  0.0000000000000000e+00 
 0.0000000000000000e+00  0.0000000000000000e+00  0.0000000000000000e+00  0.0000000000000000e+00 
 0.0000000000000000e+00  0.0000000000000000e+00  0.0000000000000000e+00  0.0000000000000000e+00 
 0.0000000000000000e+00  0.0000000000000000e+00  0.0000000000000000e+00  0.0000000000000000e+00 
 0.0000000000000000e+00  0.0000000000000000e+00  0.0000000000000000e+00  0.0000000000000000e+00 
 0.0000000000000000e+00  0.0000000000000000e+00  0.0000000000000000e+00  0.0000000000000000e+00 
 0.0000000000000000e+00  0.0000000000000000e+00  0.0000000000000000e+00  0.0000000000000000e+00 
 0.0000000000000000e+00  0.0000000000000000e+00  0.0000000000000000e+00  0.0000000000000000e+00 
 0.0000000000000000e+00  0.0000000000000000e+00  0.0000000000000000e+00  0.0000000000000000e+00 
 0.0000000000000000e+00  0.0000000000000000e+00  0.0000000000000000e+00  0.0000000000000000e+00 
 0.0000000000000000e+00  0.0000000000000000e+00  0.0000000000000000e+00  0.0000000000000000e+00 
 0.0000000000000000e+00  0.0000000000000000e+00  0.0000000000000000e+00  0.0000000000000000e+00 
 0.0000000000000000e+00  0.0000000000000000e+00  0.0000000000000000e+00  0.0000000000000000e+00 
 0.0000000000000000e+00  0.0000000000000000e+00  0.0000000000000000e+00  0.0000000000000000e+00 
 0.0000000000000000e+00  0.0000000000000000e+00  0.0000000000000000e+00  0.0000000000000000e+00 
 0.0000000000000000e+00  0.0000000000000000e+00  0.0000000000000000e+00  0.0000000000000000e+00 
 0.0000000000000000e+00 
  </PP_BETA>
  <PP_BETA>
  3  2      Beta    L
  1188  
 -4.5026812406935031e-13  -4.6817550514285254e-13  -4.8679507142302636e-13  -5.0615514686002105e-13 
 -5.2628518186118622e-13  -5.4721579809081400e-13  -5.6897883505160062e-13  -5.9160739851866639e-13 
 -6.1513591089982143e-13  -6.3960016359868630e-13  -6.6503737146031752e-13  -6.9148622938216060e-13 
 -7.1898697117645265e-13  -7.4758143077360349e-13  -7.7731310585967670e-13  -8.0822722404474775e-13 
 -8.4037081166282965e-13  -8.7379276530798115e-13  -9.0854392621546742e-13  -9.4467715760107083e-13 
 -9.8224742507624108e-13  -1.0213118802613829e-12  -1.0619299477244975e-12  -1.1041634153773982e-12 
 -1.1480765284670477e-12  -1.1937360873049589e-12  -1.2412115488833454e-12  -1.2905751325326126e-12 
 -1.3419019297808700e-12  -1.3952700185826284e-12  -1.4507605820904243e-12  -1.5084580321500485e-12 
 -1.5684501377072345e-12  -1.6308281583211550e-12  -1.6956869829878001e-12  -1.7631252744844456e-12 
 -1.8332456194547476e-12  -1.9061546844628139e-12  -1.9819633782536254e-12  -2.0607870204666020e-12 
 -2.1427455170590235e-12  -2.2279635427061105e-12  -2.3165707304552365e-12  -2.4087018689227956e-12 
 -2.5044971073336674e-12  -2.6041021687152334e-12  -2.7076685715701747e-12  -2.8153538603653412e-12 
 -2.9273218451872669e-12  -3.0437428509288917e-12  -3.1647939763865633e-12  -3.2906593636614719e-12 
 -3.4215304782752622e-12  -3.5576064004260535e-12  -3.6990941278277530e-12  -3.8462088905935426e-12 
 -3.9991744786423638e-12  -4.1582235821265363e-12  -4.3235981453983414e-12  -4.4955497350540496e-12 
 -4.6743399226152185e-12  -4.8602406824293969e-12  -5.0535348053955987e-12  -5.2545163291437362e-12 
 -5.4634909853225778e-12  -5.6807766646765663e-12  -5.9067039006189024e-12  -6.1416163720366143e-12 
 -6.3858714260924339e-12  -6.6398406218187305e-12  -6.9039102953304624e-12  -7.1784821475168587e-12 
 -7.4639738551060090e-12  -7.7608197060316725e-12  -8.0694712600689492e-12  -8.3903980357438491e-12 
 -8.7240882245614331e-12  -9.0710494336392955e-12  -9.4318094578759041e-12  -9.8069170828282963e-12 
 -1.0196942919520907e-11  -1.0602480272454832e-11  -1.1024146042138564e-11  -1.1462581663512444e-11 
 -1.1918454081695069e-11  -1.2392456766535415e-11  -1.2885310767514043e-11  -1.3397765810598688e-11 
 -1.3930601438721907e-11  -1.4484628197616236e-11  -1.5060688868810558e-11  -1.5659659751663415e-11 
 -1.6282451996383215e-11  -1.6930012990063704e-11  -1.7603327797842084e-11  -1.8303420661373455e-11 
 -1.9031356556899660e-11  -1.9788242815283607e-11  -2.0575230806473271e-11  -2.1393517690957244e-11 
 -2.2244348240876867e-11  -2.3129016733564759e-11  -2.4048868920390199e-11  -2.5005304073906781e-11 
 -2.5999777116415539e-11  -2.7033800833182725e-11  -2.8108948173677828e-11  -2.9226854644333371e-11 
 -3.0389220796465212e-11  -3.1597814813139866e-11  -3.2854475198921389e-11  -3.4161113576591853e-11 
 -3.5519717595098388e-11  -3.6932353953150458e-11  -3.8401171543067662e-11  -3.9928404719659128e-11 
 -4.1516376699108708e-11  -4.3167503093034552e-11  -4.4884295583100967e-11  -4.6669365741770318e-11 
 -4.8525429005008918e-11  -5.0455308802989210e-11  -5.2461940855071677e-11  -5.4548377635600188e-11 
 -5.6717793017305250e-11  -5.8973487099376077e-11  -6.1318891227548883e-11  -6.3757573213845378e-11 
 -6.6293242763903992e-11  -6.8929757120157597e-11  -7.1671126929443918e-11  -7.4521522343973291e-11 
 -7.7485279364935120e-11  -8.0566906438392383e-11  -8.3771091313498623e-11  -8.7102708173468913e-11 
 -9.0566825050153666e-11  -9.4168711533492923e-11  -9.7913846787580399e-11  -1.0180792788552957e-10 
 -1.0585687847582155e-10  -1.1006685779331830e-10  -1.1444427002864772e-10  -1.1899577407021472e-10 
 -1.2372829363365484e-10  -1.2864902779414372e-10  -1.3376546193758087e-10  -1.3908537914730511e-10 
 -1.4461687204367027e-10  -1.5036835509448076e-10  -1.5634857741502351e-10  -1.6256663607716273e-10 
 -1.6903198994774130e-10  -1.7575447407734596e-10  -1.8274431466131888e-10  -1.9001214459577546e-10 
 -1.9756901965229274e-10  -2.0542643529587630e-10  -2.1359634417178112e-10  -2.2209117428779611e-10 
 -2.3092384791964366e-10  -2.4010780126825956e-10  -2.4965700489885038e-10  -2.5958598499282274e-10 
 -2.6990984544491490e-10  -2.8064429083913596e-10  -2.9180565033847797e-10  -3.0341090252472653e-10 
 -3.1547770122616836e-10  -3.2802440237247479e-10  -3.4107009191762115e-10  -3.5463461487331453e-10 
 -3.6873860549709155e-10  -3.8340351868101828e-10  -3.9865166258872544e-10  -4.1450623259044684e-10 
 -4.3099134654765924e-10  -4.4813208150101811e-10  -4.6595451181738669e-10  -4.8448574885399745e-10 
 -5.0375398220006529e-10  -5.2378852255861691e-10  -5.4461984633373791e-10  -5.6627964199108296e-10 
 -5.8880085826217178e-10  -6.1221775426578157e-10  -6.3656595162270684e-10  -6.6188248864314247e-10 
 -6.8820587666911955e-10  -7.1557615865772997e-10  -7.4403497009420902e-10  -7.7362560232758345e-10 
 -8.0439306842519719e-10  -8.3638417164631382e-10  -8.6964757663894666e-10  -9.0423388346821859e-10 
 -9.4019570458887957e-10  -9.7758774487903468e-10  -1.0164668848569008e-09  -1.0568922672070818e-09 
 -1.0989253867480885e-09  -1.1426301839778683e-09  -1.1880731423397283e-09  -1.2353233893565528e-09 
 -1.2844528017871842e-09  -1.3355361149649237e-09  -1.3886510364845025e-09  -1.4438783644104155e-09 
 -1.5013021101864842e-09  -1.5610096264335804e-09  -1.6230917398299446e-09  -1.6876428892762199e-09 
 -1.7547612695553887e-09  -1.8245489807061305e-09  -1.8971121833368438e-09  -1.9725612601165852e-09 
 -2.0510109836886070e-09  -2.1325806912618728e-09  -2.2173944661462034e-09  -2.3055813265071593e-09 
 -2.3972754216277948e-09  -2.4926162359758824e-09  -2.5917488013869613e-09  -2.6948239176860562e-09 
 -2.8019983820836025e-09  -2.9134352276946206e-09  -3.0293039715438904e-09  -3.1497808724344614e-09 
 -3.2750491990716742e-09  -3.4052995088507090e-09  -3.5407299377316149e-09  -3.6815465016428329e-09 
 -3.8279634098717218e-09  -3.9802033909187822e-09  -4.1384980313113144e-09  -4.3030881278918839e-09 
 -4.4742240541174606e-09  -4.6521661409265071e-09  -4.8371850727534101e-09  -5.0295622992925576e-09 
 -5.2295904636385817e-09  -5.4375738474539367e-09  -5.6538288338410703e-09  -5.8786843886232684e-09 
 -6.1124825607664244e-09  -6.3555790027027074e-09  -6.6083435113479525e-09  -6.8711605906355510e-09 
 -7.1444300364227492e-09  -7.4285675446588950e-09  -7.7240053437409868e-09  -8.0311928520183624e-09 
 -8.3505973614467715e-09  -8.6827047484318013e-09  -9.0280202129428931e-09  -9.3870690470224786e-09 
 -9.7603974338592292e-09  -1.0148573278640853e-08  -1.0552187072450456e-08  -1.0971852790520722e-08 
 -1.1408208826212056e-08  -1.1861918962135767e-08  -1.2333673379899537e-08  -1.2824189710010826e-08 
 -1.3334214123535936e-08  -1.3864522467174947e-08  -1.4415921443479316e-08  -1.4989249838007576e-08 
 -1.5585379795285887e-08  -1.6205218145514287e-08  -1.6849707784037077e-08  -1.7519829105675601e-08 
 -1.8216601496105671e-08  -1.8941084882547686e-08  -1.9694381346129300e-08  -2.0477636798372575e-08 
 -2.1292042724356351e-08  -2.2138837995205501e-08  -2.3019310752664089e-08  -2.3934800368619449e-08 
 -2.4886699482558237e-08  -2.5876456120053245e-08  -2.6905575895504153e-08  -2.7975624302483434e-08 
 -2.9088229095170510e-08  -3.0245082764497670e-08  -3.1447945112774348e-08  -3.2698645930705955e-08 
 -3.3999087780880485e-08  -3.5351248891956090e-08  -3.6757186167953275e-08  -3.8219038317228885e-08 
 -3.9739029105892316e-08  -4.1319470740612620e-08  -4.2962767385962964e-08  -4.4671418821652986e-08 
 -4.6448024245211857e-08  -4.8295286225908983e-08  -5.0216014815924136e-08  -5.2213131825023264e-08 
 -5.4289675265242105e-08  -5.6448803972339360e-08  -5.8693802411048889e-08  -6.1028085671441945e-08 
 -6.3455204663998994e-08  -6.5978851521295549e-08  -6.8602865214517667e-08  -7.1331237393352987e-08 
 -7.4168118458138665e-08  -7.7117823873506918e-08  -8.0184840733130099e-08  -8.3373834585551265e-08 
 -8.6689656531488743e-08  -9.0137350603405858e-08  -9.3722161438574971e-08  -9.7449542257308580e-08 
 -1.0132516315849348e-07  -1.0535491974504842e-07  -1.0954494209242639e-07  -1.1390160407380508e-07 
 -1.1843153305615155e-07  -1.2314161998191196e-07  -1.2803902985166365e-07  -1.3313121262367293e-07 
 -1.3842591454694763e-07  -1.4393118994501504e-07  -1.4965541346836016e-07  -1.5560729283415955e-07 
 -1.6179588207269289e-07  -1.6823059530058076e-07  -1.7492122104180850e-07  -1.8187793711831461e-07 
 -1.8911132613280251e-07  -1.9663239156732710e-07  -2.0445257452214676e-07  -2.1258377112030677e-07 
 -2.2103835060443135e-07  -2.2982917415325540e-07  -2.3896961444651808e-07  -2.4847357600799488e-07 
 -2.5835551635759453e-07  -2.6863046800472459e-07  -2.7931406131636415e-07  -2.9042254829465111e-07 
 -3.0197282730013933e-07  -3.1398246875835470e-07  -3.2646974188875027e-07  -3.3945364249671824e-07 
 -3.5295392187096102e-07  -3.6699111683015810e-07  -3.8158658096465877e-07  -3.9676251712072394e-07 
 -4.1254201117673983e-07  -4.2894906716278209e-07  -4.4600864377697746e-07  -4.6374669235419342e-07 
 -4.8219019634484186e-07  -5.0136721236385819e-07  -5.2130691287228307e-07  -5.4203963055642170e-07 
 -5.6359690447206002e-07  -5.8601152802397101e-07  -6.0931759885369468e-07  -6.3355057071149297e-07 
 -6.5874730739140240e-07  -6.8494613881143360e-07  -7.1218691932426498e-07  -7.4051108834711128e-07 
 -7.6996173340304065e-07  -8.0058365566964658e-07  -8.3242343813479827e-07  -8.6552951646317788e-07 
 -8.9995225268142104e-07  -9.3574401179396716e-07  -9.7295924144619250e-07  -1.0116545547560617e-06 
 -1.0518888164402618e-06  -1.0937232323659369e-06  -1.1372214426642254e-06  -1.1824496185473045e-06 
 -1.2294765629762323e-06  -1.2783738153327892e-06  -1.3292157602545562e-06  -1.3820797407988252e-06 
 -1.4370461761075865e-06  -1.4941986837525564e-06  -1.5536242069464549e-06  -1.6154131468140898e-06 
 -1.6796594999245103e-06  -1.7464610012935221e-06  -1.8159192730741249e-06  -1.8881399791611836e-06 
 -1.9632329859455440e-06  -2.0413125294622456e-06  -2.1224973891871834e-06  -2.2069110687466408e-06 
 -2.2946819838147231e-06  -2.3859436574846834e-06  -2.4808349234113016e-06  -2.5795001370336018e-06 
 -2.6820893951992640e-06  -2.7887587645249726e-06  -2.8996705188402761e-06  -3.0149933860762040e-06 
 -3.1349028049744968e-06  -3.2595811920080443e-06  -3.3892182189187731e-06  -3.5240111012954146e-06 
 -3.6641648986303220e-06  -3.8098928263119730e-06  -3.9614165800280795e-06  -4.1189666730730130e-06 
 -4.2827827870729086e-06  -4.4531141366623266e-06  -4.6302198486674232e-06  -4.8143693563729776e-06 
 -5.0058428094731638e-06  -5.2049315003302440e-06  -5.4119383071899657e-06  -5.6271781550282195e-06 
 -5.8509784947307452e-06  -6.0836798013349844e-06  -6.3256360920927265e-06  -6.5772154651421660e-06 
 -6.8388006596094881e-06  -7.1107896379924814e-06  -7.3935961917129265e-06  -7.6876505707597065e-06 
 -7.9934001383811096e-06  -8.3113100518232581e-06  -8.6418639701510291e-06  -8.9855647902290432e-06 
 -9.3429354119836701e-06  -9.7145195341109620e-06  -1.0100882481442230e-05  -1.0502612065227235e-05 
 -1.0920319477644852e-05  -1.1354640221903312e-05  -1.1806235079346897e-05  -1.2275791115041253e-05 
 -1.2764022723369264e-05  -1.3271672715229659e-05  -1.3799513448494502e-05  -1.4348348003447001e-05 
 -1.4919011404990278e-05  -1.5512371893488772e-05  -1.6129332246177884e-05  -1.6770831151155215e-05 
 -1.7437844636045986e-05  -1.8131387553519580e-05  -1.8852515125920190e-05  -1.9602324551364966e-05 
 -2.0381956673756758e-05  -2.1192597719256234e-05  -2.2035481101859097e-05  -2.2911889300829762e-05 
 -2.3823155812853466e-05  -2.4770667181880420e-05  -2.5755865109756957e-05  -2.6780248650859784e-05 
 -2.7845376494079123e-05  -2.8952869335628722e-05  -3.0104412346300302e-05  -3.1301757736923456e-05 
 -3.2546727425942808e-05  -3.3841215813179153e-05  -3.5187192664004563e-05  -3.6586706108329046e-05 
 -3.8041885758972764e-05  -3.9554945954179436e-05  -4.1128189129216665e-05  -4.2764009322206119e-05 
 -4.4464895819531185e-05  -4.6233436946384656e-05  -4.8072324008238645e-05  -4.9984355389251456e-05 
 -5.1972440813865448e-05  -5.4039605778099824e-05  -5.6188996157301631e-05  -5.8423882997388572e-05 
 -6.0747667496897707e-05  -6.3163886187446875e-05  -6.5676216320517528e-05  -6.8288481468787711e-05 
 -7.1004657350567181e-05  -7.3828877886232932e-05  -7.6765441495915769e-05  -7.9818817648060993e-05 
 -8.2993653668868880e-05  -8.6294781823021238e-05  -8.9727226676517119e-05  -9.3296212752870587e-05 
 -9.7007172494381993e-05  -1.0086575454064798e-04  -1.0487783233697847e-04  -1.0904951308588355e-04 
 -1.1338714705532861e-04  -1.1789733725799617e-04  -1.2258694951637229e-04  -1.2746312292906181e-04 
 -1.3253328075435469e-04  -1.3780514172771576e-04  -1.4328673183052349e-04  -1.4898639652809290e-04 
 -1.5491281349573529e-04  -1.6107500585235259e-04  -1.6748235592186199e-04  -1.7414461954354715e-04 
 -1.8107194095328606e-04  -1.8827486825848260e-04  -1.9576436953046140e-04  -2.0355184953900834e-04 
 -2.1164916715477253e-04  -2.2006865344624473e-04  -2.2882313049912164e-04  -2.3792593098698241e-04 
 -2.4739091852335877e-04  -2.5723250882650798e-04  -2.6746569172944205e-04  -2.7810605406910187e-04 
 -2.8916980348989884e-04  -3.0067379319830988e-04  -3.1263554770665712e-04  -3.2507328960576206e-04 
 -3.3800596740777449e-04  -3.5145328450212308e-04  -3.6543572926930494e-04  -3.7997460639900820e-04 
 -3.9509206946099055e-04  -4.1081115477904193e-04  -4.2715581666046080e-04  -4.4415096403556468e-04 
 -4.6182249856399090e-04  -4.8019735426683578e-04  -4.9930353874610837e-04  -5.1917017605545646e-04 
 -5.3982755128873959e-04  -5.6130715695575898e-04  -5.8364174121724836e-04  -6.0686535805422001e-04 
 -6.3101341944980674e-04  -6.5612274966499488e-04  -6.8223164169267875e-04  -7.0937991597905064e-04 
 -7.3760898150249739e-04  -7.6696189930759641e-04  -7.9748344859241211e-04  -8.2922019545224649e-04 
 -8.6222056439012700e-04  -8.9653491270338568e-04  -9.3221560786563371e-04  -9.6931710802506906e-04 
 -1.0078960457462287e-03  -1.0480113151273417e-03  -1.0897241624319065e-03  -1.1330982803764696e-03 
 -1.1781999062260751e-03  -1.2250979238512929e-03  -1.2738639699113494e-03  -1.3245725443303499e-03 
 -1.3773011252453048e-03  -1.4321302886080387e-03  -1.4891438326333753e-03  -1.5484289072938639e-03 
 -1.6100761490685327e-03  -1.6741798211640047e-03  -1.7408379594336886e-03  -1.8101525242315702e-03 
 -1.8822295584480313e-03  -1.9571793519833191e-03  -2.0351166129288314e-03  -2.1161606457349999e-03 
 -2.2004355366581044e-03  -2.2880703467924170e-03  -2.3791993130045821e-03  -2.4739620571035108e-03 
 -2.5725038035935097e-03  -2.6749756063725338e-03  -2.7815345847544705e-03  -2.8923441692137574e-03 
 -3.0075743572611233e-03  -3.1274019798884726e-03  -3.2520109790307294e-03  -3.3815926965196259e-03 
 -3.5163461750225044e-03  -3.6564784714840522e-03  -3.8022049836112714e-03  -3.9537497899675925e-03 
 -4.1113460042697062e-03  -4.2752361445056036e-03  -4.4456725175256997e-03  -4.6229176197843634e-03 
 -4.8072445549483638e-03  -4.9989374691148721e-03  -5.1982920044265505e-03  -5.4056157719002519e-03 
 -5.6212288443334936e-03  -5.8454642701905486e-03  -6.0786686094155724e-03  -6.3212024921682616e-03 
 -6.5734412015261250e-03  -6.8357752812501574e-03  -7.1086111697658749e-03  -7.3923718615724306e-03 
 -7.6874975973495437e-03  -7.9944465841036306e-03  -8.3136957467598825e-03  -8.6457415126802561e-03 
 -8.9911006306680943e-03  -9.3503110260999469e-03  -9.7239326939118249e-03  -1.0112548631262513e-02 
 -1.0516765811790695e-02  -1.0937216203489567e-02  -1.1374557832331357e-02  -1.1829475893889645e-02 
 -1.2302683915334464e-02  -1.2794924970303521e-02  -1.3306972949293375e-02  -1.3839633888363805e-02 
 -1.4393747359103161e-02  -1.4970187922972297e-02  -1.5569866653319159e-02  -1.6193732728546954e-02 
 -1.6842775100116107e-02  -1.7518024239275069e-02  -1.8220553966639050e-02  -1.8951483368974835e-02 
 -1.9711978807806847e-02  -2.0503256024726406e-02  -2.1326582348572851e-02  -2.2183279009971763e-02 
 -2.3074723569017269e-02  -2.4002352462234280e-02  -2.4967663675368065e-02  -2.5972219548828401e-02 
 -2.7017649723160037e-02  -2.8105654232222294e-02  -2.9238006752326427e-02  -3.0416558015972393e-02 
 -3.1643239399424969e-02  -3.2920066693879903e-02  -3.4249144070519953e-02  -3.5632668250461894e-02 
 -3.7072932891135897e-02  -3.8572333201405282e-02  -4.0133370798416119e-02  -4.1758658819936331e-02 
 -4.3450927306744630e-02  -4.5213028870464751e-02  -4.7047944663139510e-02  -4.8958790665771808e-02 
 -5.0948824313999726e-02  -5.3021451480133569e-02  -5.5180233831810623e-02  -5.7428896588731661e-02 
 -5.9771336699872689e-02  -6.2211631465105631e-02  -6.4754047626081807e-02  -6.7403050952738991e-02 
 -7.0163316353047567e-02  -7.3039738534921531e-02  -7.6037443250817446e-02  -7.9161799156706819e-02 
 -8.2418430318737690e-02  -8.5813229402435728e-02  -8.9352371580546583e-02  -9.3042329197279630e-02 
 -9.6889887228185242e-02  -1.0090215957618413e-01  -1.0508660624585299e-01  -1.0945105143923607e-01 
 -1.1400370261789088e-01  -1.1875317057681421e-01  -1.2370849057713076e-01  -1.2887914458513874e-01 
 -1.3427508466603871e-01  -1.3990675758111615e-01  -1.4578513063730847e-01  -1.5192171883785860e-01 
 -1.5832861338238816e-01  -1.6501851156363095e-01  -1.7200474810667249e-01  -1.7930132799450896e-01 
 -1.8692296082120716e-01  -1.9488509671041201e-01  -2.0320396383288894e-01  -2.1189660755178341e-01 
 -2.2098093121801110e-01  -2.3047573863119988e-01  -2.4040077817306857e-01  -2.5077678861037817e-01 
 -2.6162554655331516e-01  -2.7296991554226574e-01  -2.8483389672127413e-01  -2.9724268103994800e-01 
 -3.1022270290683696e-01  -3.2380169519653995e-01  -3.3800874548965931e-01  -3.5287435339882095e-01 
 -3.6843048880592638e-01  -3.8471065080454053e-01  -4.0174992710746604e-01  -4.1958505364280041e-01 
 -4.3825447402181367e-01  -4.5779839851931192e-01  -4.7825886216132718e-01  -4.9967978146645231e-01 
 -5.2210700933576959e-01  -5.4558838753262273e-01  -5.7017379613767283e-01  -5.9591519930705683e-01 
 -6.2286668660310085e-01  -6.5108450910780957e-01  -6.8062710947127392e-01  -7.1155514499018047e-01 
 -7.4393150275784370e-01  -7.7782130587779952e-01  -8.1329190968981391e-01  -8.5041288692231154e-01 
 -8.8925600066094068e-01  -9.2989516401217731e-01  -9.7240638534604129e-01  -1.0168676980272353e+00 
 -1.0633590735920588e+00  -1.1119623174042099e+00  -1.1627609459296151e+00  -1.2158400449136904e+00 
 -1.2712861079287179e+00  -1.3291868549887966e+00  -1.3896310312108435e+00  -1.4527081858360289e+00 
 -1.5185084323228417e+00  -1.5871221906832662e+00  -1.6586399137618659e+00  -1.7331517997554922e+00 
 -1.8107474939398094e+00  -1.8915157833075618e+00  -1.9755442886281336e+00  -2.0629191593038994e+00 
 -2.1537247773155617e+00  -2.2480434775035669e+00  -2.3459552924073623e+00  -2.4475377308558910e+00 
 -2.5528656004414074e+00  -2.6620108848793227e+00  -2.7750426880156702e+00  -2.8920272568403509e+00 
 -3.0130280962403591e+00  -3.1381061883145893e+00  -3.2673203287976906e+00  -3.4007275924209028e+00 
 -3.5383839377855306e+00  -3.6803449604461509e+00  -3.8266668002992774e+00  -3.9774072059537637e+00 
 -4.1326267544289328e+00  -4.2923902192018533e+00  -4.4567680732356525e+00  -4.6258381061167491e+00 
 -4.7996871257874556e+00  -4.9784127055956500e+00  -5.1621249265533535e+00  -5.3509479479669864e+00 
 -5.5450218860062543e+00  -5.7445037875863978e+00  -5.9495685897931825e+00  -6.1604098322815259e+00 
 -6.3772395525797103e+00  -6.6002875455636012e+00  -6.8297997725675357e+00  -7.0660357701139089e+00 
 -7.3092649078198493e+00  -7.5597613483338915e+00  -7.8177975734764784e+00  -8.0836363597720862e+00 
 -8.3575211129856832e+00  -8.6396645101493625e+00  -8.9302354459087407e+00  -9.2293443404047046e+00 
 -9.5370269396645835e+00  -9.8532268245534294e+00  -1.0177776940066984e+01  -1.0510380563133392e+01 
 -1.0850592241525392e+01  -1.1197799347446638e+01  -1.1551205008420107e+01  -1.1909813275433901e+01 
 -1.2272417478803103e+01  -1.2637592777649443e+01  -1.3003693931746383e+01  -1.3368859296381602e+01 
 -1.3731021954091721e+01  -1.4087928743224234e+01  -1.4437167710663591e+01  -1.4776204208879685e+01 
 -1.5102425467837742e+01  -1.5413193017147961e+01  -1.5705901820347275e+01  -1.5978044440607542e+01 
 -1.6227278009210742e+01  -1.6451491258632139e+01  -1.6648868447991699e+01  -1.6817946697896662e+01 
 -1.6957663107980675e+01  -1.7067388092411601e+01  -1.7146941668994032e+01  -1.7196589993611568e+01 
 -1.7217020247079731e+01  -1.7209293041145852e+01  -1.7174772779136635e+01  -1.7115037832462995e+01 
 -1.7031773903664018e+01  -1.6926655454199992e+01  -1.6801221481148215e+01  -1.6656753122037745e+01 
 -1.6494161441295066e+01  -1.6313894191434226e+01  -1.6115870244709576e+01  -1.5899449669216505e+01 
 -1.5663446007131490e+01  -1.5406185185899387e+01  -1.5125612665872511e+01  -1.4819446996480236e+01 
 -1.4485374076976889e+01  -1.4121272340178628e+01  -1.3725455128194469e+01  -1.3296913098177583e+01 
 -1.2835537015390756e+01  -1.2342300187655741e+01  -1.1819380434026941e+01  -1.1270204108931239e+01 
 -1.0699399387082732e+01  -1.0112652602070053e+01  -9.5164695298057342e+00  -8.9178524963594903e+00 
 -8.3239132652260004e+00  -7.7414499071410274e+00  -7.1765223336275987e+00  -6.6340650256058646e+00 
 -6.1175759888089996e+00  -5.6289176542647690e+00  -5.1682581180222700e+00  -4.7341699363985326e+00 
 -4.3238891900184715e+00  -3.9337206585627769e+00  -3.5595571157569714e+00  -3.1974638271512981e+00 
 -2.8442655629274283e+00  -2.4980652928756051e+00  -2.1586235645227920e+00  -1.8275371677431809e+00 
 -1.5081757188417011e+00  -1.2053642741241071e+00  -9.2483605901723687e-01  -6.7251701473948744e-01 
 -4.5373692945108712e-01  -2.7248356263329299e-01  -1.3082360407800991e-01  -2.8577637789256465e-02 
 3.6495068761132510e-02  6.9713936774986301e-02  6.5444917632828337e-02  7.6344254685053242e-03 
 -7.3745455865721946e-04  8.7326582289546682e-05  3.9153293064136043e-06  1.0431274655364463e-05 
 8.2438110499585358e-06  7.0767303467043707e-06  5.9507416912822680e-06  4.9466380144703720e-06 
 4.0425616826519187e-06  3.2286151503191404e-06  2.4952937241546320e-06  1.8344002191741737e-06 
 1.2387762881451631e-06  7.0216388540812323e-07  2.1906902746590243e-07  -2.1521703641006608e-07 
 -6.0599829443311066e-07  -9.4671158197762695e-07  -1.2665448546774071e-06  -1.5444125681706077e-06 
 -1.7910856532241317e-06  -2.0084731386646520e-06  -2.1982698275002307e-06  -2.3626755072726405e-06 
 -2.5033354741191267e-06  -2.6219149405913720e-06  -2.7199035673952869e-06  -2.7986969631833802e-06 
 -2.8597612876730185e-06  -2.9042649568631234e-06  -2.9333443956447866e-06  -2.9489822646137178e-06 
 -2.9511541858707210e-06  -2.9411503730647177e-06  -2.9264097964650978e-06  -2.8520606766201978e-06 
 -2.8566375902023063e-06  -2.8087709733560098e-06  -2.7584757136116254e-06  -2.7018239396985847e-06 
 -2.6400112764785774e-06  -2.5737950820148591e-06  -2.5038509285905761e-06  -2.4307845096637542e-06 
 -2.3552793716897274e-06  -2.2778638746999443e-06  -2.1990311907203493e-06  -2.1193047169544227e-06 
 -2.0390955640908749e-06  -1.4444046232401629e-06  0.0000000000000000e+00  0.0000000000000000e+00 
 0.0000000000000000e+00  0.0000000000000000e+00  0.0000000000000000e+00  0.0000000000000000e+00 
 0.0000000000000000e+00  0.0000000000000000e+00  0.0000000000000000e+00  0.0000000000000000e+00 
 0.0000000000000000e+00  0.0000000000000000e+00  0.0000000000000000e+00  0.0000000000000000e+00 
 0.0000000000000000e+00  0.0000000000000000e+00  0.0000000000000000e+00  0.0000000000000000e+00 
 0.0000000000000000e+00  0.0000000000000000e+00  0.0000000000000000e+00  0.0000000000000000e+00 
 0.0000000000000000e+00  0.0000000000000000e+00  0.0000000000000000e+00  0.0000000000000000e+00 
 0.0000000000000000e+00  0.0000000000000000e+00  0.0000000000000000e+00  0.0000000000000000e+00 
 0.0000000000000000e+00  0.0000000000000000e+00  0.0000000000000000e+00  0.0000000000000000e+00 
 0.0000000000000000e+00  0.0000000000000000e+00  0.0000000000000000e+00  0.0000000000000000e+00 
 0.0000000000000000e+00  0.0000000000000000e+00  0.0000000000000000e+00  0.0000000000000000e+00 
 0.0000000000000000e+00  0.0000000000000000e+00  0.0000000000000000e+00  0.0000000000000000e+00 
 0.0000000000000000e+00  0.0000000000000000e+00  0.0000000000000000e+00  0.0000000000000000e+00 
 0.0000000000000000e+00  0.0000000000000000e+00  0.0000000000000000e+00  0.0000000000000000e+00 
 0.0000000000000000e+00  0.0000000000000000e+00  0.0000000000000000e+00  0.0000000000000000e+00 
 0.0000000000000000e+00  0.0000000000000000e+00  0.0000000000000000e+00  0.0000000000000000e+00 
 0.0000000000000000e+00  0.0000000000000000e+00  0.0000000000000000e+00  0.0000000000000000e+00 
 0.0000000000000000e+00  0.0000000000000000e+00  0.0000000000000000e+00  0.0000000000000000e+00 
 0.0000000000000000e+00  0.0000000000000000e+00  0.0000000000000000e+00  0.0000000000000000e+00 
 0.0000000000000000e+00  0.0000000000000000e+00  0.0000000000000000e+00  0.0000000000000000e+00 
 0.0000000000000000e+00  0.0000000000000000e+00  0.0000000000000000e+00  0.0000000000000000e+00 
 0.0000000000000000e+00  0.0000000000000000e+00  0.0000000000000000e+00  0.0000000000000000e+00 
 0.0000000000000000e+00  0.0000000000000000e+00  0.0000000000000000e+00  0.0000000000000000e+00 
 0.0000000000000000e+00  0.0000000000000000e+00  0.0000000000000000e+00  0.0000000000000000e+00 
 0.0000000000000000e+00  0.0000000000000000e+00  0.0000000000000000e+00  0.0000000000000000e+00 
 0.0000000000000000e+00  0.0000000000000000e+00  0.0000000000000000e+00  0.0000000000000000e+00 
 0.0000000000000000e+00  0.0000000000000000e+00  0.0000000000000000e+00  0.0000000000000000e+00 
 0.0000000000000000e+00  0.0000000000000000e+00  0.0000000000000000e+00  0.0000000000000000e+00 
 0.0000000000000000e+00  0.0000000000000000e+00  0.0000000000000000e+00  0.0000000000000000e+00 
 0.0000000000000000e+00  0.0000000000000000e+00  0.0000000000000000e+00  0.0000000000000000e+00 
 0.0000000000000000e+00  0.0000000000000000e+00  0.0000000000000000e+00  0.0000000000000000e+00 
 0.0000000000000000e+00  0.0000000000000000e+00  0.0000000000000000e+00  0.0000000000000000e+00 
 0.0000000000000000e+00  0.0000000000000000e+00  0.0000000000000000e+00  0.0000000000000000e+00 
 0.0000000000000000e+00  0.0000000000000000e+00  0.0000000000000000e+00  0.0000000000000000e+00 
 0.0000000000000000e+00  0.0000000000000000e+00  0.0000000000000000e+00  0.0000000000000000e+00 
 0.0000000000000000e+00  0.0000000000000000e+00  0.0000000000000000e+00  0.0000000000000000e+00 
 0.0000000000000000e+00  0.0000000000000000e+00  0.0000000000000000e+00  0.0000000000000000e+00 
 0.0000000000000000e+00  0.0000000000000000e+00  0.0000000000000000e+00  0.0000000000000000e+00 
 0.0000000000000000e+00  0.0000000000000000e+00  0.0000000000000000e+00  0.0000000000000000e+00 
 0.0000000000000000e+00  0.0000000000000000e+00  0.0000000000000000e+00  0.0000000000000000e+00 
 0.0000000000000000e+00  0.0000000000000000e+00  0.0000000000000000e+00  0.0000000000000000e+00 
 0.0000000000000000e+00  0.0000000000000000e+00  0.0000000000000000e+00  0.0000000000000000e+00 
 0.0000000000000000e+00  0.0000000000000000e+00  0.0000000000000000e+00  0.0000000000000000e+00 
 0.0000000000000000e+00  0.0000000000000000e+00  0.0000000000000000e+00  0.0000000000000000e+00 
 0.0000000000000000e+00  0.0000000000000000e+00  0.0000000000000000e+00  0.0000000000000000e+00 
 0.0000000000000000e+00  0.0000000000000000e+00  0.0000000000000000e+00  0.0000000000000000e+00 
 0.0000000000000000e+00  0.0000000000000000e+00  0.0000000000000000e+00  0.0000000000000000e+00 
 0.0000000000000000e+00  0.0000000000000000e+00  0.0000000000000000e+00  0.0000000000000000e+00 
 0.0000000000000000e+00  0.0000000000000000e+00  0.0000000000000000e+00  0.0000000000000000e+00 
 0.0000000000000000e+00  0.0000000000000000e+00  0.0000000000000000e+00  0.0000000000000000e+00 
 0.0000000000000000e+00  0.0000000000000000e+00  0.0000000000000000e+00  0.0000000000000000e+00 
 0.0000000000000000e+00  0.0000000000000000e+00  0.0000000000000000e+00  0.0000000000000000e+00 
 0.0000000000000000e+00  0.0000000000000000e+00  0.0000000000000000e+00  0.0000000000000000e+00 
 0.0000000000000000e+00  0.0000000000000000e+00  0.0000000000000000e+00  0.0000000000000000e+00 
 0.0000000000000000e+00  0.0000000000000000e+00  0.0000000000000000e+00  0.0000000000000000e+00 
 0.0000000000000000e+00  0.0000000000000000e+00  0.0000000000000000e+00  0.0000000000000000e+00 
 0.0000000000000000e+00  0.0000000000000000e+00  0.0000000000000000e+00  0.0000000000000000e+00 
 0.0000000000000000e+00  0.0000000000000000e+00  0.0000000000000000e+00  0.0000000000000000e+00 
 0.0000000000000000e+00  0.0000000000000000e+00  0.0000000000000000e+00  0.0000000000000000e+00 
 0.0000000000000000e+00  0.0000000000000000e+00  0.0000000000000000e+00  0.0000000000000000e+00 
 0.0000000000000000e+00  0.0000000000000000e+00  0.0000000000000000e+00  0.0000000000000000e+00 
 0.0000000000000000e+00  0.0000000000000000e+00  0.0000000000000000e+00  0.0000000000000000e+00 
 0.0000000000000000e+00  0.0000000000000000e+00  0.0000000000000000e+00  0.0000000000000000e+00 
 0.0000000000000000e+00  0.0000000000000000e+00  0.0000000000000000e+00  0.0000000000000000e+00 
 0.0000000000000000e+00  0.0000000000000000e+00  0.0000000000000000e+00  0.0000000000000000e+00 
 0.0000000000000000e+00  0.0000000000000000e+00  0.0000000000000000e+00  0.0000000000000000e+00 
 0.0000000000000000e+00  0.0000000000000000e+00  0.0000000000000000e+00  0.0000000000000000e+00 
 0.0000000000000000e+00  0.0000000000000000e+00  0.0000000000000000e+00  0.0000000000000000e+00 
 0.0000000000000000e+00  0.0000000000000000e+00  0.0000000000000000e+00  0.0000000000000000e+00 
 0.0000000000000000e+00 
  </PP_BETA>
  <PP_BETA>
  4  2      Beta    L
  1188  
 -4.4046914340519180e-13  -4.5798681425782588e-13  -4.7620117135178191e-13  -4.9513992223576960e-13 
 -5.1483187640110634e-13  -5.3530698910650829e-13  -5.5659640694581411e-13  -5.7873251522795970e-13 
 -6.0174898724127175e-13  -6.2568083547703933e-13  -6.5056446489025355e-13  -6.7643772827856731e-13 
 -7.0333998386369747e-13  -7.3131215516286705e-13  -7.6039679324136242e-13  -7.9063814144090885e-13 
 -8.2208220268232269e-13  -8.5477680944481719e-13  -8.8877169652843104e-13  -9.2411857671024367e-13 
 -9.6087121940947522e-13  -9.9908553248114644e-13  -1.0388196472626938e-12  -1.0801340070029463e-12 
 -1.1230914588079618e-12  -1.1677573492435796e-12  -1.2141996237401516e-12  -1.2624889299506404e-12 
 -1.3126987252193165e-12  -1.3649053883245337e-12  -1.4191883356655868e-12  -1.4756301420703505e-12 
 -1.5343166664075158e-12  -1.5953371821944867e-12  -1.6587845133995998e-12  -1.7247551756452714e-12 
 -1.7933495230268711e-12  -1.8646719007706450e-12  -1.9388308039629114e-12  -2.0159390425920126e-12 
 -2.0961139131540340e-12  -2.1794773770834050e-12  -2.2661562462797410e-12  -2.3562823760131754e-12 
 -2.4499928655016585e-12  -2.5474302664652934e-12  -2.6487427999749599e-12  -2.7540845819251582e-12 
 -2.8636158574739717e-12  -2.9775032448068543e-12  -3.0959199885949920e-12  -3.2190462235338490e-12 
 -3.3470692483627581e-12  -3.4801838107824035e-12  -3.6185924037036083e-12  -3.7625055732780763e-12 
 -3.9121422391796876e-12  -4.0677300276234931e-12  -4.2295056176290728e-12  -4.3977151010549444e-12 
 -4.5726143569516908e-12  -4.7544694408033410e-12  -4.9435569892490216e-12  -5.1401646409005916e-12 
 -5.3445914738964243e-12  -5.5571484608568844e-12  -5.7781589419336314e-12  -6.0079591166722866e-12 
 -6.2468985554367221e-12  -6.4953407311730006e-12  -6.7536635723217323e-12  -7.0222600377200600e-12 
 -7.3015387143678167e-12  -7.5919244389670480e-12  -7.8938589441805431e-12  -8.2078015305923111e-12 
 -8.5342297653922584e-12  -8.8736402088479765e-12  -9.2265491696685520e-12  -9.5934934904095853e-12 
 -9.9750313641142168e-12  -1.0371743183432198e-11  -1.0784232423509114e-11  -1.1213126559988167e-11 
 -1.1659078023521688e-11  -1.2122765192243822e-11  -1.2604893423714260e-11  -1.3106196127903155e-11 
 -1.3627435882848927e-11  -1.4169405594686401e-11  -1.4732929703809647e-11  -1.5318865439004932e-11 
 -1.5928104121460556e-11  -1.6561572520638365e-11  -1.7220234264068349e-11  -1.7905091303212110e-11 
 -1.8617185437623670e-11  -1.9357599899727488e-11  -2.0127461002623695e-11  -2.0927939853427007e-11 
 -2.1760254134746587e-11  -2.2625669957015490e-11  -2.3525503784488704e-11  -2.4461124437838865e-11 
 -2.5433955176395918e-11  -2.6445475863198876e-11  -2.7497225216152478e-11  -2.8590803148713383e-11 
 -2.9727873203666527e-11  -3.0910165083694494e-11  -3.2139477282587865e-11  -3.3417679821100858e-11 
 -3.4746717091612962e-11  -3.6128610815923978e-11  -3.7565463120682528e-11  -3.9059459735124842e-11 
 -4.0612873315990309e-11  -4.2228066904669374e-11  -4.3907497521844980e-11  -4.5653719905093504e-11 
 -4.7469390395132581e-11  -4.9357270976626952e-11  -5.1320233479698305e-11  -5.3361263948531656e-11 
 -5.5483467183723906e-11  -5.7690071465282237e-11  -5.9984433463459722e-11  -6.2370043344896814e-11 
 -6.4850530081836115e-11  -6.7429666972487768e-11  -7.0111377380941763e-11  -7.2899740705359546e-11 
 -7.5798998583523993e-11  -7.8813561345185537e-11  -8.1948014721023073e-11  -8.5207126818421860e-11 
 -8.8595855374682006e-11  -9.2119355298690548e-11  -9.5782986512529324e-11  -9.9592322104947065e-11 
 -1.0355315680909898e-10  -1.0767151581745048e-10  -1.1195366394725266e-10  -1.1640611517053490e-10 
 -1.2103564252310717e-10  -1.2584928840765039e-10  -1.3085437530656458e-10  -1.3605851692087101e-10 
 -1.4146962975211567e-10  -1.4709594514488892e-10  -1.5294602180828204e-10  -1.5902875883532828e-10 
 -1.6535340924023352e-10  -1.7192959403398684e-10  -1.7876731685976814e-10  -1.8587697921040906e-10 
 -1.9326939625106103e-10  -2.0095581327114009e-10  -2.0894792279056881e-10  -2.1725788234634446e-10 
 -2.2589833298648744e-10  -2.3488241849949974e-10  -2.4422380540859150e-10  -2.5393670376108321e-10 
 -2.6403588874461641e-10  -2.7453672316304523e-10  -2.8545518080621148e-10  -2.9680787074913928e-10 
 -3.0861206261762495e-10  -3.2088571285864901e-10  -3.3364749205557160e-10  -3.4691681332967285e-10 
 -3.6071386187122711e-10  -3.7505962564504623e-10  -3.8997592731719410e-10  -4.0548545745144428e-10 
 -4.2161180902597074e-10  -4.3837951332278574e-10  -4.5581407724451572e-10  -4.7394202211528572e-10 
 -4.9279092402472179e-10  -5.1238945577646852e-10  -5.3276743050500321e-10  -5.5395584702711313e-10 
 -5.7598693699703143e-10  -5.9889421393693492e-10  -6.2271252421742726e-10  -6.4747810006552184e-10 
 -6.7322861468077642e-10  -7.0000323954343727e-10  -7.2784270400172793e-10  -7.5678935722897480e-10 
 -7.8688723264477055e-10  -8.1818211489821788e-10  -8.5072160951510514e-10  -8.8455521531499718e-10 
 -9.1973439970837018e-10  -9.5631267698835215e-10  -9.9434568973616704e-10  -1.0338912934640874e-09 
 -1.0750096446246881e-09  -1.1177632921202668e-09  -1.1622172724516190e-09  -1.2084392086509276e-09 
 -1.2564994131492590e-09  -1.3064709947351261e-09  -1.3584299697668473e-09  -1.4124553778078748e-09 
 -1.4686294018609663e-09  -1.5270374933841335e-09  -1.5877685022785165e-09  -1.6509148120459299e-09 
 -1.7165724803216838e-09  -1.7848413849964360e-09  -1.8558253761493877e-09  -1.9296324340238945e-09 
 -2.0063748332858523e-09  -2.0861693138146953e-09  -2.1691372582868027e-09  -2.2554048768214908e-09 
 -2.3451033989704070e-09  -2.4383692733424664e-09  -2.5353443751678881e-09  -2.6361762221171709e-09 
 -2.7410181987032467e-09  -2.8500297896081873e-09  -2.9633768222894288e-09  -3.0812317192344761e-09 
 -3.2037737602479042e-09  -3.3311893551695965e-09  -3.4636723274390945e-09  -3.6014242089373390e-09 
 -3.7446545465544376e-09  -3.8935812209497061e-09  -4.0484307779888745e-09  -4.2094387733626931e-09 
 -4.3768501309111318e-09  -4.5509195151981729e-09  -4.7319117189041373e-09  -4.9201020656246318e-09 
 -5.1157768286889465e-09  -5.3192336666350161e-09  -5.5307820760032820e-09  -5.7507438621383783e-09 
 -5.9794536287146725e-09  -6.2172592867303706e-09  -6.4645225837444827e-09  -6.7216196541616698e-09 
 -6.9889415914020549e-09  -7.2668950428263641e-09  -7.5559028283214189e-09  -7.8564045834868306e-09 
 -8.1688574284015038e-09  -8.4937366629870758e-09  -8.8315364900260617e-09  -9.1827707669346048e-09 
 -9.5479737874335255e-09  -9.9277010943063143e-09  -1.0322530324480888e-08  -1.0733062087720308e-08 
 -1.1159920880259159e-08  -1.1603756034775466e-08  -1.2065242708143039e-08  -1.2545082908467043e-08 
 -1.3044006562964700e-08  -1.3562772628315887e-08  -1.4102170245172506e-08  -1.4663019938582711e-08 
 -1.5246174866156306e-08  -1.5852522115869580e-08  -1.6482984055484084e-08  -1.7138519735631853e-08 
 -1.7820126348701555e-08  -1.8528840745744088e-08  -1.9265741013706292e-08  -2.0031948115390802e-08 
 -2.0828627594637254e-08  -2.1656991349318512e-08  -2.2518299474848920e-08  -2.3413862181008978e-08 
 -2.4345041785001896e-08  -2.5313254783773944e-08  -2.6319974008750643e-08  -2.7366730866267212e-08 
 -2.8455117667100068e-08  -2.9586790048643800e-08  -3.0763469493417956e-08  -3.1986945947734034e-08 
 -3.3259080544507056e-08  -3.4581808434352344e-08  -3.5957141729274699e-08  -3.7387172563427289e-08 
 -3.8874076275596588e-08  -4.0420114718253582e-08  -4.2027639698204995e-08  -4.3699096554078652e-08 
 -4.5437027876083521e-08  -4.7244077373704528e-08  -4.9122993897213466e-08  -5.1076635619113415e-08 
 -5.3107974381878815e-08  -5.5220100218602104e-08  -5.7416226053425679e-08  -5.9699692588906439e-08 
 -6.2073973387749421e-08  -6.4542680156638999e-08  -6.7109568240205036e-08  -6.9778542333481648e-08 
 -7.2553662421545197e-08  -7.5439149955370502e-08  -7.8439394273294550e-08  -8.1558959277858563e-08 
 -8.4802590378182850e-08  -8.8175221708435092e-08  -9.1681983633370850e-08  -9.5328210552363498e-08 
 -9.9119449013794319e-08  -1.0306146615214335e-07  -1.0716025846061728e-07  -1.1142206091265507e-07 
 -1.1585335644618652e-07  -1.2046088582507149e-07  -1.2525165789271657e-07  -1.3023296023346667e-07 
 -1.3541237025798846e-07  -1.4079776672950579e-07  -1.4639734174841899e-07  -1.5221961321353637e-07 
 -1.5827343777887459e-07  -1.6456802432572832e-07  -1.7111294797051156e-07  -1.7791816462966238e-07 
 -1.8499402616377706e-07  -1.9235129612400019e-07  -2.0000116612462167e-07  -2.0795527286678697e-07 
 -2.1622571583920718e-07  -2.2482507572279594e-07  -2.3376643352722188e-07  -2.4306339048849065e-07 
 -2.5273008875780408e-07  -2.6278123291318114e-07  -2.7323211232654508e-07  -2.8409862442030145e-07 
 -2.9539729884877890e-07  -3.0714532264130497e-07  -3.1936056634516700e-07  -3.3206161120820228e-07 
 -3.4526777744238578e-07  -3.5899915361137035e-07  -3.7327662718669634e-07  -3.8812191631913435e-07 
 -4.0355760287347756e-07  -4.1960716677703618e-07  -4.3629502173405749e-07  -4.5364655236039640e-07 
 -4.7168815279491022e-07  -4.9044726684630231e-07  -5.0995242973645460e-07  -5.3023331150375373e-07 
 -5.5132076213239903e-07  -5.7324685847633397e-07  -5.9604495304915830e-07  -6.1974972475421871e-07 
 -6.4439723163202077e-07  -6.7002496570518063e-07  -6.9667191000432008e-07  -7.2437859786162687e-07 
 -7.5318717456223358e-07  -7.8314146144718121e-07  -8.1428702256544046e-07  -8.4667123397634843e-07 
 -8.8034335580783279e-07  -9.1535460718001349e-07  -9.5175824410808392e-07  -9.8960964050297944e-07 
 -1.0289663723929324e-06  -1.0698883054940285e-06  -1.1124376862629095e-06  -1.1566792365700436e-06 
 -1.2026802521375421e-06  -1.2505107048911998e-06  -1.3002433493823416e-06  -1.3519538334413144e-06 
 -1.4057208132308910e-06  -1.4616260728744432e-06  -1.5197546488408213e-06  -1.5801949592750368e-06 
 -1.6430389384713575e-06  -1.7083821766932981e-06  -1.7763240655530034e-06  -1.8469679491711341e-06 
 -1.9204212813469467e-06  -1.9967957889776269e-06  -2.0762076419751825e-06  -2.1587776299392914e-06 
 -2.2446313458546047e-06  -2.3338993770918078e-06  -2.4267175040027524e-06  -2.5232269064114910e-06 
 -2.6235743783151905e-06  -2.7279125511211402e-06  -2.8364001257593129e-06  -2.9492021140231408e-06 
 -3.0664900895054222e-06  -3.1884424485106661e-06  -3.3152446813405113e-06  -3.4470896543644388e-06 
 -3.5841779033044909e-06  -3.7267179381797729e-06  -3.8749265603739699e-06  -4.0290291923080141e-06 
 -4.1892602202185455e-06  -4.3558633505633103e-06  -4.5290919805949065e-06  -4.7092095836660248e-06 
 -4.8964901098516239e-06  -5.0912184024967350e-06  -5.2936906313228231e-06  -5.5042147427505687e-06 
 -5.7231109281235653e-06  -5.9507121105438093e-06  -6.1873644510589477e-06  -6.4334278749700130e-06 
 -6.6892766190592106e-06  -6.9552998005690361e-06  -7.2319020087967868e-06  -7.5195039202033273e-06 
 -7.8185429379700077e-06  -8.1294738569753744e-06  -8.4527695552013622e-06  -8.7889217126190191e-06 
 -9.1384415586455143e-06  -9.5018606493073107e-06  -9.8797316752896779e-06  -1.0272629302099445e-05 
 -1.0681151043616506e-05  -1.1105918170360397e-05  -1.1547576653850923e-05  -1.2006798148496147e-05 
 -1.2484281012498521e-05  -1.2980751369328603e-05  -1.3496964211377527e-05  -1.4033704547463367e-05 
 -1.4591788595932770e-05  -1.5172065025168587e-05  -1.5775416243385466e-05  -1.6402759739671561e-05 
 -1.7055049478309713e-05  -1.7733277348494598e-05  -1.8438474671644539e-05  -1.9171713768594942e-05 
 -1.9934109589050131e-05  -2.0726821405765614e-05  -2.1551054576029664e-05  -2.2408062373115573e-05 
 -2.3299147890482916e-05  -2.4225666021613162e-05  -2.5189025518483365e-05  -2.6190691131797126e-05 
 -2.7232185836218663e-05  -2.8315093143981313e-05  -2.9441059510378845e-05  -3.0611796834783570e-05 
 -3.1829085060982404e-05  -3.3094774880770320e-05  -3.4410790544897554e-05  -3.5779132785628980e-05 
 -3.7201881855342898e-05  -3.8681200685770652e-05  -4.0219338172663431e-05  -4.1818632590858207e-05 
 -4.3481515144915067e-05  -4.5210513660700714e-05  -4.7008256423507327e-05  -4.8877476168515126e-05 
 -5.0821014229638403e-05  -5.2841824853033469e-05  -5.4942979681795130e-05  -5.7127672418625423e-05 
 -5.9399223673529471e-05  -6.1761086003868680e-05  -6.4216849154394081e-05  -6.6770245505182738e-05 
 -6.9425155735714425e-05  -7.2185614713648501e-05  -7.5055817617204049e-05  -7.8040126300391523e-05 
 -8.1143075910719082e-05  -8.4369381769363875e-05  -8.7723946524207185e-05  -9.1211867586530644e-05 
 -9.4838444862608843e-05  -9.8609188791863386e-05  -1.0252982870371865e-04  -1.0660632150576800e-04 
 -1.1084486071636037e-04  -1.1525188585523587e-04  -1.1983409220637432e-04  -1.2459844096778138e-04 
 -1.2955216980351330e-04  -1.3470280381385470e-04  -1.4005816694017686e-04  -1.4562639382166768e-04 
 -1.5141594212179720e-04  -1.5743560534308711e-04  -1.6369452614948076e-04  -1.7020221021638095e-04 
 -1.7696854062919959e-04  -1.8400379285209040e-04  -1.9131865028940159e-04  -1.9892422046324291e-04 
 -2.0683205183151429e-04  -2.1505415127168380e-04  -2.2360300225660162e-04  -2.3249158374966989e-04 
 -2.4173338984777263e-04  -2.5134245020146735e-04  -2.6133335124312707e-04  -2.7172125825490585e-04 
 -2.8252193830966536e-04  -2.9375178411930077e-04  -3.0542783882626300e-04  -3.1756782177547004e-04 
 -3.3019015530527836e-04  -3.4331399259769445e-04  -3.5695924662958607e-04  -3.7114662026829982e-04 
 -3.8589763755680602e-04  -4.0123467623523105e-04  -4.1718100154753215e-04  -4.3376080138393929e-04 
 -4.5099922281180036e-04  -4.6892241004954026e-04  -4.8755754394058290e-04  -5.0693288298632325e-04 
 -5.2707780599956162e-04  -5.4802285644224786e-04  -5.6979978851384163e-04  -5.9244161505927421e-04 
 -6.1598265736814684e-04  -6.4045859693968464e-04  -6.6590652929081025e-04  -6.9236501988788291e-04 
 -7.1987416228564262e-04  -7.4847563856050229e-04  -7.7821278212813474e-04  -8.0913064303983115e-04 
 -8.4127605585495051e-04  -8.7469771019075963e-04  -9.0944622405593912e-04  -9.4557422007611903e-04 
 -9.8313640472754696e-04  -1.0221896506947231e-03  -1.0627930824779449e-03  -1.1050081653768125e-03 
 -1.1488987979845434e-03  -1.1945314083303370e-03  -1.2419750538146812e-03  -1.2913015250874630e-03 
 -1.3425854540234175e-03  -1.3959044259595228e-03  -1.4513390963599134e-03  -1.5089733120854391e-03 
 -1.5688942374501287e-03  -1.6311924852536357e-03  -1.6959622529875646e-03  -1.7633014644204269e-03 
 -1.8333119167758378e-03  -1.9060994337255835e-03  -1.9817740244299524e-03  -2.0604500488643272e-03 
 -2.1422463896859124e-03  -2.2272866308988459e-03  -2.3156992435915732e-03  -2.4076177790285287e-03 
 -2.5031810693922144e-03  -2.6025334364821306e-03  -2.7058249086914514e-03  -2.8132114465941969e-03 
 -2.9248551774921630e-03  -3.0409246392830340e-03  -3.1615950340281853e-03  -3.2870484916145723e-03 
 -3.4174743439223448e-03  -3.5530694099261580e-03  -3.6940382921800035e-03  -3.8405936851513625e-03 
 -3.9929566958938779e-03  -4.1513571775683641e-03  -4.3160340763443786e-03  -4.4872357922398345e-03 
 -4.6652205544800525e-03  -4.8502568119847171e-03  -5.0426236396200344e-03  -5.2426111608811733e-03 
 -5.4505209877030621e-03  -5.6666666781289426e-03  -5.8913742126018315e-03  -6.1249824896796113e-03 
 -6.3678438420146704e-03  -6.6203245734783069e-03  -6.8828055183542082e-03  -7.1556826235713664e-03 
 -7.4393675549950461e-03  -7.7342883288452303e-03  -8.0408899693679529e-03  -8.3596351939410913e-03 
 -8.6910051268589451e-03  -9.0355000431043535e-03  -9.3936401434861587e-03  -9.7659663625945820e-03 
 -1.0153041211103424e-02  -1.0555449654033022e-02  -1.0973800026675751e-02  -1.1408724989979016e-02 
 -1.1860882527283980e-02  -1.2330956984421240e-02  -1.2819660155283014e-02  -1.3327732415108725e-02 
 -1.3855943903854435e-02  -1.4405095762150726e-02  -1.4976021422505958e-02  -1.5569587958563670e-02 
 -1.6186697495395985e-02  -1.6828288683990965e-02  -1.7495338243284617e-02  -1.8188862573292001e-02 
 -1.8909919443111295e-02  -1.9659609757808082e-02  -2.0439079408430379e-02  -2.1249521209681450e-02 
 -2.2092176930054986e-02  -2.2968339419527816e-02  -2.3879354840267708e-02  -2.4826625006098276e-02 
 -2.5811609836900746e-02  -2.6835829934459172e-02  -2.7900869286725950e-02  -2.9008378107903257e-02 
 -3.0160075822224991e-02  -3.1357754199805458e-02  -3.2603280653515886e-02  -3.3898601706351020e-02 
 -3.5245746639419179e-02  -3.6646831331306244e-02  -3.8104062300274841e-02  -3.9619740961452869e-02 
 -4.1196268111989488e-02  -4.2836148657947042e-02  -4.4541996597569147e-02  -4.6316540276496752e-02 
 -4.8162627931459624e-02  -5.0083233540005462e-02  -5.2081462994886897e-02  -5.4160560622903586e-02 
 -5.6323916069097223e-02  -5.8575071568578628e-02  -6.0917729629442002e-02  -6.3355761151590570e-02 
 -6.5893214007904322e-02  -6.8534322115314544e-02  -7.1283515025229741e-02  -7.4145428064077729e-02 
 -7.7124913056481642e-02  -8.0227049665200015e-02  -8.3457157383702241e-02  -8.6820808218923559e-02 
 -9.0323840103559427e-02  -9.3972371078927100e-02  -9.7772814291271701e-02  -1.0173189384609226e-01 
 -1.0585666156660636e-01  -1.1015451470445890e-01  -1.1463321465195184e-01  -1.1930090670670832e-01 
 -1.2416614094107194e-01  -1.2923789422941828e-01  -1.3452559348779020e-01  -1.4003914018062721e-01 
 -1.4578893615004418e-01  -1.5178591082275394e-01  -1.5804154984966834e-01  -1.6456792523206429e-01 
 -1.7137772698681594e-01  -1.7848429640110208e-01  -1.8590166092417823e-01  -1.9364457074005786e-01 
 -2.0172853706043711e-01  -2.1016987217153413e-01  -2.1898573126171686e-01  -2.2819415604869672e-01 
 -2.3781412021554582e-01  -2.4786557665368833e-01  -2.5836950649826523e-01  -2.6934796992644128e-01 
 -2.8082415867260352e-01  -2.9282245019534137e-01  -3.0536846340987173e-01  -3.1848911587550388e-01 
 -3.3221268230140849e-01  -3.4656885420430161e-01  -3.6158880051931352e-01  -3.7730522892971591e-01 
 -3.9375244764253664e-01  -4.1096642729477667e-01  -4.2898486262995933e-01  -4.4784723353573497e-01 
 -4.6759486498176345e-01  -4.8827098534200258e-01  -5.0992078252812278e-01  -5.3259145730046442e-01 
 -5.5633227306121780e-01  -5.8119460137091017e-01  -6.0723196236552002e-01  -6.3450005918798091e-01 
 -6.6305680548580859e-01  -6.9296234496758990e-01  -7.2427906195660796e-01  -7.5707158183185908e-01 
 -7.9140676020751366e-01  -8.2735365967376640e-01  -8.6498351290817788e-01  -9.0436967097006538e-01 
 -9.4558753561464115e-01  -9.8871447451310845e-01  -1.0338297183429004e+00  -1.0810142388245858e+00 
 -1.1303506069322484e+00  -1.1819228306987593e+00  -1.2358161722801684e+00  -1.2921169442406208e+00 
 -1.3509122853753863e+00  -1.4122899168093626e+00  -1.4763378795960886e+00  -1.5431442556009902e+00 
 -1.6127968740843599e+00  -1.6853830071048148e+00  -1.7609890576412661e+00  -1.8397002451763826e+00 
 -1.9216002943902737e+00  -2.0067711335682397e+00  -2.0952926103162888e+00  -2.1872422331817507e+00 
 -2.2826949487682144e+00  -2.3817229648813885e+00  -2.4843956311062572e+00  -2.5907793889485009e+00 
 -2.7009378042208558e+00  -2.8149316946527394e+00  -2.9328193656803712e+00  -3.0546569669538099e+00 
 -3.1804989811915223e+00  -3.3103988555314077e+00  -3.4444097833727998e+00  -3.5825856417812232e+00 
 -3.7249820857416118e+00  -3.8716577958071556e+00  -4.0226758699234972e+00  -4.1781053433506372e+00 
 -4.3380228126222864e+00  -4.5025141303706659e+00  -4.6716761276409065e+00  -4.8456182107699588e+00 
 -5.0244642910702977e+00  -5.2083538782432104e+00  -5.3974432645047106e+00  -5.5919064588564211e+00 
 -5.7919354327948405e+00  -5.9977398068388608e+00  -6.2095457812873454e+00  -6.4275941667287837e+00 
 -6.6521373669608783e+00  -6.8834351678871553e+00  -7.1217491958135577e+00  -7.3673359210827325e+00 
 -7.6204381086924711e+00  -7.8812746483727798e+00  -8.1500287417957757e+00  -8.4268344774825117e+00 
 -8.7117618924237004e+00  -9.0048006966093794e+00  -9.3058429276164905e+00  -9.6146649003258631e+00 
 -9.9309089273409814e+00  -1.0254065392268499e+01  -1.0583455872632520e+01  -1.0918218109553509e+01 
 -1.1257293711018312e+01  -1.1599419540864339e+01  -1.1943123776377609e+01  -1.2286727607308334e+01 
 -1.2628353481299969e+01  -1.2965940673374597e+01  -1.3297268755702987e+01  -1.3619989270325734e+01 
 -1.3931665556945807e+01  -1.4229820270358415e+01  -1.4511989646828313e+01  -1.4775783068784524e+01 
 -1.5018945955437383e+01  -1.5239423512442292e+01  -1.5435422439742608e+01  -1.5605467370404526e+01 
 -1.5748448632191055e+01  -1.5863657928690280e+01  -1.5950808758868208e+01  -1.6010038850757635e+01 
 -1.6041892586715999e+01  -1.6047282329942757e+01  -1.6027428700517188e+01  -1.5983781145739318e+01 
 -1.5917921545703129e+01  -1.5831455009163868e+01  -1.5725893364235040e+01  -1.5602538030152999e+01 
 -1.5462369872973442e+01  -1.5305954192390715e+01  -1.5133369064306322e+01  -1.4944164785826235e+01 
 -1.4737361066211438e+01  -1.4511486850074418e+01  -1.4264665240632297e+01  -1.3994742983921421e+01 
 -1.3699460497346386e+01  -1.3376654684585260e+01  -1.3024483048564289e+01  -1.2641654239737102e+01 
 -1.2227647542096618e+01  -1.1782902300147510e+01  -1.1308958277179190e+01  -1.0808529666910056e+01 
 -1.0285499069870980e+01  -9.7448231127333482e+00  -9.1923482496160123e+00  -8.6345431457308965e+00 
 -8.0781622467329530e+00  -7.5298629084267690e+00  -6.9958049892767482e+00  -6.4812663319453545e+00 
 -5.9903094185671870e+00  -5.5255332134697612e+00  -5.0879395435463799e+00  -4.6769353175457518e+00 
 -4.2904807376519605e+00  -3.9253800226371185e+00  -3.5776960110461293e+00  -3.2432547010559083e+00 
 -2.9181920313113139e+00  -2.5994850169290777e+00  -2.2854047912998583e+00  -1.9758319766940742e+00 
 -1.6723862081460030e+00  -1.3783415031207240e+00  -1.0983259078698342e+00  -8.3783424933380857e-01 
 -6.0261235932887569e-01  -3.9799430752707415e-01  -2.2828904109798043e-01  -9.6288470897557710e-02 
 -3.1628503081498126e-03  5.3011295914978628e-02  6.3141331221609351e-02  8.0679923641233126e-03 
 -6.6320139801702600e-04  1.8801162657196272e-04  9.3469948668377845e-05  9.3224878231777951e-05 
 8.4443253144709097e-05  7.7223493133736647e-05  7.0509514998814087e-05  6.4352413009545126e-05 
 5.8698210891544651e-05  5.3507299245780046e-05  4.8742286798997340e-05  4.4368897221337353e-05 
 4.0355596076964496e-05  3.6673383608366426e-05  3.3295576723606621e-05  3.0197636556438727e-05 
 2.7356976983488244e-05  2.4752883181402082e-05  2.2365735531649368e-05  2.0183023901328622e-05 
 1.8139568113244904e-05  1.6337605810963999e-05  1.4654369533332361e-05  1.3117641583420753e-05 
 1.1712117305960556e-05  1.0427690402732150e-05  9.2547668814847471e-06  8.1846054162608570e-06 
 7.2090375383519163e-06  6.3208341804246494e-06  5.5133638501042913e-06  4.7795522928147670e-06 
 4.1150369827451985e-06  3.5144061650392091e-06  2.9656937647497352e-06  2.5273792451649920e-06 
 2.0404944914051128e-06  1.6502387446532988e-06  1.2977180316259190e-06  9.8501697723693476e-07 
 7.0857827962915761e-07  4.6548544130973978e-07  2.5301540588887911e-07  6.8619753832084423e-08 
 -9.0235460659885929e-08  -2.2583978768288372e-07  -3.4036713211217702e-07  -4.3594127328694341e-07 
 -5.1449265936244694e-07  2.3889786992887033e-08  0.0000000000000000e+00  0.0000000000000000e+00 
 0.0000000000000000e+00  0.0000000000000000e+00  0.0000000000000000e+00  0.0000000000000000e+00 
 0.0000000000000000e+00  0.0000000000000000e+00  0.0000000000000000e+00  0.0000000000000000e+00 
 0.0000000000000000e+00  0.0000000000000000e+00  0.0000000000000000e+00  0.0000000000000000e+00 
 0.0000000000000000e+00  0.0000000000000000e+00  0.0000000000000000e+00  0.0000000000000000e+00 
 0.0000000000000000e+00  0.0000000000000000e+00  0.0000000000000000e+00  0.0000000000000000e+00 
 0.0000000000000000e+00  0.0000000000000000e+00  0.0000000000000000e+00  0.0000000000000000e+00 
 0.0000000000000000e+00  0.0000000000000000e+00  0.0000000000000000e+00  0.0000000000000000e+00 
 0.0000000000000000e+00  0.0000000000000000e+00  0.0000000000000000e+00  0.0000000000000000e+00 
 0.0000000000000000e+00  0.0000000000000000e+00  0.0000000000000000e+00  0.0000000000000000e+00 
 0.0000000000000000e+00  0.0000000000000000e+00  0.0000000000000000e+00  0.0000000000000000e+00 
 0.0000000000000000e+00  0.0000000000000000e+00  0.0000000000000000e+00  0.0000000000000000e+00 
 0.0000000000000000e+00  0.0000000000000000e+00  0.0000000000000000e+00  0.0000000000000000e+00 
 0.0000000000000000e+00  0.0000000000000000e+00  0.0000000000000000e+00  0.0000000000000000e+00 
 0.0000000000000000e+00  0.0000000000000000e+00  0.0000000000000000e+00  0.0000000000000000e+00 
 0.0000000000000000e+00  0.0000000000000000e+00  0.0000000000000000e+00  0.0000000000000000e+00 
 0.0000000000000000e+00  0.0000000000000000e+00  0.0000000000000000e+00  0.0000000000000000e+00 
 0.0000000000000000e+00  0.0000000000000000e+00  0.0000000000000000e+00  0.0000000000000000e+00 
 0.0000000000000000e+00  0.0000000000000000e+00  0.0000000000000000e+00  0.0000000000000000e+00 
 0.0000000000000000e+00  0.0000000000000000e+00  0.0000000000000000e+00  0.0000000000000000e+00 
 0.0000000000000000e+00  0.0000000000000000e+00  0.0000000000000000e+00  0.0000000000000000e+00 
 0.0000000000000000e+00  0.0000000000000000e+00  0.0000000000000000e+00  0.0000000000000000e+00 
 0.0000000000000000e+00  0.0000000000000000e+00  0.0000000000000000e+00  0.0000000000000000e+00 
 0.0000000000000000e+00  0.0000000000000000e+00  0.0000000000000000e+00  0.0000000000000000e+00 
 0.0000000000000000e+00  0.0000000000000000e+00  0.0000000000000000e+00  0.0000000000000000e+00 
 0.0000000000000000e+00  0.0000000000000000e+00  0.0000000000000000e+00  0.0000000000000000e+00 
 0.0000000000000000e+00  0.0000000000000000e+00  0.0000000000000000e+00  0.0000000000000000e+00 
 0.0000000000000000e+00  0.0000000000000000e+00  0.0000000000000000e+00  0.0000000000000000e+00 
 0.0000000000000000e+00  0.0000000000000000e+00  0.0000000000000000e+00  0.0000000000000000e+00 
 0.0000000000000000e+00  0.0000000000000000e+00  0.0000000000000000e+00  0.0000000000000000e+00 
 0.0000000000000000e+00  0.0000000000000000e+00  0.0000000000000000e+00  0.0000000000000000e+00 
 0.0000000000000000e+00  0.0000000000000000e+00  0.0000000000000000e+00  0.0000000000000000e+00 
 0.0000000000000000e+00  0.0000000000000000e+00  0.0000000000000000e+00  0.0000000000000000e+00 
 0.0000000000000000e+00  0.0000000000000000e+00  0.0000000000000000e+00  0.0000000000000000e+00 
 0.0000000000000000e+00  0.0000000000000000e+00  0.0000000000000000e+00  0.0000000000000000e+00 
 0.0000000000000000e+00  0.0000000000000000e+00  0.0000000000000000e+00  0.0000000000000000e+00 
 0.0000000000000000e+00  0.0000000000000000e+00  0.0000000000000000e+00  0.0000000000000000e+00 
 0.0000000000000000e+00  0.0000000000000000e+00  0.0000000000000000e+00  0.0000000000000000e+00 
 0.0000000000000000e+00  0.0000000000000000e+00  0.0000000000000000e+00  0.0000000000000000e+00 
 0.0000000000000000e+00  0.0000000000000000e+00  0.0000000000000000e+00  0.0000000000000000e+00 
 0.0000000000000000e+00  0.0000000000000000e+00  0.0000000000000000e+00  0.0000000000000000e+00 
 0.0000000000000000e+00  0.0000000000000000e+00  0.0000000000000000e+00  0.0000000000000000e+00 
 0.0000000000000000e+00  0.0000000000000000e+00  0.0000000000000000e+00  0.0000000000000000e+00 
 0.0000000000000000e+00  0.0000000000000000e+00  0.0000000000000000e+00  0.0000000000000000e+00 
 0.0000000000000000e+00  0.0000000000000000e+00  0.0000000000000000e+00  0.0000000000000000e+00 
 0.0000000000000000e+00  0.0000000000000000e+00  0.0000000000000000e+00  0.0000000000000000e+00 
 0.0000000000000000e+00  0.0000000000000000e+00  0.0000000000000000e+00  0.0000000000000000e+00 
 0.0000000000000000e+00  0.0000000000000000e+00  0.0000000000000000e+00  0.0000000000000000e+00 
 0.0000000000000000e+00  0.0000000000000000e+00  0.0000000000000000e+00  0.0000000000000000e+00 
 0.0000000000000000e+00  0.0000000000000000e+00  0.0000000000000000e+00  0.0000000000000000e+00 
 0.0000000000000000e+00  0.0000000000000000e+00  0.0000000000000000e+00  0.0000000000000000e+00 
 0.0000000000000000e+00  0.0000000000000000e+00  0.0000000000000000e+00  0.0000000000000000e+00 
 0.0000000000000000e+00  0.0000000000000000e+00  0.0000000000000000e+00  0.0000000000000000e+00 
 0.0000000000000000e+00  0.0000000000000000e+00  0.0000000000000000e+00  0.0000000000000000e+00 
 0.0000000000000000e+00  0.0000000000000000e+00  0.0000000000000000e+00  0.0000000000000000e+00 
 0.0000000000000000e+00  0.0000000000000000e+00  0.0000000000000000e+00  0.0000000000000000e+00 
 0.0000000000000000e+00  0.0000000000000000e+00  0.0000000000000000e+00  0.0000000000000000e+00 
 0.0000000000000000e+00  0.0000000000000000e+00  0.0000000000000000e+00  0.0000000000000000e+00 
 0.0000000000000000e+00  0.0000000000000000e+00  0.0000000000000000e+00  0.0000000000000000e+00 
 0.0000000000000000e+00  0.0000000000000000e+00  0.0000000000000000e+00  0.0000000000000000e+00 
 0.0000000000000000e+00  0.0000000000000000e+00  0.0000000000000000e+00  0.0000000000000000e+00 
 0.0000000000000000e+00  0.0000000000000000e+00  0.0000000000000000e+00  0.0000000000000000e+00 
 0.0000000000000000e+00  0.0000000000000000e+00  0.0000000000000000e+00  0.0000000000000000e+00 
 0.0000000000000000e+00  0.0000000000000000e+00  0.0000000000000000e+00  0.0000000000000000e+00 
 0.0000000000000000e+00  0.0000000000000000e+00  0.0000000000000000e+00  0.0000000000000000e+00 
 0.0000000000000000e+00  0.0000000000000000e+00  0.0000000000000000e+00  0.0000000000000000e+00 
 0.0000000000000000e+00  0.0000000000000000e+00  0.0000000000000000e+00  0.0000000000000000e+00 
 0.0000000000000000e+00  0.0000000000000000e+00  0.0000000000000000e+00  0.0000000000000000e+00 
 0.0000000000000000e+00  0.0000000000000000e+00  0.0000000000000000e+00  0.0000000000000000e+00 
 0.0000000000000000e+00 
  </PP_BETA>
  <PP_DIJ>
 4   Number of nonzero Dij
 1 1 1.1841240841633939e+01 
 2 2 1.0757019818468805e+01 
 3 3 -1.0833985239743107e-01 
 4 4 -1.1846863495757162e-01 
  </PP_DIJ>
</PP_NONLOCAL>
<PP_PSWFC>
S    0   2.00          Wavefunction
 6.8256538314483003e-06  6.9149666063911548e-06  7.0054480271442689e-06  7.0971133852829225e-06 
 7.1899781724706308e-06  7.2840580830772553e-06  7.3793690168314131e-06  7.4759270815075474e-06 
 7.5737485956481778e-06  7.6728500913218058e-06  7.7732483169168317e-06  7.8749602399720883e-06 
 7.9780030500444078e-06  8.0823941616136739e-06  8.1881512170259313e-06  8.2952920894749699e-06 
 8.4038348860229347e-06  8.5137979506604842e-06  8.6251998674069363e-06  8.7380594634510360e-06 
 8.8523958123327889e-06  8.9682282371669178e-06  9.0855763139085375e-06  9.2044598746615247e-06 
 9.3248990110301969e-06  9.4469140775148303e-06  9.5705256949516351e-06  9.6957547539977049e-06 
 9.8226224186615992e-06  9.9511501298801091e-06  1.0081359609141822e-05  1.0213272862158114e-05 
 1.0346912182582157e-05  1.0482300155776589e-05  1.0619459662630531e-05  1.0758413883426452e-05 
 1.0899186301757756e-05  1.1041800708497510e-05  1.1186281205819189e-05  1.1332652211269981e-05 
 1.1480938461897433e-05  1.1631165018430047e-05  1.1783357269512603e-05  1.1937540935996916e-05 
 1.2093742075288712e-05  1.2251987085751366e-05  1.2412302711167347e-05  1.2574716045257892e-05 
 1.2739254536262016e-05  1.2905945991575218e-05  1.3074818582449063e-05  1.3245900848752182e-05 
 1.3419221703793563e-05  1.3594810439208953e-05  1.3772696729911274e-05  1.3952910639105638e-05 
 1.4135482623370246e-05  1.4320443537803482e-05  1.4507824641238579e-05  1.4697657601526415e-05 
 1.4889974500887441e-05  1.5084807841333651e-05  1.5282190550161526e-05  1.5482155985516779e-05 
 1.5684737942031985e-05  1.5889970656537938e-05  1.6097888813849792e-05  1.6308527552628793e-05 
 1.6521922471320891e-05  1.6738109634172883e-05  1.6957125577327400e-05  1.7179007314997565e-05 
 1.7403792345722490e-05  1.7631518658704643e-05  1.7862224740230054e-05  1.8095949580172640e-05 
 1.8332732678583528e-05  1.8572614052366732e-05  1.8815634242041995e-05  1.9061834318596319e-05 
 1.9311255890425015e-05  1.9563941110363578e-05  1.9819932682811711e-05  2.0079273870950385e-05 
 2.0342008504053411e-05  2.0608180984894738e-05  2.0877836297252579e-05  2.1151020013511764e-05 
 2.1427778302365614e-05  2.1708157936618529e-05  2.1992206301090684e-05  2.2279971400626195e-05 
 2.2571501868205998e-05  2.2866846973167004e-05  2.3166056629528671e-05  2.3469181404428566e-05 
 2.3776272526668381e-05  2.4087381895371651e-05  2.4402562088754886e-05  2.4721866373013311e-05 
 2.5045348711323101e-05  2.5373063772961107e-05  2.5705066942544236e-05  2.6041414329389500e-05 
 2.6382162776996583e-05  2.6727369872654555e-05  2.7077093957174254e-05  2.7431394134747990e-05 
 2.7790330282938257e-05  2.8153963062797207e-05  2.8522353929118478e-05  2.8895565140823167e-05 
 2.9273659771481747e-05  2.9656701719973604e-05  3.0044755721286110e-05  3.0437887357454924e-05 
 3.0836163068647568e-05  3.1239650164391810e-05  3.1648416834951320e-05  3.2062532162849763e-05 
 3.2482066134545965e-05  3.2907089652261819e-05  3.3337674545964824e-05  3.3773893585507492e-05 
 3.4215820492925653e-05  3.4663529954897616e-05  3.5117097635366266e-05  3.5576600188326569e-05 
 3.6042115270780122e-05  3.6513721555859415e-05  3.6991498746123691e-05  3.7475527587028823e-05 
 3.7965889880573526e-05  3.8462668499123935e-05  3.8965947399419289e-05  3.9475811636760720e-05 
 3.9992347379385761e-05  4.0515641923030926e-05  4.1045783705684906e-05  4.1582862322534650e-05 
 4.2126968541107189e-05  4.2678194316609516e-05  4.3236632807469007e-05  4.3802378391077672e-05 
 4.4375526679741772e-05  4.4956174536840629e-05  4.5544420093196703e-05  4.6140362763659771e-05 
 4.6744103263908321e-05  4.7355743627470558e-05  4.7975387222968202e-05  4.8603138771586170e-05 
 4.9239104364770333e-05  4.9883391482157303e-05  5.0536109009738626e-05  5.1197367258262658e-05 
 5.1867277981877178e-05  5.2545954397016142e-05  5.3233511201533358e-05  5.3930064594086468e-05 
 5.4635732293774869e-05  5.5350633560034233e-05  5.6074889212791594e-05  5.6808621652884059e-05 
 5.7551954882744745e-05  5.8305014527359138e-05  5.9067927855496200e-05  5.9840823801216577e-05 
 6.0623832985662887e-05  6.1417087739134668e-05  6.2220722123452327e-05  6.3034871954613947e-05 
 6.3859674825747975e-05  6.4695270130366890e-05  6.5541799085924656e-05  6.6399404757682638e-05 
 6.7268232082887800e-05  6.8148427895267164e-05  6.9040140949842851e-05  6.9943521948071682e-05 
 7.0858723563313925e-05  7.1785900466635194e-05  7.2725209352945901e-05  7.3676808967482700e-05 
 7.4640860132636763e-05  7.5617525775132461e-05  7.6606970953562240e-05  7.7609362886281783e-05 
 7.8624870979669421e-05  7.9653666856756465e-05  8.0695924386230944e-05  8.1751819711821882e-05 
 8.2821531282067207e-05  8.3905239880471976e-05  8.5003128656060346e-05  8.6115383154327979e-05 
 8.7242191348599200e-05  8.8383743671794038e-05  8.9540233048612092e-05  9.0711854928135805e-05 
 9.1898807316861942e-05  9.3101290812164309e-05  9.4319508636194418e-05  9.5553666670226197e-05 
 9.6803973489449657e-05  9.8070640398219616e-05  9.9353881465766218e-05  1.0065391356237236e-04 
 1.0197095639602444e-04  1.0330523254954284e-04  1.0465696751819782e-04  1.0602638974781817e-04 
 1.0741373067339802e-04  1.0881922475820928e-04  1.1024310953342491e-04  1.1168562563826182e-04 
 1.1314701686064803e-04  1.1462753017842254e-04  1.1612741580107380e-04  1.1764692721202479e-04 
 1.1918632121147077e-04  1.2074585795977814e-04  1.2232580102145046e-04  1.2392641740967058e-04 
 1.2554797763142438e-04  1.2719075573321622e-04  1.2885502934738155e-04  1.3054107973900598e-04 
 1.3224919185345763e-04  1.3397965436454240e-04  1.3573275972328841e-04  1.3750880420736883e-04 
 1.3930808797117195e-04  1.4113091509652536e-04  1.4297759364408500e-04  1.4484843570539545e-04 
 1.4674375745563198e-04  1.4866387920703253e-04  1.5060912546302854e-04  1.5257982497308444e-04 
 1.5457631078825431e-04  1.5659892031746550e-04  1.5864799538453834e-04  1.6072388228595248e-04 
 1.6282693184936864e-04  1.6495749949291564e-04  1.6711594528525400e-04  1.6930263400642437e-04 
 1.7151793520949293e-04  1.7376222328300243e-04  1.7603587751424142e-04  1.7833928215333969e-04 
 1.8067282647820358e-04  1.8303690486030073e-04  1.8543191683130454e-04  1.8785826715061091e-04 
 1.9031636587373940e-04  1.9280662842162757e-04  1.9532947565083293e-04  1.9788533392465284e-04 
 2.0047463518517507e-04  2.0309781702627106e-04  2.0575532276754363e-04  2.0844760152924282e-04 
 2.1117510830816086e-04  2.1393830405452079e-04  2.1673765574987077e-04  2.1957363648599694e-04 
 2.2244672554486974e-04  2.2535740847963415e-04  2.2830617719666135e-04  2.3129353003867315e-04 
 2.3431997186895354e-04  2.3738601415666062e-04  2.4049217506325841e-04  2.4363897953007428e-04 
 2.4682695936700626e-04  2.5005665334238721e-04  2.5332860727402678e-04  2.5664337412144295e-04 
 2.6000151407930169e-04  2.6340359467207655e-04  2.6685019084994794e-04  2.7034188508595749e-04 
 2.7387926747443110e-04  2.7746293583069123e-04  2.8109349579207292e-04  2.8477156092026034e-04 
 2.8849775280496358e-04  2.9227270116894912e-04  2.9609704397444685e-04  2.9997142753094582e-04 
 3.0389650660440318e-04  3.0787294452787865e-04  3.1190141331361668e-04  3.1598259376659744e-04 
 3.2011717559956573e-04  3.2430585754957437e-04  3.2854934749604304e-04  3.3284836258036526e-04 
 3.3720362932707890e-04  3.4161588376662154e-04  3.4608587155969046e-04  3.5061434812322996e-04 
 3.5520207875806560e-04  3.5984983877820675e-04  3.6455841364184220e-04  3.6932859908404679e-04 
 3.7416120125122421e-04  3.7905703683730737e-04  3.8401693322174136e-04  3.8904172860926647e-04 
 3.9413227217153498e-04  3.9928942419057475e-04  4.0451405620413057e-04  4.0980705115290579e-04 
 4.1516930352972849e-04  4.2060171953066855e-04  4.2610521720813036e-04  4.3168072662594619e-04 
 4.3732919001649779e-04  4.4305156193989275e-04  4.4884880944522082e-04  4.5472191223391747e-04 
 4.6067186282526534e-04  4.6669966672405693e-04  4.7280634259045003e-04  4.7899292241204223e-04 
 4.8526045167819691e-04  4.9160998955664382e-04  4.9804260907239351e-04  5.0455939728898298e-04 
 5.1116145549209759e-04  5.1784989937558585e-04  5.2462585922991023e-04  5.3149048013305823e-04 
 5.3844492214394856e-04  5.4549036049836492e-04  5.5262798580744715e-04  5.5985900425878398e-04 
 5.6718463782012211e-04  5.7460612444574567e-04  5.8212471828554687e-04  5.8974168989682962e-04 
 5.9745832645888243e-04  6.0527593199034867e-04  6.1319582756944231e-04  6.2121935155703370e-04 
 6.2934785982265659e-04  6.3758272597346161e-04  6.4592534158615931e-04  6.5437711644199682e-04 
 6.6293947876479818e-04  6.7161387546211615e-04  6.8040177236953234e-04  6.8930465449814401e-04 
 6.9832402628528542e-04  7.0746141184852332e-04  7.1671835524296295e-04  7.2609642072191734e-04 
 7.3559719300097756e-04  7.4522227752552852e-04  7.5497330074175781e-04  7.6485191037119974e-04 
 7.7485977568886408e-04  7.8499858780498770e-04  7.9527005995047183e-04  8.0567592776603636e-04 
 8.1621794959514584e-04  8.2689790678076066e-04  8.3771760396595546e-04  8.4867886939845878e-04 
 8.5978355523916436e-04  8.7103353787466625e-04  8.8243071823386487e-04  8.9397702210870799e-04 
 9.0567440047910482e-04  9.1752482984207978e-04  9.2953031254521554e-04  9.4169287712444073e-04 
 9.5401457864621698e-04  9.6649749905419150e-04  9.7914374752035771e-04  9.9195546080078998e-04 
 1.0049348035960214e-03  1.0180839689161037e-03  1.0314051784504252e-03  1.0449006829423419e-03 
 1.0585727625686914e-03  1.0724237273242359e-03  1.0864559174111194e-03  1.1006717036333832e-03 
 1.1150734877966185e-03  1.1296637031128222e-03  1.1444448146105098e-03  1.1594193195501657e-03 
 1.1745897478450957e-03  1.1899586624877479e-03  1.2055286599815813e-03  1.2213023707785364e-03 
 1.2372824597221982e-03  1.2534716264967101e-03  1.2698726060815281e-03  1.2864881692120638e-03 
 1.3033211228463269e-03  1.3203743106376075e-03  1.3376506134133029e-03  1.3551529496599571e-03 
 1.3728842760145849e-03  1.3908475877623737e-03  1.4090459193408333e-03  1.4274823448504898e-03 
 1.4461599785721843e-03  1.4650819754910855e-03  1.4842515318274822e-03  1.5036718855744530e-03 
 1.5233463170424874e-03  1.5432781494111726e-03  1.5634707492879986e-03  1.5839275272743984e-03 
 1.6046519385391131e-03  1.6256474833989593e-03  1.6469177079071007e-03  1.6684662044489263e-03 
 1.6902966123456121e-03  1.7124126184654841e-03  1.7348179578432579e-03  1.7575164143072820e-03 
 1.7805118211148441e-03  1.8038080615956891e-03  1.8274090698038200e-03  1.8513188311776784e-03 
 1.8755413832088465e-03  1.9000808161193296e-03  1.9249412735475677e-03  1.9501269532432534e-03 
 1.9756421077710838e-03  2.0014910452235365e-03  2.0276781299428206e-03  2.0542077832520589e-03 
 2.0810844841958687e-03  2.1083127702904228e-03  2.1358972382831123e-03  2.1638425449219409e-03 
 2.1921534077347644e-03  2.2208346058184879e-03  2.2498909806383293e-03  2.2793274368373326e-03 
 2.3091489430561553e-03  2.3393605327633573e-03  2.3699673050962323e-03  2.4009744257123726e-03 
 2.4323871276520481e-03  2.4642107122115659e-03  2.4964505498277115e-03  2.5291120809734203e-03 
 2.5622008170648231e-03  2.5957223413797565e-03  2.6296823099879281e-03  2.6640864526928346e-03 
 2.6989405739855899e-03  2.7342505540107896e-03  2.7700223495445622e-03  2.8062619949849365e-03 
 2.8429756033546867e-03  2.8801693673167813e-03  2.9178495602025780e-03  2.9560225370529273e-03 
 2.9946947356723208e-03  3.0338726776962211e-03  3.0735629696717506e-03  3.1137723041518577e-03 
 3.1545074608031296e-03  3.1957753075273982e-03  3.2375828015972865e-03  3.2799369908058660e-03 
 3.3228450146305460e-03  3.3663141054113862e-03  3.4103515895439699e-03  3.4549648886869717e-03 
 3.5001615209846490e-03  3.5459491023043148e-03  3.5923353474890188e-03  3.6393280716255981e-03 
 3.6869351913282095e-03  3.7351647260375292e-03  3.7840247993358002e-03  3.8335236402778300e-03 
 3.8836695847381760e-03  3.9344710767746051e-03  3.9859366700080289e-03  4.0380750290190583e-03 
 4.0908949307613737e-03  4.1444052659919892e-03  4.1986150407186543e-03  4.2535333776645154e-03 
 4.3091695177501950e-03  4.3655328215934366e-03  4.4226327710265023e-03  4.4804789706314480e-03 
 4.5390811492934321e-03  4.5984491617722676e-03  4.6585929902922584e-03  4.7195227461505757e-03 
 4.7812486713442789e-03  4.8437811402161175e-03  4.9071306611192765e-03  4.9713078781012153e-03 
 5.0363235726066970e-03  5.1021886652001872e-03  5.1689142173077908e-03  5.2365114329787146e-03 
 5.3049916606665677e-03  5.3743663950304868e-03  5.4446472787562710e-03  5.5158461043976125e-03 
 5.5879748162375523e-03  5.6610455121702801e-03  5.7350704456033096e-03  5.8100620273802304e-03 
 5.8860328277240354e-03  5.9629955782011497e-03  6.0409631737062151e-03  6.1199486744677447e-03 
 6.1999653080746474e-03  6.2810264715237084e-03  6.3631457332880932e-03  6.4463368354068214e-03 
 6.5306136955953992e-03  6.6159904093774247e-03  6.7024812522373479e-03  6.7901006817942620e-03 
 6.8788633399967727e-03  6.9687840553388841e-03  7.0598778450968718e-03  7.1521599175870861e-03 
 7.2456456744445707e-03  7.3403507129225004e-03  7.4362908282122270e-03  7.5334820157838813e-03 
 7.6319404737473567e-03  7.7316826052335344e-03  7.8327250207955394e-03  7.9350845408298794e-03 
 8.0387781980171963e-03  8.1438232397823135e-03  8.2502371307735384e-03  8.3580375553606329e-03 
 8.4672424201512938e-03  8.5778698565257810e-03  8.6899382231892149e-03  8.8034661087412446e-03 
 8.9184723342625033e-03  9.0349759559175281e-03  9.1529962675733489e-03  9.2725528034335678e-03 
 9.3936653406869186e-03  9.5163539021699654e-03  9.6406387590430437e-03  9.7665404334788403e-03 
 9.8940797013627353e-03  1.0023277595004057e-02  1.0154155405857469e-02  1.0286734687253298e-02 
 1.0421037257136131e-02  1.0557085200810183e-02  1.0694900873690665e-02  1.0834506904059684e-02 
 1.0975926195825526e-02  1.1119181931283811e-02  1.1264297573879346e-02  1.1411296870966703e-02 
 1.1560203856568373e-02  1.1711042854128441e-02  1.1863838479260215e-02  1.2018615642485558e-02 
 1.2175399551964372e-02  1.2334215716211693e-02  1.2495089946800354e-02  1.2658048361046765e-02 
 1.2823117384677400e-02  1.2990323754473189e-02  1.3159694520889290e-02  1.3331257050647026e-02 
 1.3505039029295157e-02  1.3681068463737022e-02  1.3859373684720422e-02  1.4039983349286354e-02 
 1.4222926443172990e-02  1.4408232283170957e-02  1.4595930519425575e-02  1.4786051137681984e-02 
 1.4978624461468087e-02  1.5173681154210953e-02  1.5371252221281285e-02  1.5571369011960687e-02 
 1.5774063221326205e-02  1.5979366892046171e-02  1.6187312416081231e-02  1.6397932536284011e-02 
 1.6611260347890743e-02  1.6827329299897706e-02  1.7046173196314841e-02  1.7267826197289025e-02 
 1.7492322820088498e-02  1.7719697939940118e-02  1.7949986790710248e-02  1.8183224965420002e-02 
 1.8419448416584737e-02  1.8658693456367986e-02  1.8900996756538394e-02  1.9146395348218808e-02 
 1.9394926621415558e-02  1.9646628324315598e-02  1.9901538562338537e-02  2.0159695796930253e-02 
 2.0421138844083760e-02  2.0685906872572875e-02  2.0954039401883093e-02  2.1225576299823922e-02 
 2.1500557779805717e-02  2.1779024397763812e-02  2.2061017048711710e-02  2.2346576962904478e-02 
 2.2635745701592578e-02  2.2928565152345804e-02  2.3225077523925993e-02  2.3525325340686274e-02 
 2.3829351436474050e-02  2.4137198948013625e-02  2.4448911307743959e-02  2.4764532236085633e-02 
 2.5084105733110557e-02  2.5407676069586854e-02  2.5735287777370285e-02  2.6066985639113003e-02 
 2.6402814677259037e-02  2.6742820142295117e-02  2.7087047500224504e-02  2.7435542419230567e-02 
 2.7788350755496058e-02  2.8145518538142338e-02  2.8507091953253256e-02  2.8873117326946130e-02 
 2.9243641107452402e-02  2.9618709846169437e-02  2.9998370177644187e-02  3.0382668798448750e-02 
 3.0771652444907462e-02  3.1165367869634777e-02  3.1563861816842141e-02  3.1967180996373051e-02 
 3.2375372056424011e-02  3.2788481554910313e-02  3.3206555929434931e-02  3.3629641465820065e-02 
 3.4057784265160894e-02  3.4491030209361846e-02  3.4929424925118406e-02  3.5373013746306553e-02 
 3.5821841674745850e-02  3.6275953339303432e-02  3.6735392953308944e-02  3.7200204270253605e-02 
 3.7670430537749877e-02  3.8146114449733017e-02  3.8627298096889168e-02  3.9114022915301833e-02 
 3.9606329633312225e-02  4.0104258216597966e-02  4.0607847811480698e-02  4.1117136686481884e-02 
 4.1632162172155519e-02  4.2152960599237004e-02  4.2679567235157860e-02  4.3212016218989027e-02 
 4.3750340494890232e-02  4.4294571744154881e-02  4.4844740315959350e-02  4.5400875156941266e-02 
 4.5963003739751561e-02  4.6531151990744618e-02  4.7105344216994957e-02  4.7685603032851000e-02 
 4.8271949286263896e-02  4.8864401985155889e-02  4.9462978224123440e-02  5.0067693111800295e-02 
 5.0678559699240705e-02  5.1295588909717263e-02  5.1918789470365968e-02  5.2548167846150143e-02 
 5.3183728176656821e-02  5.3825472216281534e-02  5.4473399278404756e-02  5.5127506184207212e-02 
 5.5787787216822662e-02  5.6454234081576099e-02  5.7126835873105790e-02  5.7805579050221594e-02 
 5.8490447419404089e-02  5.9181422127903845e-02  5.9878481667452632e-02  6.0581601889653384e-02 
 6.1290756034166706e-02  6.2005914770863479e-02  6.2727046257162411e-02  6.3454116211816292e-02 
 6.4187088006454215e-02  6.4925922776224498e-02  6.5670579550916236e-02  6.6421015407961373e-02 
 6.7177185648742435e-02  6.7939043999634477e-02  6.8706542839216025e-02  6.9479633453069026e-02 
 7.0258266317564891e-02  7.1042391413997541e-02  7.1831958574370192e-02  7.2626917860074650e-02 
 7.3427219974615071e-02  7.4232816711420957e-02  7.5043661437670842e-02  7.5859709614898449e-02 
 7.6680919356986496e-02  7.7507252025960816e-02  7.8338672865785733e-02  7.9175151674124811e-02 
 8.0016663511775152e-02  8.0863189449205994e-02  8.1714717349339300e-02  8.2571242685396368e-02 
 8.3432769392316281e-02  8.4299310749920989e-02  8.5170890295672291e-02  8.6047542764540783e-02 
 8.6929315053195316e-02  8.7816267205435977e-02  8.8708473415536351e-02  8.9606023045958563e-02 
 9.0509021655758373e-02  9.1417592035930292e-02  9.2331875247970929e-02  9.3252031662083040e-02 
 9.4178241991717995e-02  9.5110708321590270e-02  9.6049655126914019e-02  9.6995330282425990e-02 
 9.7948006060809778e-02  9.8907980121428374e-02  9.9875576491843851e-02  1.0085114654646288e-01 
 1.0183506998882097e-01  1.0282775584651019e-01  1.0382964349058081e-01  1.0484120369439988e-01 
 1.0586293975042459e-01  1.0689538866712180e-01  1.0793912247230791e-01  1.0899474965344480e-01 
 1.1006291676984536e-01  1.1114431027622976e-01  1.1223965860152721e-01  1.1334973453110796e-01 
 1.1447535794460274e-01  1.1561739896494079e-01  1.1677678157701216e-01  1.1795448777618955e-01 
 1.1915156230758951e-01  1.2036911805611394e-01  1.2160834214470630e-01  1.2287050279355818e-01 
 1.2415695698590522e-01  1.2546915897623767e-01  1.2680866966392887e-01  1.2817716683919264e-01 
 1.2957645628870768e-01  1.3100848372505344e-01  1.3247534747724030e-01  1.3397931184916589e-01 
 1.3552282101900270e-01  1.3710851331572338e-01  1.3873923566978749e-01  1.4041805799428100e-01 
 1.4214828721159592e-01  1.4393348060039798e-01  1.4577745809980150e-01  1.4768431317424213e-01 
 1.4965842181568503e-01  1.5170444924192875e-01  1.5382735384344282e-01  1.5603238793908608e-01 
 1.5832509492587665e-01  1.6071130245225995e-01  1.6319711131029133e-01  1.6578887983155546e-01 
 1.6849320368552123e-01  1.7131689111741727e-01  1.7426693382446037e-01  1.7735047385167454e-01 
 1.8057476708720557e-01  1.8394714414550861e-01  1.8747496963654142e-01  1.9116560101925556e-01 
 1.9502634841528049e-01  1.9906443689861752e-01  2.0328697286270592e-01  2.0770091607958735e-01 
 2.1231305898904590e-01  2.1713001457141626e-01  2.2215821385137036e-01  2.2740391364052764e-01 
 2.3287321454908780e-01  2.3857208858365578e-01  2.4450641481269647e-01  2.5068202064721917e-01 
 2.5710472529042666e-01  2.6378038090888967e-01  2.7071490613687321e-01  2.7791430572630682e-01 
 2.8538466959085584e-01  2.9313214426446355e-01  3.0116287000545156e-01  3.0948287752317849e-01 
 3.1809793966583000e-01  3.2701337543773862e-01  3.3623380642472284e-01  3.4576286905453268e-01 
 3.5560288999881640e-01  3.6575453624932108e-01  3.7621645570899304e-01  3.8698492818194108e-01 
 3.9805355000659087e-01  4.0941297778287922e-01  4.2105075720447005e-01  4.3295126145000912e-01 
 4.4509575951961733e-01  4.5746262807192672e-01  4.7002771068212829e-01  4.8276481624140472e-01 
 4.9564633402973290e-01  5.0864392776939948e-01  5.2172925603815468e-01  5.3487465346089613e-01 
 5.4805369802371884e-01  5.6124158666747448e-01  5.7441524588961979e-01  5.8755311787522180e-01 
 6.0063458643512890e-01  6.1363904046529694e-01  6.2654461416641261e-01  6.3932668980560126e-01 
 6.5195629578464609e-01  6.6439857430598714e-01  6.7661152222903498e-01  6.8854521886128561e-01 
 7.0014173932966406e-01  7.1133590770901101e-01  7.2205696932856445e-01  7.3223116000055033e-01 
 7.4178502968917759e-01  7.5064925284015394e-01  7.5876254505245055e-01  7.6608150132368869e-01 
 7.7259743816869642e-01  7.7831045069237703e-01  7.8322202755375114e-01  7.8733502833462565e-01 
 7.9065365951881106e-01  7.9318344915426975e-01  7.9493122025661467e-01  7.9590506299778629e-01 
 7.9611430570863984e-01  7.9556948470862154e-01  7.9428231295983209e-01  7.9226564752664319e-01 
 7.8953345580579004e-01  7.8610078047566356e-01  7.8198370309757737e-01  7.7719930628638378e-01 
 7.7176563435333390e-01  7.6570165231102671e-01  7.5902720311929450e-01  7.5176296304273471e-01 
 7.4393039498631364e-01  7.3555169967608069e-01  7.2664976455863428e-01  7.1724811030667679e-01 
 7.0737083484045737e-01  6.9704255480740263e-01  6.8628834450354192e-01  6.7513367227277843e-01 
 6.6360433448316503e-01  6.5172638725024978e-01  6.3952607615652635e-01  6.2702976429899115e-01 
 6.1426385908093550e-01  6.0125473824528164e-01  5.8802867572071371e-01  5.7461176791423940e-01 
 5.6102986099055219e-01  5.4730848052934389e-01  5.3347276292870549e-01  5.1954739056081956e-01 
 5.0555653069004092e-01  4.9152377886256376e-01  4.7747210727081690e-01  4.6342381847568603e-01 
 4.4940050477405880e-01  4.3542301336075490e-01  4.2151141729175395e-01  4.0768499215210857e-01 
 3.9396219818523853e-01  3.8036066752602754e-01  3.6689719609560534e-01  3.5358773961753232e-01 
 3.4044741315596594e-01  3.2749049354627247e-01  3.1473042406527202e-01  3.0217982070594623e-01 
 2.8985047945928122e-01  2.7775338406087258e-01  2.6589871375126445e-01  2.5429585068926946e-01 
 2.4295338677065439e-01  2.3187912972715016e-01  2.2108010848949677e-01  2.1056257791811200e-01 
 2.0033202310147508e-01  1.9039316350824886e-01  1.8074995734327975e-01  1.7140560649961534e-01 
 1.6236256251734096e-01  1.5362253395588091e-01  1.4518649556134244e-01  1.3705469956739019e-01 
 1.2922668941067564e-01  1.2170131607408176e-01  1.1447675719709964e-01  1.0755053901648783e-01 
 1.0091956112549259e-01  9.4580123969288943e-02  8.8527958930259706e-02  8.2758260800908784e-02 
 7.7265722395636588e-02  7.2044571015742423e-02  6.7088606454859326e-02  6.2391240214165596e-02 
 5.7945535587501019e-02  5.3744248275072737e-02  4.9779867189810277e-02  4.6044655131596265e-02 
 4.2530689020563783e-02  3.9229899400435315e-02  3.6134108945597862e-02  3.3235069730438403e-02 
 3.0524499045696141e-02  2.7994113573578908e-02  2.5635661760621414e-02  2.3440954254260061e-02 
 2.1401892295510767e-02  1.9510493985628225e-02  1.7758918369048447e-02  1.6139487297638238e-02 
 1.4644705063738219e-02  1.3267275807604763e-02  1.2000118725802419e-02  1.0836381120994070e-02 
 9.7694493505884432e-03  8.7929577437574850e-03  7.9007955682736698e-03  7.0871121384135346e-03 
 6.3463201634419639e-03  5.6730974429132167e-03  5.0623870202612647e-03  4.5093959099832453e-03 
 4.0095925162208518e-03  3.5587028618029194e-03  3.1527057469152723e-03  2.7878269556036155e-03 
 2.4605326263855629e-03  2.1675219004441341e-03  1.9057189572927002e-03  1.6722645435406610e-03 
 1.4645070955238240e-03  1.2799935512434308e-03  1.1164599412662670e-03  9.7182184221137593e-04 
 8.4416477011510212e-04  7.3173458452962885e-04  6.3292796767157799e-04  5.4628303639869694e-04 
 4.7047013831047767e-04  4.0428287690303229e-04  3.4662940451299042e-04  2.9652401580710838e-04 
 2.5307906885472901e-04  2.1549725539433029e-04  1.8306423680227815e-04  1.5514165751450787e-04 
 1.3116054325756292e-04  1.1061508742600102e-04  9.3056825304954841e-05  7.8089192581926376e-05 
 6.5362461715819429e-05  5.4569047230265806e-05  4.5439168856700564e-05  3.7736859661429660e-05 
 3.1256304829221984e-05  2.5818495626761816e-05  2.1268182210664580e-05  1.7471108354249502e-05 
 1.4311510821369024e-05  1.1689865990154707e-05  9.5208664002202394e-06  7.7316101394300304e-06 
 6.2599863773482663e-06  5.0532408685925205e-06  4.0667058683855796e-06  3.2626796069871839e-06 
 2.6094412329524174e-06  2.0803879419019539e-06  1.6532818751229650e-06  1.3095951835873870e-06 
 1.0339424796730270e-06  8.1359107219252788e-07  6.3803957736658915e-07  4.9865614824564850e-07 
 3.8837207980018398e-07  3.0141705839530311e-07  2.3309940220269273e-07  1.7961713683765172e-07 
 1.3790093048627666e-07  1.0548208743495738e-07  8.0382465910021908e-08  6.1023029554799635e-08 
 4.6148173808996108e-08  3.4763349632601164e-08  2.6083929127538255e-08  1.9493397077244235e-08 
 1.4509063255728673e-08  1.0754779423233776e-08  7.9393849384467670e-09  5.8362435930418725e-09 
 4.2695715297224947e-09  3.1140920767880226e-09  2.2665380757246534e-09  1.6170057443113132e-09 
 1.1603299077856483e-09  9.1345733464543501e-10  4.9507137314205769e-10  5.7436485088028909e-10 
 3.9781160579944660e-10  2.7421166251508906e-10  1.8809876791175215e-10  0.0000000000000000e+00 
 0.0000000000000000e+00  0.0000000000000000e+00  0.0000000000000000e+00  0.0000000000000000e+00 
 0.0000000000000000e+00  0.0000000000000000e+00  0.0000000000000000e+00  0.0000000000000000e+00 
 0.0000000000000000e+00  0.0000000000000000e+00  0.0000000000000000e+00  0.0000000000000000e+00 
 0.0000000000000000e+00  0.0000000000000000e+00  0.0000000000000000e+00  0.0000000000000000e+00 
 0.0000000000000000e+00  0.0000000000000000e+00  0.0000000000000000e+00  0.0000000000000000e+00 
 0.0000000000000000e+00  0.0000000000000000e+00  0.0000000000000000e+00  0.0000000000000000e+00 
 0.0000000000000000e+00  0.0000000000000000e+00  0.0000000000000000e+00  0.0000000000000000e+00 
 0.0000000000000000e+00  0.0000000000000000e+00  0.0000000000000000e+00  0.0000000000000000e+00 
 0.0000000000000000e+00  0.0000000000000000e+00  0.0000000000000000e+00  0.0000000000000000e+00 
 0.0000000000000000e+00  0.0000000000000000e+00  0.0000000000000000e+00  0.0000000000000000e+00 
 0.0000000000000000e+00  0.0000000000000000e+00  0.0000000000000000e+00  0.0000000000000000e+00 
 0.0000000000000000e+00  0.0000000000000000e+00  0.0000000000000000e+00  0.0000000000000000e+00 
 0.0000000000000000e+00  0.0000000000000000e+00  0.0000000000000000e+00  0.0000000000000000e+00 
 0.0000000000000000e+00  0.0000000000000000e+00  0.0000000000000000e+00  0.0000000000000000e+00 
 0.0000000000000000e+00  0.0000000000000000e+00  0.0000000000000000e+00  0.0000000000000000e+00 
 0.0000000000000000e+00  0.0000000000000000e+00  0.0000000000000000e+00  0.0000000000000000e+00 
 0.0000000000000000e+00  0.0000000000000000e+00  0.0000000000000000e+00  0.0000000000000000e+00 
 0.0000000000000000e+00  0.0000000000000000e+00  0.0000000000000000e+00  0.0000000000000000e+00 
 0.0000000000000000e+00  0.0000000000000000e+00  0.0000000000000000e+00  0.0000000000000000e+00 
 0.0000000000000000e+00  0.0000000000000000e+00  0.0000000000000000e+00  0.0000000000000000e+00 
 0.0000000000000000e+00  0.0000000000000000e+00  0.0000000000000000e+00  0.0000000000000000e+00 
 0.0000000000000000e+00  0.0000000000000000e+00  0.0000000000000000e+00  0.0000000000000000e+00 
 0.0000000000000000e+00  0.0000000000000000e+00  0.0000000000000000e+00  0.0000000000000000e+00 
 0.0000000000000000e+00  0.0000000000000000e+00  0.0000000000000000e+00  0.0000000000000000e+00 
 0.0000000000000000e+00  0.0000000000000000e+00  0.0000000000000000e+00  0.0000000000000000e+00 
 0.0000000000000000e+00  0.0000000000000000e+00  0.0000000000000000e+00  0.0000000000000000e+00 
 0.0000000000000000e+00  0.0000000000000000e+00  0.0000000000000000e+00  0.0000000000000000e+00 
 0.0000000000000000e+00  0.0000000000000000e+00  0.0000000000000000e+00  0.0000000000000000e+00 
 0.0000000000000000e+00  0.0000000000000000e+00  0.0000000000000000e+00  0.0000000000000000e+00 
 0.0000000000000000e+00  0.0000000000000000e+00  0.0000000000000000e+00  0.0000000000000000e+00 
 0.0000000000000000e+00  0.0000000000000000e+00  0.0000000000000000e+00  0.0000000000000000e+00 
 0.0000000000000000e+00  0.0000000000000000e+00  0.0000000000000000e+00  0.0000000000000000e+00 
 0.0000000000000000e+00  0.0000000000000000e+00  0.0000000000000000e+00  0.0000000000000000e+00 
 0.0000000000000000e+00 
P    1   0.00          Wavefunction
 1.1392301653037216e-10  1.1692385684568922e-10  1.2000374214150005e-10  1.2316475453758278e-10 
 1.2640903099872642e-10  1.2973876477940028e-10  1.3315620690647787e-10  1.3666366770101719e-10 
 1.4026351834012485e-10  1.4395819245996332e-10  1.4775018780098098e-10  1.5164206789648055e-10 
 1.5563646380566445e-10  1.5973607589233217e-10  1.6394367565042847e-10  1.6826210757767890e-10 
 1.7269429109857964e-10  1.7724322253803861e-10  1.8191197714700630e-10  1.8670371118146196e-10 
 1.9162166403616362e-10  1.9666916043460259e-10  2.0184961267664226e-10  2.0716652294536455e-10 
 2.1262348567467785e-10  2.1822418997929251e-10  2.2397242214870243e-10  2.2987206820686159e-10 
 2.3592711653928458e-10  2.4214166058934655e-10  2.4851990162560838e-10  2.5506615158203410e-10 
 2.6178483597302174e-10  2.6868049688522163e-10  2.7575779604815947e-10  2.8302151798574316e-10 
 2.9047657325078397e-10  2.9812800174471785e-10  3.0598097612477126e-10  3.1404080530087335e-10 
 3.2231293802468490e-10  3.3080296657315909e-10  3.3951663052913659e-10  3.4845982066152201e-10 
 3.5763858290766832e-10  3.6705912246066161e-10  3.7672780796426903e-10  3.8665117581838460e-10 
 3.9683593459788572e-10  4.0728896958788607e-10  4.1801734743845155e-10  4.2902832094192445e-10 
 4.4032933393609048e-10  4.5192802633649567e-10  4.6383223930132220e-10  4.7605002053231100e-10 
 4.8858962971531584e-10  5.0145954410416627e-10  5.1466846425161551e-10  5.2822531989124744e-10 
 5.4213927597431746e-10  5.5641973886561041e-10  5.7107636270250233e-10  5.8611905592152714e-10 
 6.0155798795686025e-10  6.1740359611524166e-10  6.3366659263199943e-10  6.5035797191292627e-10 
 6.6748901796692201e-10  6.8507131203441343e-10  7.0311674041671995e-10  7.2163750251164328e-10 
 7.4064611906073084e-10  7.6015544061377737e-10  7.8017865621628709e-10  8.0072930232577470e-10 
 8.2182127196292920e-10  8.4346882410382976e-10  8.6568659331955856e-10  8.8848959966973240e-10 
 9.1189325885664137e-10  9.3591339264684926e-10  9.6056623956732470e-10  9.8586846588329625e-10 
 1.0118371768652993e-09  1.0384899283529880e-09  1.0658447386235584e-09  1.0939201005727981e-09 
 1.1227349942169937e-09  1.1523088995241490e-09  1.1826618095831958e-09  1.2138142441200882e-09 
 1.2457872633699250e-09  1.2786024823144828e-09  1.3122820852947739e-09  1.3468488410085116e-09 
 1.3823261179026310e-09  1.4187378999712560e-09  1.4561088029698053e-09  1.4944640910561883e-09 
 1.5338296938703555e-09  1.5742322240637258e-09  1.6156989952903746e-09  1.6582580406721138e-09 
 1.7019381317499624e-09  1.7467687979348208e-09  1.7927803464704954e-09  1.8400038829225608e-09 
 1.8884713322069288e-09  1.9382154601723249e-09  1.9892698957512708e-09  2.0416691536945399e-09 
 2.0954486579044728e-09  2.1506447653828923e-09  2.2072947908098683e-09  2.2654370317698627e-09 
 2.3251107946424065e-09  2.3863564211747116e-09  2.4492153157542852e-09  2.5137299733998776e-09 
 2.5799440084897874e-09  2.6479021842468678e-09  2.7176504430002034e-09  2.7892359372439176e-09 
 2.8627070615140988e-09  2.9381134851053803e-09  3.0155061856493284e-09  3.0949374835773212e-09 
 3.1764610774911768e-09  3.2601320804655262e-09  3.3460070573064028e-09  3.4341440627912525e-09 
 3.5246026809162580e-09  3.6174440651774250e-09  3.7127309799127714e-09  3.8105278427334634e-09 
 3.9109007680726540e-09  4.0139176118814418e-09  4.1196480175021608e-09  4.2281634627500187e-09 
 4.3395373082349123e-09  4.4538448469561068e-09  4.5711633552032465e-09  4.6915721447982127e-09 
 4.8151526167130216e-09  4.9419883161001203e-09  5.0721649887722196e-09  5.2057706391698393e-09 
 5.3428955898558409e-09  5.4836325425770350e-09  5.6280766409342780e-09  5.7763255347033041e-09 
 5.9284794458498992e-09  6.0846412362839196e-09  6.2449164773980835e-09  6.4094135214384452e-09 
 6.5782435747548234e-09  6.7515207729808113e-09  6.9293622581940189e-09  7.1118882581088195e-09 
 7.2992221673551652e-09  7.4914906308982597e-09  7.6888236296557818e-09  7.8913545683701386e-09 
 8.0992203657955566e-09  8.3125615472606572e-09  8.5315223396693271e-09  8.7562507690039738e-09 
 8.9868987603971074e-09  9.2236222408389813e-09  9.4665812445905574e-09  9.7159400213732997e-09 
 9.9718671474086679e-09  1.0234535639382649e-08  1.0504123071412096e-08  1.0780811695092247e-08 
 1.1064788562706318e-08  1.1356245653680587e-08  1.1655380004370516e-08  1.1962393841265514e-08 
 1.2277494717702479e-08  1.2600895654180604e-08  1.2932815282372126e-08  1.3273477992926508e-08 
 1.3623114087168088e-08  1.3981959932789418e-08  1.4350258123645898e-08  1.4728257643759528e-08 
 1.5116214035642673e-08  1.5514389573055827e-08  1.5923053438315853e-08  1.6342481904274808e-08 
 1.6772958521092321e-08  1.7214774307927760e-08  1.7668227949681875e-08  1.8133625998920684e-08 
 1.8611283083118527e-08  1.9101522117359890e-08  1.9604674522644373e-08  2.0121080449941775e-08 
 2.0651089010149320e-08  2.1195058510106042e-08  2.1753356694824304e-08  2.2326360996101888e-08 
 2.2914458787682801e-08  2.3518047647139496e-08  2.4137535624653312e-08  2.4773341518874995e-08 
 2.5425895160051695e-08  2.6095637700612100e-08  2.6783021913405634e-08  2.7488512497798059e-08 
 2.8212586393829808e-08  2.8955733104649874e-08  2.9718455027442870e-08  3.0501267793073255e-08 
 3.1304700614676370e-08  3.2129296645431838e-08  3.2975613345761049e-08  3.3844222860197447e-08 
 3.4735712404183961e-08  3.5650684661059298e-08  3.6589758189501547e-08  3.7553567841704340e-08 
 3.8542765192568425e-08  3.9558018980199062e-08  4.0600015558006507e-08  4.1669459358715659e-08 
 4.2767073370598483e-08  4.3893599626251272e-08  4.5049799704246944e-08  4.6236455244001850e-08 
 4.7454368474204752e-08  4.8704362755166010e-08  4.9987283135452695e-08  5.1303996923186893e-08 
 5.2655394272392499e-08  5.4042388784787976e-08  5.5465918127431060e-08  5.6926944666633517e-08 
 5.8426456118574411e-08  5.9965466217051615e-08  6.1545015398823294e-08  6.3166171507002499e-08 
 6.4830030512981002e-08  6.6537717257369097e-08  6.8290386210454318e-08  7.0089222252691459e-08 
 7.1935441475752585e-08  7.3830292004678594e-08  7.5775054841687427e-08  7.7771044732210580e-08 
 7.9819611053742653e-08  8.1922138728105281e-08  8.4080049157742418e-08  8.6294801186678305e-08 
 8.8567892086792324e-08  9.0900858570071241e-08  9.3295277827529195e-08  9.5752768595493943e-08 
 9.8274992249982196e-08  1.0086365392990385e-07  1.0352050368985394e-07  1.0624733768327192e-07 
 1.0904599937676921e-07  1.1191838079644464e-07  1.1486642380703202e-07  1.1789212142474341e-07 
 1.2099751916469665e-07  1.2418471642383787e-07  1.2745586790029474e-07  1.3081318505011929e-07 
 1.3425893758240593e-07  1.3779545499379496e-07  1.4142512814340098e-07  1.4515041086922913e-07 
 1.4897382164717288e-07  1.5289794529371596e-07  1.5692543471348859e-07  1.6105901269286128e-07 
 1.6530147374078767e-07  1.6965568597814136e-07  1.7412459307682558e-07  1.7871121624996663e-07 
 1.8341865629453501e-07  1.8825009568777874e-07  1.9320880073888461e-07  1.9829812379732179e-07 
 2.0352150551936433e-07  2.0888247719432218e-07  2.1438466313205521e-07  2.2003178311338433e-07 
 2.2582765490505994e-07  2.3177619684098171e-07  2.3788143047142496e-07  2.4414748328205594e-07 
 2.5057859148458102e-07  2.5717910288091633e-07  2.6395347980281253e-07  2.7090630212892584e-07 
 2.7804227038137266e-07  2.8536620890386788e-07  2.9288306912358854e-07  3.0059793289897745e-07 
 3.0851601595574429e-07  3.1664267141339222e-07  3.2498339340465555e-07  3.3354382079029439e-07 
 3.4232974097176117e-07  3.5134709380431630e-07  3.6060197561324355e-07  3.7010064331587432e-07 
 3.7984951865222257e-07  3.8985519252707705e-07  4.0012442946649973e-07  4.1066417219173908e-07 
 4.2148154631365586e-07  4.3258386515083647e-07  4.4397863467465285e-07  4.5567355858461631e-07 
 4.6767654351745351e-07  4.7999570439344282e-07  4.9263936990361013e-07  5.0561608814151061e-07 
 5.1893463238340266e-07  5.3260400702072311e-07  5.4663345364888219e-07  5.6103245731649630e-07 
 5.7581075293928817e-07  5.9097833188298896e-07  6.0654544871971526e-07  6.2252262816236573e-07 
 6.3892067218176105e-07  6.5575066731131332e-07  6.7302399214419873e-07  6.9075232502808441e-07 
 7.0894765196263098e-07  7.2762227470511198e-07  7.4678881908963460e-07  7.6646024356560517e-07 
 7.8664984796120007e-07  8.0737128247779085e-07  8.2863855692140751e-07  8.5046605017749335e-07 
 8.7286851993535094e-07  8.9586111266889275e-07  9.1945937388042527e-07  9.4367925861441313e-07 
 9.6853714224836147e-07  9.9404983156808949e-07  1.0202345761349241e-06  1.0471090799525003e-06 
 1.0746915134410703e-06  1.1030005257274336e-06  1.1320552572588202e-06  1.1618753527492553e-06 
 1.1924809744671804e-06  1.2238928158733597e-06  1.2561321156182666e-06  1.2892206719084649e-06 
 1.3231808572517115e-06  1.3580356335907737e-06  1.3938085678362112e-06  1.4305238478086563e-06 
 1.4682062986013938e-06  1.5068813993743270e-06  1.5465753005907313e-06  1.5873148417084556e-06 
 1.6291275693375798e-06  1.6720417558768388e-06  1.7160864186414464e-06  1.7612913394952852e-06 
 1.8076870850007940e-06  1.8553050271001930e-06  1.9041773643420776e-06  1.9543371436678353e-06 
 2.0058182827725554e-06  2.0586555930557145e-06  2.1128848031771347e-06  2.1685425832342386e-06 
 2.2256665695769877e-06  2.2842953902773655e-06  2.3444686912706683e-06  2.4062271631863628e-06 
 2.4696125688867600e-06  2.5346677717321331e-06  2.6014367645915171e-06  2.6699646996189230e-06 
 2.7402979188151177e-06  2.8124839853957884e-06  2.8865717159873935e-06  2.9626112136725557e-06 
 3.0406539019074560e-06  3.1207525593343491e-06  3.2029613555127452e-06  3.2873358875936521e-06 
 3.3739332179617649e-06  3.4628119128712353e-06  3.5540320821012597e-06  3.6476554196585143e-06 
 3.7437452455540628e-06  3.8423665486832329e-06  3.9435860308376582e-06  4.0474721518793253e-06 
 4.1540951761075461e-06  4.2635272198503191e-06  4.3758423003125384e-06  4.4911163857143339e-06 
 4.6094274467536866e-06  4.7308555094284116e-06  4.8554827092534824e-06  4.9833933469107533e-06 
 5.1146739453689033e-06  5.2494133085126867e-06  5.3877025813213948e-06  5.5296353116376848e-06 
 5.6753075135688776e-06  5.8248177325640512e-06  5.9782671122113679e-06  6.1357594628012367e-06 
 6.2974013317022631e-06  6.4633020755979464e-06  6.6335739346336450e-06  6.8083321085244528e-06 
 6.9876948346760447e-06  7.1717834683720612e-06  7.3607225650827535e-06  7.5546399649514350e-06 
 7.7536668795164205e-06  7.9579379807281347e-06  8.1675914923221626e-06  8.3827692836110005e-06 
 8.6036169657588997e-06  8.8302839906058172e-06  9.0629237521082947e-06  9.3016936904669964e-06 
 9.5467553990124288e-06  9.7982747339221898e-06  1.0056421926845547e-05  1.0321371700512327e-05 
 1.0593303387406099e-05  1.0872401051583148e-05  1.1158853613721267e-05  1.1452854979484483e-05 
 1.1754604171292287e-05  1.2064305463584257e-05  1.2382168521673359e-05  1.2708408544284124e-05 
 1.3043246409873748e-05  1.3386908826837695e-05  1.3739628487703434e-05  1.4101644227419242e-05 
 1.4473201185847557e-05  1.4854550974575636e-05  1.5245951848159093e-05  1.5647668879917082e-05 
 1.6059974142401601e-05  1.6483146892665665e-05  1.6917473762459836e-05  1.7363248953488964e-05 
 1.7820774437865347e-05  1.8290360163898027e-05  1.8772324267361615e-05  1.9266993288392189e-05 
 1.9774702394161589e-05  2.0295795607486239e-05  2.0830626041529793e-05  2.1379556140764561e-05 
 2.1942957928360211e-05  2.2521213260173416e-05  2.3114714085516866e-05  2.3723862714890919e-05 
 2.4349072094865966e-05  2.4990766090309374e-05  2.5649379774156107e-05  2.6325359724926929e-05 
 2.7019164332204792e-05  2.7731264110285429e-05  2.8462142020223821e-05  2.9212293800505369e-05 
 2.9982228306575761e-05  3.0772467859471193e-05  3.1583548603796572e-05  3.2416020875307148e-05 
 3.3270449578354835e-05  3.4147414573469538e-05  3.5047511075351966e-05  3.5971350061563069e-05 
 3.6919558692203120e-05  3.7892780740881656e-05  3.8891677037287816e-05  3.9916925921679866e-05 
 4.0969223711622158e-05  4.2049285181305434e-05  4.3157844053798013e-05  4.4295653506583939e-05 
 4.5463486690755427e-05  4.6662137264236112e-05  4.7892419939424260e-05  4.9155171045654467e-05 
 5.0451249106888609e-05  5.1781535435060816e-05  5.3146934739508102e-05  5.4548375752937222e-05 
 5.5986811874387315e-05  5.7463221829662185e-05  5.8978610349720475e-05  6.0534008867526451e-05 
 6.2130476233877559e-05  6.3769099452740469e-05  6.5450994436646031e-05  6.7177306782703229e-05 
 6.8949212569816113e-05  7.0767919177699648e-05  7.2634666128310941e-05  7.4550725950329401e-05 
 7.6517405067338652e-05  7.8536044710383272e-05  8.0608021855590727e-05  8.2734750187575550e-05 
 8.4917681089355962e-05  8.7158304659543383e-05  8.9458150757582575e-05  9.1818790077846931e-05 
 9.4241835253415973e-05  9.6728941990388022e-05  9.9281810233607881e-05  1.0190218536471331e-04 
 1.0459185943343772e-04  1.0735267242312595e-04  1.1018651355146033e-04  1.1309532260741562e-04 
 1.1608109132549949e-04  1.1914586479836283e-04  1.2229174292890363e-04  1.2552088192301634e-04 
 1.2883549582417975e-04  1.3223785809111395e-04  1.3573030321976947e-04  1.3931522841095873e-04 
 1.4299509528497670e-04  1.4677243164460226e-04  1.5064983328791278e-04  1.5462996587239499e-04 
 1.5871556683187612e-04  1.6290944734785189e-04  1.6721449437683857e-04  1.7163367273542439e-04 
 1.7617002724475158e-04  1.8082668493621756e-04  1.8560685732023759e-04  1.9051384271997229e-04 
 1.9555102867198519e-04  2.0072189439585602e-04  2.0603001333484590e-04  2.1147905576977355e-04 
 2.1707279150833117e-04  2.2281509265214828e-04  2.2870993644397516e-04  2.3476140819744451e-04 
 2.4097370431194526e-04  2.4735113537522328e-04  2.5389812935641546e-04  2.6061923489229959e-04 
 2.6751912466965158e-04  2.7460259890667256e-04  2.8187458893656590e-04  2.8934016089643075e-04 
 2.9700451952475049e-04  3.0487301207085061e-04  3.1295113231982492e-04  3.2124452473652598e-04 
 3.2975898873234435e-04  3.3850048305862477e-04  3.4747513033066751e-04  3.5668922168642669e-04 
 3.6614922158411983e-04  3.7586177274311403e-04  3.8583370123258744e-04  3.9607202171261269e-04 
 4.0658394283245173e-04  4.1737687279100707e-04  4.2845842506453825e-04  4.3983642430688735e-04 
 4.5151891242765593e-04  4.6351415485391923e-04  4.7583064698124630e-04  4.8847712081997703e-04 
 5.0146255184287049e-04  5.1479616604045589e-04  5.2848744719056616e-04  5.4254614434877597e-04 
 5.5698227956661479e-04  5.7180615584467008e-04  5.8702836532786872e-04  6.0265979775045995e-04 
 6.1871164913840783e-04  6.3519543077714699e-04  6.5212297845284456e-04  6.6950646197554348e-04 
 6.8735839499280539e-04  7.0569164510264160e-04  7.2451944427480625e-04  7.4385539958971003e-04 
 7.6371350430445319e-04  7.8410814925570084e-04  8.0505413460934541e-04  8.2656668196711910e-04 
 8.4866144684053117e-04  8.7135453150275584e-04  8.9466249822923180e-04  9.1860238293801086e-04 
 9.4319170924103983e-04  9.6844850291777211e-04  9.9439130682264397e-04  1.0210391962381612e-03 
 1.0484117946854344e-03  1.0765292902041815e-03  1.1054124521142808e-03  1.1350826482710943e-03 
 1.1655618628268168e-03  1.1968727145101297e-03  1.2290384754365536e-03  1.2620830904617032e-03 
 1.2960311970897514e-03  1.3309081459492241e-03  1.3667400218481530e-03  1.4035536654203836e-03 
 1.4413766953746531e-03  1.4802375313577188e-03  1.5201654174424749e-03  1.5611904462515898e-03 
 1.6033435837266745e-03  1.6466566945524460e-03  1.6911625682446880e-03  1.7368949459100615e-03 
 1.7838885476849646e-03  1.8321791008597216e-03  1.8818033686932968e-03  1.9327991799225242e-03 
 1.9852054589686420e-03  2.0390622568423004e-03  2.0944107827467829e-03  2.1512934363773300e-03 
 2.2097538409126195e-03  2.2698368766923029e-03  2.3315887155722810e-03  2.3950568559469140e-03 
 2.4602901584247520e-03  2.5273388821414047e-03  2.5962547216901791e-03  2.6670908446477190e-03 
 2.7399019296683392e-03  2.8147442051169595e-03  2.8916754882063992e-03  2.9707552246005641e-03 
 3.0520445284403794e-03  3.1356062227444136e-03  3.2215048801311798e-03  3.3098068638043598e-03 
 3.4005803687367111e-03  3.4938954629823624e-03  3.5898241290409053e-03  3.6884403051901165e-03 
 3.7898199266974968e-03  3.8940409668135599e-03  4.0011834774427652e-03  4.1113296293803850e-03 
 4.2245637519960390e-03  4.3409723722368336e-03  4.4606442528152216e-03  4.5836704294388696e-03 
 4.7101442469317609e-03  4.8401613940882047e-03  4.9738199370936769e-03  5.1112203513389073e-03 
 5.2524655514471002e-03  5.3976609193268216e-03  5.5469143300578951e-03  5.7003361754119145e-03 
 5.8580393848048093e-03  6.0201394434755764e-03  6.1867544076832960e-03  6.3580049167138728e-03 
 6.5340142014892683e-03  6.7149080895748253e-03  6.9008150063858869e-03  7.0918659724025900e-03 
 7.2881945962124019e-03  7.4899370632139153e-03  7.6972321198329613e-03  7.9102210531233428e-03 
 8.1290476656503945e-03  8.3538582455860155e-03  8.5848015319801609e-03  8.8220286752145778e-03 
 9.0656931926930730e-03  9.3159509198770824e-03  9.5729599568367650e-03  9.8368806105579073e-03 
 1.0107875333322415e-02  1.0386108657567101e-02  1.0671747127721003e-02  1.0964959229627617e-02 
 1.1265915318273298e-02  1.1574787544669982e-02  1.1891749782876581e-02  1.2216977558291580e-02 
 1.2550647978507466e-02  1.2892939668187574e-02  1.3244032709605891e-02  1.3604108590680300e-02 
 1.3973350162530717e-02  1.4351941608800496e-02  1.4740068429197034e-02  1.5137917439928527e-02 
 1.5545676793940307e-02  1.5963536024081900e-02  1.6391686112562861e-02  1.6830319590278173e-02 
 1.7279630669798693e-02  1.7739815416024707e-02  1.8211071958685304e-02  1.8693600751029077e-02 
 1.9187604879183435e-02  1.9693290426757114e-02  2.0210866899311723e-02  2.0740547713327440e-02 
 2.1282550754225429e-02  2.1837099007872857e-02  2.2404421269780324e-02  2.2984752935885408e-02 
 2.3578336878400032e-02  2.4185424409660226e-02  2.4806276336248115e-02  2.5441164104845197e-02 
 2.6090371040306898e-02  2.6754193675315254e-02  2.7432943169652651e-02  2.8126946815641589e-02 
 2.8836549624600829e-02  2.9562115987276875e-02  3.0304031399116416e-02  3.1062704238955498e-02 
 3.1838567587219750e-02  3.2632081067070634e-02  3.3443732689116622e-02  3.4274040677356850e-02 
 3.5123555250984484e-02  3.5992860333577507e-02  3.6882575158118831e-02  3.7793355733271597e-02 
 3.8725896133472375e-02  3.9680929572793427e-02  4.0659229220264562e-02  4.1661608712565079e-02 
 4.2688922318828211e-02  4.3742064711894041e-02  4.4821970300866362e-02  4.5929612081444589e-02 
 4.7065999963393855e-02  4.8232178538872315e-02  4.9429224261336474e-02  5.0658242012573435e-02 
 5.1920361045232323e-02  5.3216730300185977e-02  5.4548513112271400e-02  5.5916881334498215e-02 
 5.7323008929701449e-02  5.8768065099806574e-02  6.0253207046220017e-02  6.1779572480146108e-02 
 6.3348272028499866e-02  6.4960381709070203e-02  6.6616935677045977e-02  6.8318919473188258e-02 
 7.0067264030838933e-02  7.1862840723475679e-02  7.3706457755350230e-02  7.5598858213384079e-02 
 7.7540720107317149e-02  7.9532658725333091e-02  8.1575231622150426e-02  8.3668946533993274e-02 
 8.5814272478047127e-02  8.8011654241223786e-02  9.0261530392807557e-02  9.2564354866630338e-02 
 9.4920622050205433e-02  9.7330895190687147e-02  9.9795837781488858e-02  1.0231624743068637e-01 
 1.0489309153600904e-01  1.0752754390564992e-01  1.1022102127519529e-01  1.1297521848618679e-01 
 1.1579214092027186e-01  1.1867413263537820e-01  1.2162389853901978e-01  1.2464451887218650e-01 
 1.2773945427948269e-01  1.3091253982177620e-01  1.3416796646050155e-01  1.3751024882039911e-01 
 1.4094417842975976e-01  1.4447476215002591e-01  1.4810714614049234e-01  1.5184652645244553e-01 
 1.5569804819559094e-01  1.5966669614339729e-01  1.6375718060733538e-01  1.6797382336548394e-01 
 1.7232044931921600e-01  1.7680029030214153e-01  1.8141590799800378e-01  1.8616914315226987e-01 
 1.9106109809689806e-01  1.9609215896421708e-01  2.0126206277024111e-01  2.0657001274632811e-01 
 2.1201484286733827e-01  2.1759522948146845e-01  2.2330994436036075e-01  2.2915813948726485e-01 
 2.3513964968349685e-01  2.4125529500822396e-01  2.4750716109236026e-01  2.5389883258338736e-01 
 2.6043555312675082e-01  2.6712428524953002e-01  2.7397364558020448e-01  2.8099369540215147e-01 
 2.8819557384035444e-01  2.9559097107618532e-01  3.0319145168056116e-01  3.1100765295245797e-01 
 3.1904839920182682e-01  3.2731978901270697e-01  3.3582432710546523e-01  3.4456018364254054e-01 
 3.5352066967571200e-01  3.6269401590351052e-01  3.7206353121748154e-01  3.8160819639989801e-01 
 3.9130371634709299e-01  4.0112401201199638e-01  4.1104308295820291e-01  4.2103711663097998e-01 
 4.3108666639971538e-01  4.4117867373684555e-01  4.5130807816417978e-01  4.6147874966585095e-01 
 4.7170349924994182e-01  4.8200297940453879e-01  4.9240337923316035e-01  5.0293294641519803e-01 
 5.1361752160966845e-01  5.2447543626052873e-01  5.3551228200380119e-01  5.4671618467025029e-01 
 5.5805428197828033e-01  5.6947108690383286e-01  5.8088930011945750e-01  5.9221340767334885e-01 
 6.0333607275476087e-01  6.1414693032927903e-01  6.2454296758237704e-01  6.3443928536819638e-01 
 6.4378279756692136e-01  6.5255907191221174e-01  6.6076142291615936e-01  6.6838400501030615e-01 
 6.7542181714942451e-01  6.8187070729043953e-01  6.8772737671836814e-01  6.9298938417174993e-01 
 6.9765514969938269e-01  7.0172395815830246e-01  7.0519596223996872e-01  7.0807218488773482e-01 
 7.1035452094419915e-01  7.1204573784237535e-01  7.1314947513039562e-01  7.1367024259649370e-01 
 7.1361341674038381e-01  7.1298523532007785e-01  7.1179278969108217e-01  7.1004401464928746e-01 
 7.0774767549198558e-01  7.0491335202530891e-01  7.0155141927076681e-01  6.9767302466165826e-01 
 6.9329006157276230e-01  6.8841513909207253e-01  6.8306154802283880e-01  6.7724322319467689e-01 
 6.7097470226190015e-01  6.6427108127168044e-01  6.5714796738989123e-01  6.4962142927353028e-01 
 6.4170794566875033e-01  6.3342435289112198e-01  6.2478779190468092e-01  6.1581565574579100e-01 
 6.0652553804862730e-01  5.9693518341318241e-01  5.8706244030602295e-01  5.7692521711520905e-01 
 5.6654144188234812e-01  5.5592902611610440e-01  5.4510583295911574e-01  5.3408964983450624e-01 
 5.2289816553915391e-01  5.1154895160154845e-01  5.0005944757183152e-01  4.8844694976486586e-01 
 4.7672860285890639e-01  4.6492139364845875e-01  4.5304214616835148e-01  4.4110751736325343e-01 
 4.2913399246344708e-01  4.1713787924764978e-01  4.0513530050879193e-01  3.9314218364611869e-01 
 3.8117424768994734e-01  3.6924698647312271e-01  3.5737564816005962e-01  3.4557521098152466e-01 
 3.3386035528411823e-01  3.2224543217324042e-01  3.1074442917992878e-01  2.9937093351185867e-01 
 2.8813809355140607e-01  2.7705857933576461e-01  2.6614454279456384e-01  2.5540757852991686e-01 
 2.4485868590465587e-01  2.3450823316031735e-01  2.2436592422165011e-01  2.1444076876398646e-01 
 2.0474105602870815e-01  1.9527433277499290e-01  1.8604738565732634e-01  1.7706622822149595e-01 
 1.6833609261988711e-01  1.5986142606203324e-01  1.5164589194004741e-01  1.4369237550164299e-01 
 1.3600299388631340e-01  1.2857911029281413e-01  1.2142135200800627e-01  1.1452963199776423e-01 
 1.0790317373928524e-01  1.0154053895991225e-01  9.5439657939661984e-02  8.9597862032159692e-02 
 8.4011918060851148e-02  7.8678064253401916e-02  7.3592047386475373e-02  6.8749160824943881e-02 
 6.4144283153570514e-02  5.9771917114731510e-02  5.5626228582802882e-02  5.1701085322475880e-02 
 4.7990095299683844e-02  4.4486644326288176e-02  4.1183932847293131e-02  3.8075011689117859e-02 
 3.5152816613103904e-02  3.2410201533042048e-02  2.9839970274932629e-02  2.7434906774561396e-02 
 2.5187803625564081e-02  2.3091488907160795e-02  2.1138851236590147e-02  1.9322863006440382e-02 
 1.7636601781500783e-02  1.6073269843416737e-02  1.4626211884288641e-02  1.3288930862385495e-02 
 1.2055102044325059e-02  1.0918585268388048e-02  9.8734354730675763e-03  8.9139115435285868e-03 
 8.0344835362381652e-03  7.2298383489549176e-03  6.4948839089306624e-03  5.8247519574265915e-03 
 5.2147995126224228e-03  4.6606090964131635e-03  4.1579878130528283e-03  3.7029653693212324e-03 
 3.2917911268432868e-03  2.9209302774208549e-03  2.5870592317837498e-03  2.2870603110719963e-03 
 2.0180158286699987e-03  1.7772016477723904e-03  1.5620802973214719e-03  1.3702937257680137e-03 
 1.1996557685238175e-03  1.0481444010499775e-03  9.1389384531067968e-04  7.9518659288099639e-04 
 6.9044540336054541e-04  5.9822533200388985e-04  5.1720583563126912e-04  4.4618300103209174e-04 
 3.8406193522321717e-04  3.2984935214102126e-04  2.8264638566240051e-04  2.4164165430307969e-04 
 2.0610459856547822e-04  1.7537910773163514e-04  1.4887744894475136e-04  1.2607450771619762e-04 
 1.0650234555093845e-04  8.9745077216265068e-05  7.5434067288075526e-05  6.3243443023882476e-05 
 5.2885918307253880e-05  4.4108921284309595e-05  3.6691016902354860e-05  3.0438613833631228e-05 
 2.5182942356133177e-05  2.0777296147731315e-05  1.7094520826017635e-05  1.4024707485921666e-05 
 1.1473189611494474e-05  9.3586032093128531e-06  7.6112902890239322e-06  6.1717610357573094e-06 
 4.9893787558820325e-06  4.0211768013750803e-06  3.2308123258070417e-06  2.5876437095259427e-06 
 2.0659199862719283e-06  1.6440712709410672e-06  1.3040898815160158e-06  1.0309925552039405e-06 
 8.1235486881219133e-07  6.3790967694240083e-07  4.9920207062047219e-07  3.8929402673256111e-07 
 3.0251255959224527e-07  2.3423579575017095e-07  1.8071196845651015e-07  1.3890686696686236e-07 
 1.0637577666226688e-07  8.1156406849501578e-08  6.1679727411449360e-08  4.6696025257633040e-08 
 3.5213827134316775e-08  2.6449649814286239e-08  1.9786887082117906e-08  1.4742266835131914e-08 
 1.0938403259061829e-08  8.0819993241509084e-09  5.9466537836777933e-09  4.3566329921374045e-09 
 3.1760865183547036e-09  2.3084217107177712e-09  1.6740922173638510e-09  1.1895942323649679e-09 
 8.5078242399251188e-10  6.6768509589043539e-10  3.5887496420171561e-10  4.1822335729540592e-10 
 2.8739540771115220e-10  1.9652977411372025e-10  1.3372911161639896e-10  0.0000000000000000e+00 
 0.0000000000000000e+00  0.0000000000000000e+00  0.0000000000000000e+00  0.0000000000000000e+00 
 0.0000000000000000e+00  0.0000000000000000e+00  0.0000000000000000e+00  0.0000000000000000e+00 
 0.0000000000000000e+00  0.0000000000000000e+00  0.0000000000000000e+00  0.0000000000000000e+00 
 0.0000000000000000e+00  0.0000000000000000e+00  0.0000000000000000e+00  0.0000000000000000e+00 
 0.0000000000000000e+00  0.0000000000000000e+00  0.0000000000000000e+00  0.0000000000000000e+00 
 0.0000000000000000e+00  0.0000000000000000e+00  0.0000000000000000e+00  0.0000000000000000e+00 
 0.0000000000000000e+00  0.0000000000000000e+00  0.0000000000000000e+00  0.0000000000000000e+00 
 0.0000000000000000e+00  0.0000000000000000e+00  0.0000000000000000e+00  0.0000000000000000e+00 
 0.0000000000000000e+00  0.0000000000000000e+00  0.0000000000000000e+00  0.0000000000000000e+00 
 0.0000000000000000e+00  0.0000000000000000e+00  0.0000000000000000e+00  0.0000000000000000e+00 
 0.0000000000000000e+00  0.0000000000000000e+00  0.0000000000000000e+00  0.0000000000000000e+00 
 0.0000000000000000e+00  0.0000000000000000e+00  0.0000000000000000e+00  0.0000000000000000e+00 
 0.0000000000000000e+00  0.0000000000000000e+00  0.0000000000000000e+00  0.0000000000000000e+00 
 0.0000000000000000e+00  0.0000000000000000e+00  0.0000000000000000e+00  0.0000000000000000e+00 
 0.0000000000000000e+00  0.0000000000000000e+00  0.0000000000000000e+00  0.0000000000000000e+00 
 0.0000000000000000e+00  0.0000000000000000e+00  0.0000000000000000e+00  0.0000000000000000e+00 
 0.0000000000000000e+00  0.0000000000000000e+00  0.0000000000000000e+00  0.0000000000000000e+00 
 0.0000000000000000e+00  0.0000000000000000e+00  0.0000000000000000e+00  0.0000000000000000e+00 
 0.0000000000000000e+00  0.0000000000000000e+00  0.0000000000000000e+00  0.0000000000000000e+00 
 0.0000000000000000e+00  0.0000000000000000e+00  0.0000000000000000e+00  0.0000000000000000e+00 
 0.0000000000000000e+00  0.0000000000000000e+00  0.0000000000000000e+00  0.0000000000000000e+00 
 0.0000000000000000e+00  0.0000000000000000e+00  0.0000000000000000e+00  0.0000000000000000e+00 
 0.0000000000000000e+00  0.0000000000000000e+00  0.0000000000000000e+00  0.0000000000000000e+00 
 0.0000000000000000e+00  0.0000000000000000e+00  0.0000000000000000e+00  0.0000000000000000e+00 
 0.0000000000000000e+00  0.0000000000000000e+00  0.0000000000000000e+00  0.0000000000000000e+00 
 0.0000000000000000e+00  0.0000000000000000e+00  0.0000000000000000e+00  0.0000000000000000e+00 
 0.0000000000000000e+00  0.0000000000000000e+00  0.0000000000000000e+00  0.0000000000000000e+00 
 0.0000000000000000e+00  0.0000000000000000e+00  0.0000000000000000e+00  0.0000000000000000e+00 
 0.0000000000000000e+00  0.0000000000000000e+00  0.0000000000000000e+00  0.0000000000000000e+00 
 0.0000000000000000e+00 
P    1   0.00          Wavefunction
 2.6250233183785921e-10  2.6941689224393802e-10  2.7651358872986895e-10  2.8379721893277231e-10 
 2.9127270686408188e-10  2.9894510623836392e-10  3.0681960388982175e-10  3.1490152327879249e-10 
 3.2319632809060929e-10  3.3170962592926118e-10  3.4044717210834659e-10  3.4941487354188504e-10 
 3.5861879273761554e-10  3.6806515189548366e-10  3.7776033711408535e-10  3.8771090270791297e-10 
 3.9792357563832169e-10  4.0840526006121206e-10  4.1916304199450206e-10  4.3020419410854543e-10 
 4.4153618064273397e-10  4.5316666245160887e-10  4.6510350218388865e-10  4.7735476959792049e-10 
 4.8992874701714401e-10  5.0283393492925854e-10  5.1607905773287578e-10  5.2967306963554610e-10 
 5.4362516070714457e-10  5.5794476309270790e-10  5.7264155738892511e-10  5.8772547918858889e-10 
 6.0320672579743584e-10  6.1909576312791348e-10  6.3540333277453680e-10  6.5214045927561464e-10 
 6.6931845756625905e-10  6.8694894062771213e-10  7.0504382733816461e-10  7.2361535053037197e-10 
 7.4267606526151647e-10  7.6223885730090277e-10  7.8231695184123094e-10  8.0292392243933272e-10 
 8.2407370019240931e-10  8.4578058315598846e-10  8.6805924600995356e-10  8.9092474997918764e-10 
 9.1439255301553518e-10  9.3847852024796938e-10  9.6319893470802164e-10  9.8857050833773364e-10 
 1.0146103932875687e-09  1.0413361935119198e-09  1.0687659766700514e-09  1.0969182863405308e-09 
 1.1258121545573945e-09  1.1554671146765252e-09  1.1859032145809521e-09  1.2171410302339794e-09 
 1.2492016795893278e-09  1.2821068368676742e-09  1.3158787472092546e-09  1.3505402417124241e-09 
 1.3861147528683583e-09  1.4226263304023054e-09  1.4600996575321210e-09  1.4985600676550686e-09 
 1.5380335614741600e-09  1.5785468245756252e-09  1.6201272454693918e-09  1.6628029341047553e-09 
 1.7066027408737890e-09  1.7515562761153020e-09  1.7976939301325689e-09  1.8450468937383288e-09 
 1.8936471793409701e-09  1.9435276425861413e-09  1.9947220045684285e-09  2.0472648746280915e-09 
 2.1011917737483198e-09  2.1565391585687551e-09  2.2133444460315959e-09  2.2716460386768595e-09 
 2.3314833506039851e-09  2.3928968341172663e-09  2.4559280070731511e-09  2.5206194809479131e-09 
 2.5870149896446331e-09  2.6551594190589936e-09  2.7250988374238571e-09  2.7968805264531679e-09 
 2.8705530133061852e-09  2.9461661033937185e-09  3.0237709140484774e-09  3.1034199090823542e-09 
 3.1851669342539747e-09  3.2690672536704855e-09  3.3551775871482165e-09  3.4435561485574438e-09 
 3.5342626851772086e-09  3.6273585180867525e-09  3.7229065836209376e-09  3.8209714759176141e-09 
 3.9216194905857299e-09  4.0249186695237200e-09  4.1309388469184299e-09  4.2397516964557177e-09 
 4.3514307797745998e-09  4.4660515961977733e-09  4.5836916337720341e-09  4.7044304216531782e-09 
 4.8283495838707780e-09  4.9555328945091543e-09  5.0860663343418925e-09  5.2200381489581225e-09 
 5.3575389084199775e-09  5.4986615684913957e-09  5.6435015334798349e-09  5.7921567207332210e-09 
 5.9447276268358770e-09  6.1013173955480757e-09  6.2620318875351925e-09  6.4269797519335946e-09 
 6.5962724998016545e-09  6.7700245795055349e-09  6.9483534540906759e-09  7.1313796806913783e-09 
 7.3192269920320500e-09  7.5120223800753501e-09  7.7098961818736182e-09  7.9129821676817892e-09 
 8.1214176313912539e-09  8.3353434833458319e-09  8.5549043456026380e-09  8.7802486497021758e-09 
 9.0115287370138147e-09  9.2489009617244643e-09  9.4925257965400677e-09  9.7425679411713776e-09 
 9.9991964336773273e-09  1.0262584764741384e-08  1.0532910994957914e-08  1.0810357875208143e-08 
 1.1095112970206786e-08  1.1387368785303171e-08  1.1687322896622279e-08  1.1995178084633942e-08 
 1.2311142471240360e-08  1.2635429660474571e-08  1.2968258882905170e-08  1.3309855143844720e-08 
 1.3660449375462106e-08  1.4020278592901755e-08  1.4389586054515129e-08  1.4768621426312929e-08 
 1.5157640950749018e-08  1.5556907619950467e-08  1.5966691353510528e-08  1.6387269180964850e-08 
 1.6818925429074379e-08  1.7261951914041377e-08  1.7716648138788757e-08  1.8183321495435766e-08 
 1.8662287473107292e-08  1.9153869871216825e-08  1.9658401018367805e-08  2.0176221997020829e-08 
 2.0707682874078912e-08  2.1253142937546601e-08  2.1812970939422889e-08  2.2387545344992270e-08 
 2.2977254588682270e-08  2.3582497336660648e-08  2.4203682756349505e-08  2.4841230793038899e-08 
 2.5495572453786623e-08  2.6167150098796133e-08  2.6856417740469876e-08  2.7563841350339762e-08 
 2.8289899174082749e-08  2.9035082054834069e-08  2.9799893765017011e-08  3.0584851346913296e-08 
 3.1390485462204675e-08  3.2217340750721588e-08  3.3065976198641791e-08  3.3936965516387694e-08 
 3.4830897526477868e-08  3.5748376561595091e-08  3.6690022873139886e-08  3.7656473050545776e-08 
 3.8648380451639746e-08  3.9666415644338978e-08  4.0711266859982366e-08  4.1783640458603017e-08 
 4.2884261406456935e-08  4.4013873766130060e-08  4.5173241199555474e-08  4.6363147484280407e-08 
 4.7584397043332619e-08  4.8837815489043645e-08  5.0124250181197427e-08  5.1444570799880897e-08 
 5.2799669933424253e-08  5.4190463681828107e-08  5.5617892276085718e-08  5.7082920713819060e-08 
 5.8586539411657915e-08  6.0129764874803717e-08  6.1713640384230209e-08  6.3339236701986170e-08 
 6.5007652795076360e-08  6.6720016578410407e-08  6.8477485677321940e-08  7.0281248210173258e-08 
 7.2132523591575015e-08  7.4032563356763582e-08  7.5982652007693343e-08  7.7984107881416274e-08 
 8.0038284041335978e-08  8.2146569191937890e-08  8.4310388617615288e-08  8.6531205146224739e-08 
 8.8810520138022688e-08  9.1149874500652626e-08  9.3550849730867828e-08  9.6015068983694340e-08 
 9.8544198169757171e-08  1.0113994708151233e-07  1.0380407054914386e-07  1.0653836962691013e-07 
 1.0934469281073940e-07  1.1222493728789826e-07  1.1518105021957932e-07  1.1821503005727235e-07 
 1.2132892789381218e-07  1.2452484885001335e-07  1.2780495349783246e-07  1.3117145932101773e-07 
 1.3462664221423399e-07  1.3817283802167771e-07  1.4181244411622012e-07  1.4554792102014912e-07 
 1.4938179406860247e-07  1.5331665511681891e-07  1.5735516429236076e-07  1.6150005179349346e-07 
 1.6575411973493629e-07  1.7012024404223389e-07  1.7460137639602793e-07  1.7920054622754456e-07 
 1.8392086276664621e-07  1.8876551714383239e-07  1.9373778454761119e-07  1.9884102643869738e-07 
 2.0407869282254097e-07  2.0945432458171303e-07  2.1497155586973396e-07  2.2063411656795818e-07 
 2.2644583480717750e-07  2.3241063955564955e-07  2.3853256327529750e-07  2.4481574464788175e-07 
 2.5126443137298044e-07  2.5788298303967846e-07  2.6467587407389952e-07  2.7164769676337747e-07 
 2.7880316436231186e-07  2.8614711427780544e-07  2.9368451134024072e-07  3.0142045115980341e-07 
 3.0936016357142533e-07  3.1750901617047181e-07  3.2587251794157132e-07  3.3445632298303207e-07 
 3.4326623432937128e-07  3.5230820787453660e-07  3.6158835639847486e-07  3.7111295369977152e-07 
 3.8088843883715179e-07  3.9092142048271447e-07  4.0121868138983921e-07  4.1178718297879300e-07 
 4.2263407004312908e-07  4.3376667558006776e-07  4.4519252574812108e-07  4.5691934495531319e-07 
 4.6895506108144149e-07  4.8130781083790586e-07  4.9398594526872724e-07  5.0699803539648315e-07 
 5.2035287801697410e-07  5.3405950164653363e-07  5.4812717262601451e-07  5.6256540138556980e-07 
 5.7738394887446525e-07  5.9259283316028224e-07  6.0820233620195548e-07  6.2422301080124057e-07 
 6.4066568773730439e-07  6.5754148308926836e-07  6.7486180575164966e-07  6.9263836514778754e-07 
 7.1088317914647213e-07  7.2960858218711834e-07  7.4882723361899975e-07  7.6855212626016164e-07 
 7.8879659518181118e-07  8.0957432672412506e-07  8.3089936774957301e-07  8.5278613514000206e-07 
 8.7524942554393315e-07  8.9830442538062453e-07  9.2196672110770205e-07  9.4625230975927256e-07 
 9.7117760976167394e-07  9.9675947203415055e-07  1.0230151913819817e-06  1.0499625181897619e-06 
 1.0776196704227313e-06  1.1060053459443006e-06  1.1351387351580688e-06  1.1650395339829045e-06 
 1.1957279571698667e-06  1.2272247519699609e-06  1.2595512121619894e-06  1.2927291924499699e-06 
 1.3267811232398791e-06  1.3617300258056897e-06  1.3975995278549953e-06  1.4344138795047230e-06 
 1.4721979696777471e-06  1.5109773429315088e-06  1.5507782167300120e-06  1.5916274991708841e-06 
 1.6335528071794964e-06  1.6765824851824512e-06  1.7207456242730603e-06  1.7660720818818110e-06 
 1.8125925019650776e-06  1.8603383357257883e-06  1.9093418628800301e-06  1.9596362134840067e-06 
 2.0112553903360958e-06  2.0642342919691819e-06  2.1186087362488090e-06  2.1744154845931185e-06 
 2.2316922668309963e-06  2.2904778067151919e-06  2.3508118481077242e-06  2.4127351818552672e-06 
 2.4762896733727170e-06  2.5415182909536005e-06  2.6084651348264916e-06  2.6771754669770886e-06 
 2.7476957417561460e-06  2.8200736372939936e-06  2.8943580877428677e-06  2.9705993163689058e-06 
 3.0488488695162095e-06  3.1291596514659404e-06  3.2115859602140827e-06  3.2961835241920514e-06 
 3.3830095399550602e-06  3.4721227108636794e-06  3.5635832867848999e-06  3.6574531048394599e-06 
 3.7537956312230758e-06  3.8526760041299350e-06  3.9541610778074387e-06  4.0583194677720876e-06 
 4.1652215972171071e-06  4.2749397446432602e-06  4.3875480927450471e-06  4.5031227785855339e-06 
 4.6217419450936337e-06  4.7434857939188453e-06  4.8684366396791970e-06  4.9966789656391742e-06 
 5.1282994808553198e-06  5.2633871788282798e-06  5.4020333977009698e-06  5.5443318820436686e-06 
 5.6903788462680092e-06  5.8402730397126587e-06  5.9941158134449519e-06  6.1520111888236930e-06 
 6.3140659278696030e-06  6.4803896054911200e-06  6.6510946836145360e-06  6.8262965872686930e-06 
 7.0061137826758043e-06  7.1906678574015048e-06  7.3800836026182547e-06  7.5744890975380597e-06 
 7.7740157960716773e-06  7.9787986157731966e-06  8.1889760291301899e-06  8.4046901572614892e-06 
 8.6260868660860779e-06  8.8533158650283738e-06  9.0865308083270014e-06  9.3258893990155711e-06 
 9.5715534956462704e-06  9.8236892218285797e-06  1.0082467078657560e-05  1.0348062060107934e-05 
 1.0620653771472510e-05  1.0900426550925188e-05  1.1187569594291119e-05  1.1482277083109086e-05 
 1.1784748316072594e-05  1.2095187843939456e-05  1.2413805608001215e-05  1.2740817082206765e-05 
 1.3076443419036559e-05  1.3420911599226730e-05  1.3774454585444869e-05  1.4137311480021910e-05 
 1.4509727686847594e-05  1.4891955077539343e-05  1.5284252161997881e-05  1.5686884263465438e-05 
 1.6100123698205889e-05  1.6524249959928925e-05  1.6959549909083958e-05  1.7406317967152651e-05 
 1.7864856316072223e-05  1.8335475102925744e-05  1.8818492650038475e-05  1.9314235670623636e-05 
 1.9823039490124644e-05  2.0345248273404530e-05  2.0881215257937674e-05  2.1431302993162710e-05 
 2.1995883586160092e-05  2.2575338953821590e-05  2.3170061081684571e-05  2.3780452289606798e-05 
 2.4406925504463984e-05  2.5049904540055922e-05  2.5709824384412593e-05  2.6387131494696560e-05 
 2.7082284099903324e-05  2.7795752511566502e-05  2.8528019442680246e-05  2.9279580335057752e-05 
 3.0050943695348948e-05  3.0842631439948154e-05  3.1655179249027548e-05  3.2489136929939264e-05 
 3.3345068790234753e-05  3.4223554020557676e-05  3.5125187087672523e-05  3.6050578137898234e-05 
 3.7000353411225155e-05  3.7975155666397634e-05  3.8975644617255820e-05  4.0002497380635655e-05 
 4.1056408936135166e-05  4.2138092598063388e-05  4.3248280499896290e-05  4.4387724091573363e-05 
 4.5557194649977036e-05  4.6757483802947330e-05  4.7989404067191698e-05  4.9253789400462103e-05 
 5.0551495768379668e-05  5.1883401726298180e-05  5.3250409016608811e-05  5.4653443181897932e-05 
 5.6093454194382645e-05  5.7571417102058934e-05  5.9088332692010342e-05  6.0645228171335727e-05 
 6.2243157866168089e-05  6.3883203939270078e-05  6.5566477126702475e-05  6.7294117494078550e-05 
 6.9067295212928804e-05  7.0887211357715957e-05  7.2755098724054556e-05  7.4672222668705569e-05 
 7.6639881971929445e-05  7.8659409722800616e-05  8.0732174228099706e-05  8.2859579945418620e-05 
 8.5043068441130793e-05  8.7284119373895629e-05  8.9584251504386153e-05  9.1945023731945935e-05 
 9.4368036158904540e-05  9.6854931183295082e-05  9.9407394620742881e-05  1.0202715685631398e-04 
 1.0471599402713308e-04  1.0747572923660391e-04  1.1030823380108795e-04  1.1321542852992119e-04 
 1.1619928503967162e-04  1.1926182710356972e-04  1.2240513203706251e-04  1.2563133212047600e-04 
 1.2894261605979422e-04  1.3234123048659076e-04  1.3582948149818027e-04  1.3940973623908511e-04 
 1.4308442452494374e-04  1.4685604051001822e-04  1.5072714439949520e-04  1.5470036420779841e-04 
 1.5877839756417685e-04  1.6296401356685964e-04  1.6726005468710946e-04  1.7166943872454251e-04 
 1.7619516081512115e-04  1.8084029549326775e-04  1.8560799880958415e-04  1.9050151050571280e-04 
 1.9552415624790527e-04  2.0067934992092266e-04  2.0597059598392989e-04  2.1140149189009520e-04 
 2.1697573057165786e-04  2.2269710299227232e-04  2.2856950076849530e-04  2.3459691886232827e-04 
 2.4078345834679260e-04  2.4713332924655891e-04  2.5365085345572228e-04  2.6034046773486838e-04 
 2.6720672678963854e-04  2.7425430643306759e-04  2.8148800683403246e-04  2.8891275585421635e-04 
 2.9653361247606463e-04  3.0435577032428328e-04  3.1238456128349486e-04  3.2062545921475552e-04 
 3.2908408377370639e-04  3.3776620433321916e-04  3.4667774401347170e-04  3.5582478382248519e-04 
 3.6521356691023493e-04  3.7485050293953760e-04  3.8474217257702384e-04  3.9489533210757937e-04 
 4.0531691817575978e-04  4.1601405265777412e-04  4.2699404766773688e-04  4.3826441070200724e-04 
 4.4983284992553192e-04  4.6170727960423609e-04  4.7389582568761106e-04  4.8640683154579375e-04 
 4.9924886386551925e-04  5.1243071870950123e-04  5.2596142774389188e-04  5.3985026463863081e-04 
 5.5410675164562580e-04  5.6874066635984705e-04  5.8376204866857876e-04  5.9918120789420788e-04 
 6.1500873013610685e-04  6.3125548581730148e-04  6.4793263744180837e-04  6.6505164756867474e-04 
 6.8262428700894531e-04  7.0066264325193924e-04  7.1917912912742676e-04  7.3818649171046309e-04 
 7.5769782147583884e-04  7.7772656170931877e-04  7.9828651818299916e-04  8.1939186910237681e-04 
 8.4105717533288795e-04  8.6329739091392380e-04  8.8612787386852974e-04  9.0956439731722791e-04 
 9.3362316090463973e-04  9.5832080254780276e-04  9.8367441051535188e-04  1.0097015358469070e-03 
 1.0364202051223489e-03  1.0638489335908390e-03  1.0920067386697291e-03  1.1209131538237724e-03 
 1.1505882428352698e-03  1.1810526144760962e-03  1.2123274375927789e-03  1.2444344566160943e-03 
 1.2773960075068930e-03  1.3112350341501571e-03  1.3459751052095430e-03  1.3816404314549464e-03 
 1.4182558835758715e-03  1.4558470104936822e-03  1.4944400581860440e-03  1.5340619890371204e-03 
 1.5747405017273936e-03  1.6165040516771237e-03  1.6593818720577846e-03  1.7034039953859896e-03 
 1.7486012757146573e-03  1.7950054114363482e-03  1.8426489687138850e-03  1.8915654055535558e-03 
 1.9417890965363013e-03  1.9933553582224925e-03  2.0463004752458496e-03  2.1006617271122907e-03 
 2.1564774157194024e-03  2.2137868936122794e-03  2.2726305929914210e-03  2.3330500554882803e-03 
 2.3950879627239359e-03  2.4587881676661314e-03  2.5241957267997284e-03  2.5913569331252485e-03 
 2.6603193499998320e-03  2.7311318458344050e-03  2.8038446296604798e-03  2.8785092875790665e-03 
 2.9551788201037242e-03  3.0339076804087825e-03  3.1147518134927929e-03  3.1977686962662362e-03 
 3.2830173785712252e-03  3.3705585251395855e-03  3.4604544584941402e-03  3.5527692027963378e-03 
 3.6475685286414209e-03  3.7449199988002888e-03  3.8448930149048454e-03  3.9475588650711244e-03 
 4.0529907724516905e-03  4.1612639447057894e-03  4.2724556243723608e-03  4.3866451401274129e-03 
 4.5039139589035521e-03  4.6243457388447234e-03  4.7480263830651376e-03  4.8750440941760075e-03 
 5.0054894295385533e-03  5.1394553571957316e-03  5.2770373124291885e-03  5.4183332548809202e-03 
 5.5634437261721714e-03  5.7124719079443415e-03  5.8655236802384351e-03  6.0227076801207769e-03 
 6.1841353604535189e-03  6.3499210486982248e-03  6.5201820056306177e-03  6.6950384838330469e-03 
 6.8746137858195951e-03  7.0590343216358920e-03  7.2484296657631493e-03  7.4429326131409609e-03 
 7.6426792341098533e-03  7.8478089280584716e-03  8.0584644755447264e-03  8.2747920886430248e-03 
 8.4969414592527912e-03  8.7250658050848067e-03  8.9593219130236490e-03  9.1998701795448102e-03 
 9.4468746478451777e-03  9.7005030413254058e-03  9.9609267930413706e-03  1.0228321070721112e-02 
 1.0502864796921915e-02  1.0784740663880708e-02  1.1074135142589189e-02  1.1371238485603683e-02 
 1.1676244723078988e-02  1.1989351651493818e-02  1.2310760814516817e-02  1.2640677475442451e-02 
 1.2979310580608755e-02  1.3326872713193069e-02  1.3683580036767739e-02  1.4049652227986282e-02 
 1.4425312397761432e-02  1.4810787000291054e-02  1.5206305729285914e-02  1.5612101400755928e-02 
 1.6028409821718190e-02  1.6455469644203705e-02  1.6893522203958268e-02  1.7342811343258963e-02 
 1.7803583217301498e-02  1.8276086083655572e-02  1.8760570074337877e-02  1.9257286950112418e-02 
 1.9766489836702848e-02  2.0288432942685196e-02  2.0823371258928244e-02  2.1371560239560997e-02 
 2.1933255464573635e-02  2.2508712284301999e-02  2.3098185446205472e-02  2.3701928704525928e-02 
 2.4320194413611568e-02  2.4953233105904995e-02  2.5601293055829824e-02  2.6264619831064536e-02 
 2.6943455832968581e-02  2.7638039828219562e-02  2.8348606474035944e-02  2.9075385839692519e-02 
 2.9818602927389116e-02  3.0578477195896975e-02  3.1355222090791973e-02  3.2149044585474316e-02 
 3.2960144737574686e-02  3.3788715265750682e-02  3.4634941152279192e-02  3.5498999277243898e-02 
 3.6381058090498616e-02  3.7281277327942113e-02  3.8199807778966803e-02  3.9136791112226448e-02 
 4.0092359767095492e-02  4.1066636918356138e-02  4.2059736521726676e-02  4.3071763447828544e-02 
 4.4102813712055468e-02  4.5152974807540318e-02  4.6222326147998864e-02  4.7310939626628870e-02 
 4.8418880296456961e-02  4.9546207176512341e-02  5.0692974186954107e-02  5.1859231214761894e-02 
 5.3045025309793790e-02  5.4250402008902139e-02  5.5475406783355531e-02  5.6720086602030671e-02 
 5.7984491599692094e-02  5.9268676836171395e-02  6.0572704128379493e-02  6.1896643932848723e-02 
 6.3240577251916563e-02  6.4604597531754557e-02  6.5988812515256706e-02  6.7393346007375524e-02 
 6.8818339504912451e-02  7.0263953637098031e-02  7.1730369357672838e-02  7.3217788823701668e-02 
 7.4726435891196180e-02  7.6256556152953278e-02  7.7808416440045103e-02  7.9382303705354262e-02 
 8.0978523205692640e-02  8.2597395898657736e-02  8.4239254971775382e-02  8.5904441424978661e-02 
 8.7593298633424785e-02  8.9306165826405617e-02  9.1043370430014106e-02  9.2805219236635206e-02 
 9.4591988383548029e-02  9.6403912146237336e-02  9.8241170579647388e-02  1.0010387607268878e-01 
 1.0199205891790521e-01  1.0390565203920113e-01  1.0584447506569859e-01  1.0780821798869444e-01 
 1.0979642469067881e-01  1.1180847668955568e-01  1.1384357749640470e-01  1.1590073803985827e-01 
 1.1797876366264742e-01  1.2007624324394803e-01  1.2219154104236930e-01  1.2432279188596311e-01 
 1.2646790035439101e-01  1.2862454460102210e-01  1.3079018544570778e-01  1.3296208132869247e-01 
 1.3513730964902029e-01  1.3731279491354018e-01  1.3948534399232290e-01  1.4165168861070326e-01 
 1.4380853500595944e-01  1.4595262043775595e-01  1.4808077596739738e-01  1.5018999461505370e-01 
 1.5227750367205956e-01  1.5434083959534697e-01  1.5637792355405791e-01  1.5838713534845719e-01 
 1.6036738309557605e-01  1.6231816579479322e-01  1.6423962567282055e-01  1.6613258708665454e-01 
 1.6799857876188906e-01  1.6983983628974714e-01  1.7165928212573778e-01  1.7346048084967985e-01 
 1.7524756817983525e-01  1.7702515319453513e-01  1.7879819440439462e-01  1.8057185172542156e-01 
 1.8235131800057874e-01  1.8414163545861398e-01  1.8594750431736295e-01  1.8777309254510821e-01 
 1.8962185747620708e-01  1.9149639140298669e-01  1.9339830428357233e-01  1.9532815715097052e-01 
 1.9728545951401769e-01  1.9926874284406484e-01  2.0127572000151084e-01  2.0330353706997659e-01 
 2.0534911948586923e-01  2.0740960860671775e-01  2.0948287807911622e-01  2.1156811178735660e-01 
 2.1366641715663542e-01  2.1578143965548383e-01  2.1791993712862107e-01  2.2009226684762781e-01 
 2.2231273473000795e-01  2.2459975591716777e-01  2.2697577965031579e-01  2.2946693984419841e-01 
 2.3210240640203103e-01  2.3491343126060521e-01  2.3793210705311793e-01  2.4118988420313020e-01 
 2.4471592263320779e-01  2.4853538481017307e-01  2.5266780461606797e-01  2.5712568804148389e-01 
 2.6191351312406447e-01  2.6702729407024073e-01  2.7245485470041181e-01  2.7817691679919526e-01 
 2.8416904872505755e-01  2.9040443995587689e-01  2.9685737197394518e-01  3.0350715185627625e-01 
 3.1034217199840081e-01  3.1736367013098565e-01  3.2458870265261325e-01  3.3205182631555474e-01 
 3.3980502216599834e-01  3.4791550144237821e-01  3.5646120981131524e-01  3.6552408919615520e-01 
 3.7518145027493749e-01  3.8549612667420863e-01  3.9650638608466077e-01  4.0821681748070798e-01 
 4.2059154688029565e-01  4.3355110904236271e-01  4.4697408302272496e-01  4.6070417029686400e-01 
 4.7456276955034754e-01  4.8836633254430140e-01  5.0194695877749906e-01  5.1517392423904829e-01 
 5.2797467795480491e-01  5.4032798609775579e-01  5.5222066359491906e-01  5.6364021254876251e-01 
 5.7457483748300842e-01  5.8501346069059545e-01  5.9494573767638770e-01  6.0436207266788911e-01 
 6.1325363414604306e-01  6.2161237032514782e-01  6.2943102448606192e-01  6.3670315004030886e-01 
 6.4342312517467248e-01  6.4958616689673943e-01  6.5518834427215400e-01  6.6022659061485578e-01 
 6.6469871436334016e-01  6.6860340835025023e-01  6.7194025715084882e-01  6.7470974217979285e-01 
 6.7691324419756937e-01  6.7855304289027096e-01  6.7963231319934947e-01  6.8015511810521390e-01 
 6.8012639761136195e-01  6.7955195373319166e-01  6.7843843136958737e-01  6.7679329502348051e-01 
 6.7462480143817360e-01  6.7194196832597841e-01  6.6875453948051666e-01  6.6507294667893946e-01 
 6.6090826888829135e-01  6.5627218938915588e-01  6.5117695151367694e-01  6.4563531375007188e-01 
 6.3966050500258242e-01  6.3326618080526298e-01  6.2646638126029675e-01  6.1927549142253846e-01 
 6.1170820476865462e-01  6.0377949028012579e-01  5.9550456354050829e-01  5.8689886209825026e-01 
 5.7797802517651586e-01  5.6875787764526253e-01  5.5925441799691944e-01  5.4948380989023493e-01 
 5.3946237667505992e-01  5.2920659816954918e-01  5.1873310884032198e-01  5.0805869645514212e-01 
 4.9720030022805278e-01  4.8617500746469350e-01  4.7500004774874455e-01  4.6369278378314238e-01 
 4.5227069811393289e-01  4.4075137511225648e-01  4.2915247776361320e-01  4.1749171901260018e-01 
 4.0578682761587842e-01  3.9405550866067546e-01  3.8231539901213940e-01  3.7058401863003637e-01 
 3.5887871771876279e-01  3.4721662112442109e-01  3.3561457060991873e-01  3.2408906598170428e-01 
 3.1265620601530542e-01  3.0133163010901065e-01  2.9013046154959499e-01  2.7906725320595505e-01 
 2.6815593638120500e-01  2.5740977345657079e-01  2.4684131485634542e-01  2.3646236075669247e-01 
 2.2628392785602405e-01  2.1631622142404386e-01  2.0656861275263821e-01  1.9704962204616935e-01 
 1.8776690671235224e-01  1.7872725494817457e-01  1.6993658445828719e-01  1.6139994609559413e-01 
 1.5312153217490329e-01  1.4510468917972080e-01  1.3735193455885567e-01  1.2986497729258090e-01 
 1.2264474189693471e-01  1.1569139552850428e-01  1.0900437785007759e-01  1.0258243331914786e-01 
 9.6423645565929694e-02  9.0525473534618622e-02  8.4884789071234909e-02  7.9497915650636047e-02 
 7.4360667952425588e-02  6.9468391999158691e-02  6.4816005598151136e-02  6.0398038828949924e-02 
 5.6208674344720093e-02  5.2241787265597431e-02  4.8490984460144215e-02  4.4949643026768779e-02 
 4.1610947803116229e-02  3.8467927747554378e-02  3.5513491052861737e-02  3.2740458868045302e-02 
 3.0141597519787022e-02  2.7709649140300500e-02  2.5437360623309705e-02  2.3317510844394103e-02 
 2.1342936096029462e-02  1.9506553701245852e-02  1.7801383782874190e-02  1.6220569177876773e-02 
 1.4757393497984448e-02  1.3405297349369608e-02  1.2157892734208130e-02  1.1008975667243475e-02 
 9.9525370492283983e-03  8.9827718476421983e-03  8.0940866425830132e-03  7.2811056025270772e-03 
 6.5386749606342470e-03  5.8618660674687496e-03  5.2459771003956742e-03  4.6865335135152742e-03 
 4.1792873148173591e-03  3.7202152592923214e-03  3.3055160480453412e-03  2.9316066240498168e-03 
 2.5951176550747051e-03  2.2928882935639343e-03  2.0219603018660588e-03  1.7795716292705187e-03 
 1.5631495247998334e-03  1.3703032667706234e-03  1.1988165867022969e-03  1.0466398613942253e-03 
 9.1188214287069827e-04  7.9280309151443082e-04  6.8780487311002523e-04  5.9542407575526089e-04 
 5.1432369772519122e-04  4.4328525244248924e-04  3.8120103176796224e-04  3.2706656392381237e-04 
 2.7997329754421961e-04  2.3910153865590973e-04  2.0371366284684301e-04  1.7314762056127605e-04 
 1.4681074936374452e-04  1.2417390287840335e-04  1.0476590325407301e-04  8.8168320358789437e-05 
 7.4010572517063493e-05  6.1965361368620622e-05  5.1744429508223466e-05  4.3094536233117356e-05 
 3.5794008172236152e-05  2.9649132555157962e-05  2.4491314756998741e-05  2.0174132443475455e-05 
 1.6570832716761518e-05  1.3572014840139507e-05  1.1083539276508676e-05  9.0246455689029059e-06 
 7.3262643395824003e-06  5.9295088788316279e-06  4.7843321185105990e-06  3.8483352192696962e-06 
 3.0857145253977438e-06  2.4663342396524714e-06  1.9649128253132165e-06  1.5603118385089028e-06 
 1.2349166163545125e-06  9.7409898273304839e-07  7.6575287229774518e-07  5.9989450450987989e-07 
 4.6831945479039707e-07  3.6430966209470628e-07  2.8238407563127002e-07  2.1808727349997795e-07 
 1.6781097976973033e-07  1.2864396131861416e-07  9.8246298905380468e-08  7.4744502409147875e-08 
 5.6644377901542414e-08  4.2758931485767016e-08  3.2148955434483745e-08  2.4074337496342258e-08 
 1.7954263372648682e-08  1.3334606565655637e-08  9.8619991745936163e-09  7.2633143729294246e-09 
 5.3262911610316812e-09  3.8866896043101617e-09  2.8275445828091778e-09  2.0524063831546298e-09 
 1.4599091148653634e-09  1.0451289668905663e-09  8.2079758444162527e-10  4.4189542352994070e-10 
 5.1502082803397420e-10  3.5364986822453018e-10  2.4165527849612256e-10  1.6431044499090558e-10 
 0.0000000000000000e+00  0.0000000000000000e+00  0.0000000000000000e+00  0.0000000000000000e+00 
 0.0000000000000000e+00  0.0000000000000000e+00  0.0000000000000000e+00  0.0000000000000000e+00 
 0.0000000000000000e+00  0.0000000000000000e+00  0.0000000000000000e+00  0.0000000000000000e+00 
 0.0000000000000000e+00  0.0000000000000000e+00  0.0000000000000000e+00  0.0000000000000000e+00 
 0.0000000000000000e+00  0.0000000000000000e+00  0.0000000000000000e+00  0.0000000000000000e+00 
 0.0000000000000000e+00  0.0000000000000000e+00  0.0000000000000000e+00  0.0000000000000000e+00 
 0.0000000000000000e+00  0.0000000000000000e+00  0.0000000000000000e+00  0.0000000000000000e+00 
 0.0000000000000000e+00  0.0000000000000000e+00  0.0000000000000000e+00  0.0000000000000000e+00 
 0.0000000000000000e+00  0.0000000000000000e+00  0.0000000000000000e+00  0.0000000000000000e+00 
 0.0000000000000000e+00  0.0000000000000000e+00  0.0000000000000000e+00  0.0000000000000000e+00 
 0.0000000000000000e+00  0.0000000000000000e+00  0.0000000000000000e+00  0.0000000000000000e+00 
 0.0000000000000000e+00  0.0000000000000000e+00  0.0000000000000000e+00  0.0000000000000000e+00 
 0.0000000000000000e+00  0.0000000000000000e+00  0.0000000000000000e+00  0.0000000000000000e+00 
 0.0000000000000000e+00  0.0000000000000000e+00  0.0000000000000000e+00  0.0000000000000000e+00 
 0.0000000000000000e+00  0.0000000000000000e+00  0.0000000000000000e+00  0.0000000000000000e+00 
 0.0000000000000000e+00  0.0000000000000000e+00  0.0000000000000000e+00  0.0000000000000000e+00 
 0.0000000000000000e+00  0.0000000000000000e+00  0.0000000000000000e+00  0.0000000000000000e+00 
 0.0000000000000000e+00  0.0000000000000000e+00  0.0000000000000000e+00  0.0000000000000000e+00 
 0.0000000000000000e+00  0.0000000000000000e+00  0.0000000000000000e+00  0.0000000000000000e+00 
 0.0000000000000000e+00  0.0000000000000000e+00  0.0000000000000000e+00  0.0000000000000000e+00 
 0.0000000000000000e+00  0.0000000000000000e+00  0.0000000000000000e+00  0.0000000000000000e+00 
 0.0000000000000000e+00  0.0000000000000000e+00  0.0000000000000000e+00  0.0000000000000000e+00 
 0.0000000000000000e+00  0.0000000000000000e+00  0.0000000000000000e+00  0.0000000000000000e+00 
 0.0000000000000000e+00  0.0000000000000000e+00  0.0000000000000000e+00  0.0000000000000000e+00 
 0.0000000000000000e+00  0.0000000000000000e+00  0.0000000000000000e+00  0.0000000000000000e+00 
 0.0000000000000000e+00  0.0000000000000000e+00  0.0000000000000000e+00  0.0000000000000000e+00 
 0.0000000000000000e+00  0.0000000000000000e+00  0.0000000000000000e+00  0.0000000000000000e+00 
 0.0000000000000000e+00  0.0000000000000000e+00  0.0000000000000000e+00  0.0000000000000000e+00 
 0.0000000000000000e+00 
D    2   4.00          Wavefunction
 4.5840383220075750e-14  4.7663477430769230e-14  4.9559076979916234e-14  5.1530065439891298e-14 
 5.3579441064136654e-14  5.5710321348083791e-14  5.7925947771465036e-14  6.0229690729229298e-14 
 6.2625054658562239e-14  6.5115683369811182e-14  6.7705365589422925e-14  7.0398040723327195e-14 
 7.3197804849532435e-14  7.6108916949050140e-14  7.9135805384626296e-14  8.2283074637134408e-14 
 8.5555512309879007e-14  8.8958096411463016e-14  9.2496002928298694e-14  9.6174613698280493e-14 
 9.9999524597598563e-14  1.0397655405314482e-13  1.0811175189346208e-13  1.1241140855169974e-13 
 1.1688206463457494e-13  1.2153052087189668e-13  1.2636384846178677e-13  1.3138939982733538e-13 
 1.3661481980105408e-13  1.4204805725413946e-13  1.4769737718823941e-13  1.5357137330811324e-13 
 1.5967898109431382e-13  1.6602949139577568e-13  1.7263256456298787e-13  1.7949824514324876e-13 
 1.8663697716035932e-13  1.9405962000199659e-13  2.0177746493893583e-13  2.0980225230124992e-13 
 2.1814618933761493e-13  2.2682196878488857e-13  2.3584278817620973e-13  2.4522236991699073e-13 
 2.5497498215934101e-13  2.6511546050667753e-13  2.7565923058153716e-13  2.8662233149092193e-13 
 2.9802144022487344e-13  3.0987389702538950e-13  3.2219773176427429e-13  3.3501169137004943e-13 
 3.4833526834564591e-13  3.6218873042026022e-13  3.7659315138047419e-13  3.9157044312755019e-13 
 4.0714338900965516e-13  4.2333567847972484e-13  4.4017194313168935e-13  4.5767779416987480e-13 
 4.7587986136858243e-13  4.9480583358110867e-13  5.1448450085982922e-13  5.3494579825141557e-13 
 5.5622085133381522e-13  5.7834202356425265e-13  6.0134296551028770e-13  6.2525866603881431e-13 
 6.5012550554087297e-13  6.7598131127323558e-13  7.0286541490095846e-13  7.3081871232842139e-13 
 7.5988372590988506e-13  7.9010466913418673e-13  8.2152751388197910e-13  8.5420006035782180e-13 
 8.8817200980350651e-13  9.2349504010322424e-13  9.6022288439559235e-13  9.9841141281210780e-13 
 1.0381187174663945e-12  1.0794052008234946e-12  1.1223336675836737e-12  1.1669694202204621e-12 
 1.2133803583183104e-12  1.2616370818609452e-12  1.3118129986275433e-12  1.3639844358601231e-12 
 1.4182307563719834e-12  1.4746344792738428e-12  1.5332814055013021e-12  1.5942607483346192e-12 
 1.6576652691092844e-12  1.7235914183239040e-12  1.7921394823599873e-12  1.8634137360368651e-12 
 1.9375226012337862e-12  2.0145788118204843e-12  2.0946995851471289e-12  2.1780068003544918e-12 
 2.2646271837756268e-12  2.3546925017110196e-12  2.4483397608705405e-12  2.5457114167870510e-12 
 2.6469555905187106e-12  2.7522262939696576e-12  2.8616836641717842e-12  2.9754942068840397e-12 
 3.0938310498797427e-12  3.2168742063073150e-12  3.3448108485249462e-12  3.4778355928258217e-12 
 3.6161507954870094e-12  3.7599668605923284e-12  3.9095025600975292e-12  4.0649853666245537e-12 
 4.2266517994912579e-12  4.3947477845028209e-12  4.5695290280523195e-12  4.7512614060993763e-12 
 4.9402213686187383e-12  5.1366963601339501e-12  5.3409852569758301e-12  5.5533988219309526e-12 
 5.7742601769717233e-12  6.0039052947871305e-12  6.2426835098619225e-12  6.4909580498816604e-12 
 6.7491065882719721e-12  7.0175218187126135e-12  7.2966120525001541e-12  7.5868018396681137e-12 
 7.8885326148093530e-12  8.2022633685830803e-12  8.5284713459280547e-12  8.8676527720440528e-12 
 9.2203236072459350e-12  9.5870203318386744e-12  9.9683007622071989e-12  1.0364744899362526e-11 
 1.0776955811234970e-11  1.1205560550056616e-11  1.1651211106228442e-11  1.2114585400123350e-11 
 1.2596388313333426e-11  1.3097352760930704e-11  1.3618240806371971e-11  1.4159844820744034e-11 
 1.4722988688112696e-11  1.5308529058808943e-11  1.5917356652559067e-11  1.6550397613440755e-11 
 1.7208614918726503e-11  1.7893009843757368e-11  1.8604623485075496e-11  1.9344538344132306e-11 
 2.0113879973981363e-11  2.0913818691461389e-11  2.1745571357473218e-11  2.2610403228059327e-11 
 2.3509629879101813e-11  2.4444619207566230e-11  2.5416793512336215e-11  2.6427631657803526e-11 
 2.7478671323505355e-11  2.8571511343230476e-11  2.9707814137153135e-11  3.0889308240693716e-11 
 3.2117790933953524e-11  3.3395130975723447e-11  3.4723271446225256e-11  3.6104232702910423e-11 
 3.7540115453811933e-11  3.9033103953125298e-11  4.0585469323878666e-11  4.2199573012747854e-11 
 4.3877870382270301e-11  4.5622914445923389e-11  4.7437359751748598e-11  4.9323966420428808e-11 
 5.1285604343962514e-11  5.3325257551320564e-11  5.5446028747727576e-11  5.7651144034472110e-11 
 5.9943957816426804e-11  6.2327957904741987e-11  6.4806770822476026e-11  6.7384167321233457e-11 
 7.0064068117201319e-11  7.2850549855311874e-11  7.5747851310601180e-11  7.8760379836199790e-11 
 8.1892718067761944e-11  8.5149630894534005e-11  8.8536072707664988e-11  9.2057194936785119e-11 
 9.5718353886318901e-11  9.9525118883450392e-11  1.0348328075013828e-10  1.0759886061206536e-10 
 1.1187811905792526e-10  1.1632756566297671e-10  1.2095396889135558e-10  1.2576436639220468e-10 
 1.3076607570528626e-10  1.3596670539236118e-10  1.4137416661126769e-10  1.4699668515030761e-10 
 1.5284281394124391e-10  1.5892144606994701e-10  1.6524182830447886e-10  1.7181357516119672e-10 
 1.7864668353027078e-10  1.8575154788286530e-10  1.9313897608311596e-10  2.0082020582895661e-10 
 2.0880692174680505e-10  2.1711127316611223e-10  2.2574589260081090e-10  2.3472391496578224e-10 
 2.4405899755756827e-10  2.5376534082972545e-10  2.6385770999442391e-10  2.7435145748315097e-10 
 2.8526254630068539e-10  2.9660757430787169e-10  3.0840379947012807e-10  3.2066916611009985e-10 
 3.3342233220438961e-10  3.4668269776589282e-10  3.6047043435490875e-10  3.7480651576392053e-10 
 3.8971274992272193e-10  4.0521181207242295e-10  4.2132727925880317e-10  4.3808366619747297e-10 
 4.5550646256541460e-10  4.7362217177561310e-10  4.9245835129378086e-10  5.1204365455848684e-10 
 5.3240787456846615e-10  5.5358198920341901e-10  5.7559820834722732e-10  5.9849002288528958e-10 
 6.2229225565049343e-10  6.4704111439532526e-10  6.7277424687070828e-10  6.9953079809534324e-10 
 7.2735146990267115e-10  7.5627858285604360e-10  7.8635614062627853e-10  8.1762989692953562e-10 
 8.5014742512734271e-10  8.8395819059462738e-10  9.1911362596586340e-10  9.5566720937376787e-10 
 9.9367454579960099e-10  1.0331934516587710e-09  1.0742840427504543e-09  1.1170088257049941e-09 
 1.1614327930681938e-09  1.2076235221671480e-09  1.2556512779079935e-09  1.3055891196619673e-09 
 1.3575130124023446e-09  1.4115019422613452e-09  1.4676380366827601e-09  1.5260066893530895e-09 
 1.5866966901012286e-09  1.6498003599642997e-09  1.7154136916251029e-09  1.7836364954347829e-09 
 1.8545725512428897e-09  1.9283297662657135e-09  2.0050203392331482e-09  2.0847609310636641e-09 
 2.1676728423271002e-09  2.2538821977651813e-09  2.3435201381504634e-09  2.4367230197755640e-09 
 2.5336326218761182e-09  2.6343963623029902e-09  2.7391675217718079e-09  2.8481054770309863e-09 
 2.9613759433028380e-09  3.0791512263666554e-09  3.2016104846671678e-09  3.3289400018470847e-09 
 3.4613334701183439e-09  3.5989922849030577e-09  3.7421258511923636e-09  3.8909519020892236e-09 
 4.0456968300197480e-09  4.2065960311167615e-09  4.3738942632996252e-09  4.5478460185948896e-09 
 4.7287159102641560e-09  4.9167790753281249e-09  5.1123215930989840e-09  5.3156409203578983e-09 
 5.5270463438394933e-09  5.7468594507117508e-09  5.9754146177668142e-09  6.2130595200669739e-09 
 6.4601556598195260e-09  6.7170789162849092e-09  6.9842201175547766e-09  7.2619856350696376e-09 
 7.5507980017803667e-09  7.8510965548940824e-09  8.1633381041819393e-09  8.4879976268653611e-09 
 8.8255689901380689e-09  9.1765657024225065e-09  9.5415216945037588e-09  9.9209921317289914e-09 
 1.0315554258508005e-08  1.0725808276399332e-08  1.1152378257117764e-08  1.1595913091851922e-08 
 1.2057087478335875e-08  1.2536602947176624e-08  1.3035188928998098e-08  1.3553603864025261e-08 
 1.4092636355796030e-08  1.4653106370755941e-08  1.5235866485560286e-08  1.5841803183980927e-08 
 1.6471838205390738e-08  1.7126929946876409e-08  1.7808074921113096e-08  1.8516309272217663e-08 
 1.9252710351886895e-08  2.0018398358217816e-08  2.0814538039703054e-08  2.1642340466993115e-08 
 2.2503064875120520e-08  2.3398020578988238e-08  2.4328568965035463e-08  2.5296125562111158e-08 
 2.6302162194704130e-08  2.7348209221805879e-08  2.8435857864811118e-08  2.9566762627997029e-08 
 3.0742643815262880e-08  3.1965290146958326e-08  3.3236561480780445e-08  3.4558391640877866e-08 
 3.5932791359466593e-08  3.7361851335429755e-08  3.8847745414555209e-08  4.0392733896247435e-08 
 4.1999166971743657e-08  4.3669488299063546e-08  4.5406238720130504e-08  4.7212060125717833e-08 
 4.9089699474098282e-08  5.1042012969511058e-08  5.3071970406798952e-08  5.5182659688826025e-08 
 5.7377291523546077e-08  5.9659204307865749e-08  6.2031869205731237e-08  6.4498895428161527e-08 
 6.7064035723259760e-08  6.9731192084551318e-08  7.2504421686333476e-08  7.5387943055061302e-08 
 7.8386142486157032e-08  8.1503580716003553e-08  8.4744999859268251e-08  8.8115330622109011e-08 
 9.1619699802233298e-08  9.5263438087217088e-08  9.9052088162942478e-08  1.0299141314449101e-07 
 1.0708740534230821e-07  1.1134629537697780e-07  1.1577456165646397e-07  1.2037894023023781e-07 
 1.2516643503527303e-07  1.3014432854949508e-07  1.3532019286888376e-07  1.4070190122507695e-07 
 1.4629763996099413e-07  1.5211592098268658e-07  1.5816559470635618e-07  1.6445586352022999e-07 
 1.7099629578176489e-07  1.7779684037146610e-07  1.8486784182545604e-07  1.9222005606980258e-07 
 1.9986466678053586e-07  2.0781330239423687e-07  2.1607805379505733e-07  2.2467149270507541e-07 
 2.3360669080594785e-07  2.4289723962094146e-07  2.5255727118757225e-07  2.6260147955229148e-07 
 2.7304514311990311e-07  2.8390414789169462e-07  2.9519501162762775e-07  3.0693490896931160e-07 
 3.1914169756197645e-07  3.3183394521515959e-07  3.4503095814340151e-07  3.5875281032989740e-07 
 3.7302037405774776e-07  3.8785535165523192e-07  4.0328030850336601e-07  4.1931870735594817e-07 
 4.3599494402424888e-07  4.5333438448061975e-07  4.7136340343742239e-07  4.9010942445993716e-07 
 5.0960096167423235e-07  5.2986766313340622e-07  5.5094035590812917e-07  5.7285109297003218e-07 
 5.9563320193923281e-07  6.1932133577007719e-07  6.4395152545217628e-07  6.6956123480683340e-07 
 6.9618941746217415e-07  7.2387657609357672e-07  7.5266482401945846e-07  7.8259794924604846e-07 
 8.1372148105848628e-07  8.4608275925948597e-07  8.7973100616078004e-07  9.1471740143677828e-07 
 9.5109515995421555e-07  9.8891961269606771e-07  1.0282482909027343e-06  1.0691410135583595e-06 
 1.1116599783552566e-06  1.1558698562746529e-06  1.2018378899275375e-06  1.2496339958049909e-06 
 1.2993308705934194e-06  1.3510041017162303e-06  1.4047322822699232e-06  1.4605971305292241e-06 
 1.5186836142028655e-06  1.5790800796287832e-06  1.6418783861050042e-06  1.7071740455603789e-06 
 1.7750663677772567e-06  1.8456586113867909e-06  1.9190581408662214e-06  1.9953765897766361e-06 
 2.0747300304891697e-06  2.1572391506574358e-06  2.2430294367042545e-06  2.3322313646013025e-06 
 2.4249805982315710e-06  2.5214181956356941e-06  2.6216908234555213e-06  2.7259509799005116e-06 
 2.8343572265755135e-06  2.9470744295219921e-06  3.0642740098386411e-06  3.1861342042619279e-06 
 3.3128403361021463e-06  3.4445850969463634e-06  3.5815688395558076e-06  3.7239998824023589e-06 
 3.8720948263063958e-06  4.0260788836565319e-06  4.1861862207109955e-06  4.3526603135000012e-06 
 4.5257543178693244e-06  4.7057314542264708e-06  4.8928654075733640e-06  5.0874407434323238e-06 
 5.2897533402964280e-06  5.5001108392602942e-06  5.7188331115132720e-06  5.9462527444041404e-06 
 6.1827155468145098e-06  6.4285810746073602e-06  6.6842231769473993e-06  6.9500305643218436e-06 
 7.2264073991225625e-06  7.5137739096851023e-06  7.8125670287152996e-06  8.1232410570712225e-06 
 8.4462683539064623e-06  8.7821400542206131e-06  9.1313668149042767e-06  9.4944795904088130e-06 
 9.8720304392163192e-06  1.0264593362331005e-05  1.0672765175062299e-05  1.1097166413419832e-05 
 1.1538442276492971e-05  1.1997263606241560e-05  1.2474327906181343e-05  1.2970360400506077e-05 
 1.3486115135249050e-05  1.4022376123151024e-05  1.4579958533966169e-05  1.5159709932007211e-05 
 1.5762511562801891e-05  1.6389279690806314e-05  1.7040966990198404e-05  1.7718563990854312e-05 
 1.8423100581693422e-05  1.9155647573664246e-05  1.9917318324733871e-05  2.0709270429335007e-05 
 2.1532707474823889e-05  2.2388880867601422e-05  2.3279091731655331e-05  2.4204692882389722e-05 
 2.5167090878721467e-05  2.6167748156540587e-05  2.7208185246753143e-05  2.8289983081253857e-05 
 2.9414785390304587e-05  3.0584301194934855e-05  3.1800307398121200e-05  3.3064651478650304e-05 
 3.4379254291725329e-05  3.5746112980533599e-05  3.7167304003160771e-05  3.8644986279407907e-05 
 4.0181404462248917e-05  4.1778892338849444e-05  4.3439876366263984e-05  4.5166879347128100e-05 
 4.6962524250871022e-05  4.8829538186191206e-05  5.0770756530763501e-05  5.2789127224378987e-05 
 5.4887715231962724e-05  5.7069707183169038e-05  5.9338416195511702e-05  6.1697286888264341e-05 
 6.4149900594645637e-05  6.6699980780100533e-05  6.9351398674791240e-05  7.2108179128734125e-05 
 7.4974506698340015e-05  7.7954731973466898e-05  8.1053378154444361e-05  8.4275147888893760e-05 
 8.7624930378565246e-05  9.1107808766792721e-05  9.4729067817597194e-05  9.8494201897886914e-05 
 1.0240892327465474e-04  1.0647917073953158e-04  1.1071111857353876e-04  1.1511118586537699e-04 
 1.1968604619711026e-04  1.2444263771163716e-04  1.2938817357690312e-04  1.3453015286238359e-04 
 1.3987637184396972e-04  1.4543493575401088e-04  1.5121427099391564e-04  1.5722313782738526e-04 
 1.6347064357305108e-04  1.6996625631600484e-04  1.7671981915846948e-04  1.8374156503062568e-04 
 1.9104213208343083e-04  1.9863257968608610e-04  2.0652440505169464e-04  2.1472956051554089e-04 
 2.2326047149135719e-04  2.3213005513192790e-04  2.4135173972135793e-04  2.5093948482739805e-04 
 2.6090780224329084e-04  2.7127177774971637e-04  2.8204709372858127e-04  2.9325005266160300e-04 
 3.0489760154786707e-04  3.1700735727585117e-04  3.2959763298673784e-04  3.4268746546720747e-04 
 3.5629664361136915e-04  3.7044573799294763e-04  3.8515613159039960e-04  4.0045005170921677e-04 
 4.1635060314733325e-04  4.3288180265125403e-04  4.5006861471229466e-04  4.6793698875415376e-04 
 4.8651389776493032e-04  5.0582737842864533e-04  5.2590657281338421e-04  5.4678177167523075e-04 
 5.6848445943935848e-04  5.9104736092187727e-04  6.1450448985833346e-04  6.3889119930716251e-04 
 6.6424423399888475e-04  6.9060178470432441e-04  7.1800354469782975e-04  7.4649076839416171e-04 
 7.7610633224051010e-04  8.0689479794802043e-04  8.3890247815017970e-04  8.7217750457847950e-04 
 9.0676989884896551e-04  9.4273164595655966e-04  9.8011677057735090e-04  1.0189814162825828e-03 
 1.0593839277716047e-03  1.1013849362347045e-03  1.1450474479605597e-03  1.1904369363068639e-03 
 1.2376214371567289e-03  1.2866716479875218e-03  1.3376610306829841e-03  1.3906659182238263e-03 
 1.4457656253963915e-03  1.5030425636634480e-03  1.5625823603459580e-03  1.6244739822691891e-03 
 1.6888098640315712e-03  1.7556860410595507e-03  1.8252022876167776e-03  1.8974622599410846e-03 
 1.9725736446880191e-03  2.0506483128649470e-03  2.1318024794452009e-03  2.2161568688574850e-03 
 2.3038368865508888e-03  2.3949727968415107e-03  2.4896999072538733e-03  2.5881587595729802e-03 
 2.6904953278325621e-03  2.7968612234673552e-03  2.9074139078661501e-03  3.0223169125654444e-03 
 3.1417400673319452e-03  3.2658597363865861e-03  3.3948590630281171e-03  3.5289282229223006e-03 
 3.6682646863255585e-03  3.8130734895197595e-03  3.9635675157392138e-03  4.1199677858764919e-03 
 4.2825037592588025e-03  4.4514136447913275e-03  4.6269447227689367e-03  4.8093536776621310e-03 
 4.9989069421861139e-03  5.1958810529666678e-03  5.4005630181178810e-03  5.6132506970553841e-03 
 5.8342531928573162e-03  6.0638912575064641e-03  6.3024977103286273e-03  6.5504178699554560e-03 
 6.8080100001347609e-03  7.0756457697050950e-03  7.3537107270632909e-03  7.6426047894305035e-03 
 7.9427427472298171e-03  8.2545547838873794e-03  8.5784870113447594e-03  8.9150020215753283e-03 
 9.2645794543851061e-03  9.6277165817590382e-03  1.0004928909009100e-02  1.0396750792955977e-02 
 1.0803736077368368e-02  1.1226458745849531e-02  1.1665513592352642e-02  1.2121516909470279e-02 
 1.2595107194620158e-02  1.3086945874217343e-02  1.3597718045889494e-02  1.4128133238748806e-02 
 1.4678926191703605e-02  1.5250857649738233e-02  1.5844715178045508e-02  1.6461313993839821e-02 
 1.7101497815631229e-02  1.7766139729665054e-02  1.8456143073174724e-02  1.9172442334026832e-02 
 1.9916004066248175e-02  2.0687827820856926e-02  2.1488947091324064e-02  2.2320430272901041e-02 
 2.3183381634950088e-02  2.4078942305308462e-02  2.5008291265605286e-02  2.5972646356337135e-02 
 2.6973265290371830e-02  2.8011446673437117e-02  2.9088531029992575e-02  3.0205901832748894e-02 
 3.1364986533955821e-02  3.2567257596398683e-02  3.3814233521888400e-02  3.5107479874859841e-02 
 3.6448610298526161e-02  3.7839287520792526e-02  3.9281224347015767e-02  4.0776184636428389e-02 
 4.2325984258886978e-02  4.3932492028337641e-02  4.5597630609208961e-02  4.7323377391700665e-02 
 4.9111765331682912e-02  5.0964883750690498e-02  5.2884879091247533e-02  5.4873955622480847e-02 
 5.6934376090732097e-02  5.9068462309581883e-02  6.1278595683432406e-02  6.3567217658492173e-02 
 6.5936830094689328e-02  6.8389995551751556e-02  7.0929337482322358e-02  7.3557540324669185e-02 
 7.6277349487163623e-02  7.9091571216308776e-02  8.2003072339733182e-02  8.5014779875074248e-02 
 8.8129680495267648e-02  9.1350819840208444e-02  9.4681301664267234e-02  9.8124286808476152e-02 
 1.0168299198567099e-01  1.0536068836605302e-01  1.0916069994997583e-01  1.1308640171385184e-01 
 1.1714121751416777e-01  1.2132861773360325e-01  1.2565211665207363e-01  1.3011526952435465e-01 
 1.3472166934453894e-01  1.3947494327614854e-01  1.4437874872508030e-01  1.4943676903086184e-01 
 1.5465270874976927e-01  1.6003028850138012e-01  1.6557323934794890e-01  1.7128529667372244e-01 
 1.7717019352892996e-01  1.8323165340067227e-01  1.8947338237041608e-01  1.9589906061520321e-01 
 2.0251233320713133e-01  2.0931680016319826e-01  2.1631600569525825e-01  2.2351342660773832e-01 
 2.3091245978900593e-01  2.3851640874092955e-01  2.4632846909042824e-01  2.5435171302674375e-01 
 2.6258907260900111e-01  2.7104332189047625e-01  2.7971705780908213e-01  2.8861267979809468e-01 
 2.9773236807725556e-01  3.0707806059233028e-01  3.1665142858114903e-01  3.2645385075627120e-01 
 3.3648638610887915e-01  3.4674974535543679e-01  3.5724426106808294e-01  3.6796985655171943e-01 
 3.7892601355522948e-01  3.9011173893105250e-01  4.0152553038619671e-01  4.1316534149832984e-01 
 4.2502854620228409e-01  4.3711190298453823e-01  4.4941151905511811e-01  4.6192281479693503e-01 
 4.7464048882070947e-01  4.8755848397802226e-01  5.0066995470424591e-01  5.1396723607569739e-01 
 5.2744181496975262e-01  5.4108430371123351e-01  5.5488441657196008e-01  5.6883094946141255e-01 
 5.8291176310433135e-01  5.9711376994514564e-01  6.1142292494960826e-01  6.2582422039169883e-01 
 6.4030168462052550e-01  6.5483838470035538e-01  6.6941643271089835e-01  6.8401699538975713e-01 
 6.9862030670080366e-01  7.1320568282878760e-01  7.2775153904033418e-01  7.4223540782407937e-01 
 7.5663395773793163e-01  7.7092301245907413e-01  7.8507756966146935e-01  7.9907181954346806e-01 
 8.1287916309976271e-01  8.2647223057821473e-01  8.3982290097943635e-01  8.5290232393564880e-01 
 8.6568094582841482e-01  8.7812854254769335e-01  8.9021426182405816e-01  9.0190667854051543e-01 
 9.1317386680087465e-01  9.2398349274310843e-01  9.3430293207991533e-01  9.4409941606667225e-01 
 9.5334020898613969e-01  9.6199281925798719e-01  9.7002524490592290e-01  9.7740625234808409e-01 
 9.8410568535266085e-01  9.9009479859561600e-01  9.9534660769112138e-01  9.9983624500525259e-01 
 1.0035413082228952e+00  1.0064421867684807e+00  1.0085223500608902e+00  1.0097685814948683e+00 
 1.0101711432473965e+00  1.0097238597140168e+00  1.0084241116993564e+00  1.0062727393954374e+00 
 1.0032738594843320e+00  9.9943460999731526e-01  9.9476484522787456e-01  9.8927681119062505e-01 
 9.8298483881766097e-01  9.7590509614617893e-01  9.6805544102144780e-01  9.5945541129120049e-01 
 9.5012637937451982e-01  9.4009188221181750e-01  9.2937811637559942e-01  9.1801456280043747e-01 
 9.0603467833781048e-01  8.9347656520733987e-01  8.8038350817921129e-01  8.6680425716937770e-01 
 8.5279293396027311e-01  8.3840845934610309e-01  8.2371343303890521e-01  8.0877245282427745e-01 
 7.9364992851684102e-01  7.7840752378471001e-01  7.6310143525500140e-01  7.4777978129579981e-01 
 7.3248040906239231e-01  7.1722942507469600e-01  7.0204070222023307e-01  6.8691651099289619e-01 
 6.7184926965430636e-01  6.5682422147953978e-01  6.4182265210981959e-01  6.2682508940638293e-01 
 6.1181927032609140e-01  5.9681649257578717e-01  5.8183329800765826e-01  5.6688570644606329e-01 
 5.5198920832358556e-01  5.3715875865593621e-01  5.2240877227224458e-01  5.0775312021607544e-01 
 4.9320512723181065e-01  4.7877757025082107e-01  4.6448267779208713e-01  4.5033213019262824e-01 
 4.3633706058421412e-01  4.2250805653440937e-01  4.0885516227203372e-01  3.9538788141967518e-01 
 3.8211518015904117e-01  3.6904549075878551e-01  3.5618671540417152e-01  3.4354623024363234e-01 
 3.3113088964743354e-01  3.1894703058776031e-01  3.0700047712592204e-01  2.9529654497969393e-01 
 2.8384004615879549e-01  2.7263529367301892e-01  2.6168610633207268e-01  2.5099581367348150e-01 
 2.4056726107222814e-01  2.3040281510248239e-01  2.2050436923811165e-01  2.1087334999176424e-01 
 2.0151072360258721e-01  1.9241700339208548e-01  1.8359225790372222e-01  1.7503611994333435e-01 
 1.6674779662756703e-01  1.5872608052664067e-01  1.5096936197607622e-01  1.4347564259960260e-01 
 1.3624255005999814e-01  1.2926735402330083e-01  1.2254698329082328e-01  1.1607804401795822e-01 
 1.0985683891475745e-01  1.0387938729331113e-01  9.8141445802208516e-02  9.2638529677003048e-02 
 8.7365934318003616e-02  8.2318757000911014e-02  7.7491918528679468e-02  7.2880184634600817e-02 
 6.8478186957969811e-02  6.4280443430687659e-02  6.0281377930701374e-02  5.6475339082325743e-02 
 5.2856618108940441e-02  4.9419465669378188e-02  4.6158107638257354e-02  4.3066759815429977e-02 
 4.0139641574938170e-02  3.7370988486605243e-02  3.4755063960287942e-02  3.2286169978331260e-02 
 2.9958656990738901e-02  2.7766933052883785e-02  2.5705472286148955e-02  2.3768822738485199e-02 
 2.1951613715067153e-02  2.0248562639791301e-02  1.8654481497144788e-02  1.7164282891839508e-02 
 1.5772985751366864e-02  1.4475720684996736e-02  1.3267735002299665e-02  1.2144397385441184e-02 
 1.1101202202550495e-02  1.0133773444524258e-02  9.2378682646824580e-03  8.4093800996311707e-03 
 7.6443413503144491e-03  6.9389256043058114e-03  6.2894493836248956e-03  5.6923734064813292e-03 
 5.1443033560711693e-03  4.6419901546249157e-03  4.1823297461037615e-03  3.7623623960673109e-03 
 3.3792715221326194e-03  3.0303820729843333e-03  2.7131584779866548e-03  2.4252021930239007e-03 
 2.1642488712196959e-03  1.9281651896367010e-03  1.7149453649407845e-03  1.5227073923393222e-03 
 1.3496890429000098e-03  1.1942436546574311e-03  1.0548357527634846e-03  9.3003653335790209e-04 
 8.1851924495420945e-04  7.1905449979050825e-04  6.3050554622052590e-04  5.5182353132960488e-04 
 4.8204278115326037e-04  4.2027612375092967e-04  3.6571027824933676e-04  3.1760133074066834e-04 
 2.7527031566514380e-04  2.3809891905120342e-04  2.0552531775612824e-04  1.7704016666939164e-04 
 1.5218274373085232e-04  1.3053726059378211e-04  1.1172934484332801e-04  9.5422697876366175e-05 
 8.1315930868157204e-05  6.9139579701684472e-05  5.8653298321684862e-05  4.9643228699781286e-05 
 4.1919544459892559e-05  3.5314164214593767e-05  2.9678629797738774e-05  2.4882143846478491e-05 
 2.0809760577282961e-05  1.7360723112964672e-05  1.4446940341889294e-05  1.1991596019786898e-05 
 9.9278826504526949e-06  8.1978525957169134e-06  6.7513788587194990e-06  5.5452180490517889e-06 
 4.5421681650940756e-06  3.7103140094346149e-06  3.0223532794264736e-06  2.4549966388953499e-06 
 1.9884353713503036e-06  1.6058705328405538e-06  1.2930978574312602e-06  1.0381430142835255e-06 
 8.3094216719882354e-07  6.6306314054843898e-07  5.2746284554412193e-07  4.1827696429966343e-07 
 3.3063822299635481e-07  2.6051990721506292e-07  2.0460158010340063e-07  1.6015425595079744e-07 
 1.2494255681151650e-07  9.7141637294196371e-08  7.5266902119303820e-08  5.8114762424443053e-08 
 4.4712880219355348e-08  3.4278536277688962e-08  2.6183925658551090e-08  1.9927337396924108e-08 
 1.5109312167507231e-08  1.1412995348494092e-08  8.5880088777620368e-09  6.4372613701851613e-09 
 4.8062177309583553e-09  3.5741946537881256e-09  2.6472778628098469e-09  1.9527195923566213e-09 
 1.4345454669724435e-09  1.0494423282530970e-09  7.6403110657398590e-10  5.5462052472641203e-10 
 4.0177279262300980e-10  2.8520201317956370e-10  2.0379799338495772e-10  1.5987657687297497e-10 
 8.5902474132237153e-11  1.0006312569994187e-10  6.9305661604654656e-11  4.7772761047388406e-11 
 3.2770391861499722e-11  0.0000000000000000e+00  0.0000000000000000e+00  0.0000000000000000e+00 
 0.0000000000000000e+00  0.0000000000000000e+00  0.0000000000000000e+00  0.0000000000000000e+00 
 0.0000000000000000e+00  0.0000000000000000e+00  0.0000000000000000e+00  0.0000000000000000e+00 
 0.0000000000000000e+00  0.0000000000000000e+00  0.0000000000000000e+00  0.0000000000000000e+00 
 0.0000000000000000e+00  0.0000000000000000e+00  0.0000000000000000e+00  0.0000000000000000e+00 
 0.0000000000000000e+00  0.0000000000000000e+00  0.0000000000000000e+00  0.0000000000000000e+00 
 0.0000000000000000e+00  0.0000000000000000e+00  0.0000000000000000e+00  0.0000000000000000e+00 
 0.0000000000000000e+00  0.0000000000000000e+00  0.0000000000000000e+00  0.0000000000000000e+00 
 0.0000000000000000e+00  0.0000000000000000e+00  0.0000000000000000e+00  0.0000000000000000e+00 
 0.0000000000000000e+00  0.0000000000000000e+00  0.0000000000000000e+00  0.0000000000000000e+00 
 0.0000000000000000e+00  0.0000000000000000e+00  0.0000000000000000e+00  0.0000000000000000e+00 
 0.0000000000000000e+00  0.0000000000000000e+00  0.0000000000000000e+00  0.0000000000000000e+00 
 0.0000000000000000e+00  0.0000000000000000e+00  0.0000000000000000e+00  0.0000000000000000e+00 
 0.0000000000000000e+00  0.0000000000000000e+00  0.0000000000000000e+00  0.0000000000000000e+00 
 0.0000000000000000e+00  0.0000000000000000e+00  0.0000000000000000e+00  0.0000000000000000e+00 
 0.0000000000000000e+00  0.0000000000000000e+00  0.0000000000000000e+00  0.0000000000000000e+00 
 0.0000000000000000e+00  0.0000000000000000e+00  0.0000000000000000e+00  0.0000000000000000e+00 
 0.0000000000000000e+00  0.0000000000000000e+00  0.0000000000000000e+00  0.0000000000000000e+00 
 0.0000000000000000e+00  0.0000000000000000e+00  0.0000000000000000e+00  0.0000000000000000e+00 
 0.0000000000000000e+00  0.0000000000000000e+00  0.0000000000000000e+00  0.0000000000000000e+00 
 0.0000000000000000e+00  0.0000000000000000e+00  0.0000000000000000e+00  0.0000000000000000e+00 
 0.0000000000000000e+00  0.0000000000000000e+00  0.0000000000000000e+00  0.0000000000000000e+00 
 0.0000000000000000e+00  0.0000000000000000e+00  0.0000000000000000e+00  0.0000000000000000e+00 
 0.0000000000000000e+00  0.0000000000000000e+00  0.0000000000000000e+00  0.0000000000000000e+00 
 0.0000000000000000e+00  0.0000000000000000e+00  0.0000000000000000e+00  0.0000000000000000e+00 
 0.0000000000000000e+00  0.0000000000000000e+00  0.0000000000000000e+00  0.0000000000000000e+00 
 0.0000000000000000e+00  0.0000000000000000e+00  0.0000000000000000e+00  0.0000000000000000e+00 
 0.0000000000000000e+00  0.0000000000000000e+00  0.0000000000000000e+00  0.0000000000000000e+00 
 0.0000000000000000e+00  0.0000000000000000e+00  0.0000000000000000e+00  0.0000000000000000e+00 
 0.0000000000000000e+00  0.0000000000000000e+00  0.0000000000000000e+00  0.0000000000000000e+00 
 0.0000000000000000e+00  0.0000000000000000e+00  0.0000000000000000e+00  0.0000000000000000e+00 
 0.0000000000000000e+00  0.0000000000000000e+00  0.0000000000000000e+00  0.0000000000000000e+00 
 0.0000000000000000e+00  0.0000000000000000e+00  0.0000000000000000e+00  0.0000000000000000e+00 
 0.0000000000000000e+00  0.0000000000000000e+00  0.0000000000000000e+00  0.0000000000000000e+00 
 0.0000000000000000e+00  0.0000000000000000e+00  0.0000000000000000e+00  0.0000000000000000e+00 
 0.0000000000000000e+00  0.0000000000000000e+00  0.0000000000000000e+00  0.0000000000000000e+00 
 0.0000000000000000e+00  0.0000000000000000e+00  0.0000000000000000e+00  0.0000000000000000e+00 
 0.0000000000000000e+00 
D    2   6.00          Wavefunction
 4.2749612915299242e-14  4.4449785696136109e-14  4.6217575170711209e-14  4.8055670487634434e-14 
 4.9966867744256188e-14  5.1954074240070600e-14  5.4020312899278688e-14  5.6168726869238660e-14 
 5.8402584301798995e-14  6.0725283324787774e-14  6.3140357211219794e-14  6.5651479754086372e-14 
 6.8262470854902435e-14  7.0977302334513334e-14  7.3800103975000157e-14  7.6735169801874095e-14 
 7.9786964616117518e-14  8.2960130786006601e-14  8.6259495309048830e-14  8.9690077154776453e-14 
 9.3257094899566885e-14  9.6965974665103568e-14  1.0082235837255291e-13  1.0483211232501408e-13 
 1.0900133613129710e-13  1.1333637198460355e-13  1.1784381431022533e-13  1.2253051979693664e-13 
 1.2740361782733959e-13  1.3247052132302919e-13  1.3773893802107685e-13  1.4321688219898370e-13 
 1.4891268686594216e-13  1.5483501643894913e-13  1.6099287992305455e-13  1.6739564461579490e-13 
 1.7405305035665865e-13  1.8097522434325956e-13  1.8817269653675698e-13  1.9565641567995594e-13 
 2.0343776595245668e-13  2.1152858428818531e-13  2.1994117838165318e-13  2.2868834541033235e-13 
 2.3778339150162945e-13  2.4724015197407092e-13  2.5707301238348921e-13  2.6729693040622638e-13 
 2.7792745859264381e-13  2.8898076802554870e-13  3.0047367291952881e-13  3.1242365619861402e-13 
 3.2484889609117356e-13  3.3776829378250658e-13  3.5120150216718772e-13  3.6516895574490769e-13 
 3.7969190170528898e-13  3.9479243224895354e-13  4.1049351819402099e-13  4.2681904391915025e-13 
 4.4379384369628326e-13  4.6144373946836032e-13  4.7979558012947280e-13  4.9887728236720540e-13 
 5.1871787312930118e-13  5.3934753377924266e-13  5.6079764600792352e-13  5.8310083957125146e-13 
 6.0629104192629367e-13  6.3040352984148028e-13  6.5547498305937104e-13  6.8154354009360852e-13 
 7.0864885624495489e-13  7.3683216392464295e-13  7.6613633537682458e-13  7.9660594789551677e-13 
 8.2828735163525628e-13  8.6122874011862091e-13  8.9548022354786713e-13  9.3109390503220097e-13 
 9.6812395984665802e-13  1.0066267178431280e-12  1.0466607491389287e-12  1.0882869532132326e-12 
 1.1315686515469186e-12  1.1765716839467484e-12  1.2233645087003949e-12  1.2720183067147033e-12 
 1.3226070897955600e-12  1.3752078132341209e-12  1.4299004928706316e-12  1.4867683268139529e-12 
 1.5458978220019063e-12  1.6073789257950094e-12  1.6713051628037378e-12  1.7377737771574861e-12 
 1.8068858804316296e-12  1.8787466054577093e-12  1.9534652662507397e-12  2.0311555242968798e-12 
 2.1119355614544702e-12  2.1959282597313983e-12  2.2832613882123254e-12  2.3740677974200816e-12 
 2.4684856214069047e-12  2.5666584878829622e-12  2.6687357367017596e-12  2.7748726470348570e-12 
 2.8852306735813758e-12  2.9999776921717462e-12  3.1192882551391568e-12  3.2433438568472985e-12 
 3.3723332097782727e-12  3.5064525316006114e-12  3.6459058436541864e-12  3.7909052813059393e-12 
 3.9416714166486829e-12  4.0984335940337098e-12  4.2614302789477769e-12  4.4309094207650116e-12 
 4.6071288299257007e-12  4.7903565701156352e-12  4.9808713660426025e-12  5.1789630274303634e-12 
 5.3849328898750728e-12  5.5990942732347701e-12  5.8217729582492176e-12  6.0533076821151775e-12 
 6.2940506537709110e-12  6.5443680896738412e-12  6.8046407708862850e-12  7.0752646223168051e-12 
 7.3566513149982548e-12  7.6492288923186699e-12  7.9534424211577330e-12  8.2697546689191843e-12 
 8.5986468074891597e-12  8.9406191451912750e-12  9.2961918878519529e-12  9.6659059301336429e-12 
 1.0050323678339702e-11  1.0450029905942743e-11  1.0865632643137594e-11  1.1297764101772382e-11 
 1.1747081637064330e-11  1.2214268747563746e-11  1.2700036114886755e-11  1.3205122684798904e-11 
 1.3730296791293939e-11  1.4276357325377611e-11  1.4844134950334732e-11  1.5434493365327857e-11 
 1.6048330619249955e-11  1.6686580476829566e-11  1.7350213839066697e-11  1.8040240220160036e-11 
 1.8757709283172217e-11  1.9503712436769433e-11  2.0279384495463945e-11  2.1085905405885206e-11 
 2.1924502041705792e-11  2.2796450069952096e-11  2.3703075891539440e-11  2.4645758658982861e-11 
 2.5625932374353369e-11  2.6645088070670823e-11  2.7704776080051964e-11  2.8806608392063618e-11 
 2.9952261105868776e-11  3.1143476979895723e-11  3.2382068082908455e-11  3.3669918550511913e-11 
 3.5008987451284126e-11  3.6401311766896219e-11  3.7849009490752810e-11  3.9354282849867296e-11 
 4.0919421654872087e-11  4.2546806783260504e-11  4.4238913801159048e-11  4.5998316729138811e-11 
 4.7827691957795310e-11  4.9729822319052680e-11  5.1707601319385343e-11  5.3764037541396892e-11 
 5.5902259220452145e-11  5.8125519003323510e-11  6.0437198896091179e-11  6.2840815408823586e-11 
 6.5340024904863643e-11  6.7938629162859833e-11  7.0640581160000209e-11  7.3449991085249574e-11 
 7.6371132591734894e-11  7.9408449297791706e-11  8.2566561546559684e-11  8.5850273434410250e-11 
 8.9264580118898442e-11  9.2814675417354693e-11  9.6505959707676923e-11  1.0034404814333960e-10 
 1.0433477919511869e-10  1.0848422353252307e-10  1.1279869325844676e-10  1.1728475151108555e-10 
 1.2194922244772679e-10  1.2679920162559906e-10  1.3184206679557244e-10  1.3708548912513006e-10 
 1.4253744486768075e-10  1.4820622749596664e-10  1.5410046031802057e-10  1.6022910959486704e-10 
 1.6660149817991894e-10  1.7322731970081920e-10  1.8011665330530065e-10  1.8727997899349455e-10 
 1.9472819356001295e-10  2.0247262717005378e-10  2.1052506059474386e-10  2.1889774313194049e-10 
 2.2760341123975071e-10  2.3665530791111230e-10  2.4606720281891174e-10  2.5585341326228132e-10 
 2.6602882594593800e-10  2.7660891962569910e-10  2.8760978865461622e-10  2.9904816746555084e-10 
 3.1094145602742991e-10  3.2330774631391108e-10  3.3616584982471330e-10  3.4953532620148503e-10 
 3.6343651298173604e-10  3.7789055653609432e-10  3.9291944423595259e-10  4.0854603790043294e-10 
 4.2479410857355205e-10  4.4168837268448469e-10  4.5925452964594086e-10  4.7751930094784187e-10 
 4.9651047080576532e-10  5.1625692842599928e-10  5.3678871195148751e-10  5.5813705415552957e-10 
 5.8033442995273178e-10  6.0341460579948591e-10  6.2741269105912505e-10  6.5236519140989344e-10 
 6.7831006437696631e-10  7.0528677707300163e-10  7.3333636623505253e-10  7.6250150064916852e-10 
 7.9282654605765180e-10  8.2435763264768936e-10  8.5714272522403839e-10  8.9123169617249474e-10 
 9.2667640132515879e-10  9.6353075884287230e-10  1.0018508312348456e-09  1.0416949106402319e-09 
 1.0831236075013689e-09  1.1261999427636012e-09  1.1709894437419003e-09  1.2175602438001468e-09 
 1.2659831859946665e-09  1.3163319308397304e-09  1.3686830683588992e-09  1.4231162345926870e-09 
 1.4797142327397774e-09  1.5385631591160462e-09  1.5997525341230266e-09  1.6633754384250114e-09 
 1.7295286545419665e-09  1.7983128140736121e-09  1.8698325507786809e-09  1.9441966597421372e-09 
 2.0215182628725368e-09  2.1019149809812572e-09  2.1855091127053399e-09  2.2724278205461675e-09 
 2.3628033243069091e-09  2.4567731022230274e-09  2.5544801000917824e-09  2.6560729487188751e-09 
 2.7617061900129559e-09  2.8715405120719739e-09  2.9857429936189540e-09  3.1044873581589926e-09 
 3.2279542382441707e-09  3.3563314502482884e-09  3.4898142800694224e-09  3.6286057801949253e-09 
 3.7729170785807587e-09  3.9229676998149393e-09  4.0789858990537444e-09  4.2412090092385579e-09 
 4.4098838021215409e-09  4.5852668636494008e-09  4.7676249842761019e-09  4.9572355647983877e-09 
 5.1543870383313621e-09  5.3593793090661067e-09  5.5725242084766369e-09  5.7941459696702448e-09 
 6.0245817206027430e-09  6.2641819969088426e-09  6.5133112751278281e-09  6.7723485271355678e-09 
 7.0416877966262207e-09  7.3217387985206102e-09  7.6129275422130468e-09  7.9156969796044663e-09 
 8.2305076789079925e-09  8.5578385252514627e-09  8.8981874491428861e-09  9.2520721839068345e-09 
 9.6200310532439512e-09  1.0002623790111505e-08  1.0400432388170675e-08  1.0814061987095709e-08 
 1.1244141793091419e-08  1.1691326036019701e-08  1.2156294964590452e-08  1.2639755881130954e-08 
 1.3142444217507751e-08  1.3665124653837443e-08  1.4208592281688280e-08  1.4773673813541687e-08 
 1.5361228840353743e-08  1.5972151139128928e-08  1.6607370032495946e-08  1.7267851802352778e-08 
 1.7954601159731858e-08  1.8668662773120824e-08  1.9411122857563807e-08  2.0183110826960197e-08 
 2.0985801012074309e-08  2.1820414446869188e-08  2.2688220725881353e-08  2.3590539935462530e-08 
 2.4528744661824722e-08  2.5504262078944111e-08  2.6518576119498880e-08  2.7573229732143402e-08 
 2.8669827228552213e-08  2.9810036723803714e-08  3.0995592673815468e-08  3.2228298513690494e-08 
 3.3510029400988441e-08  3.4842735068092914e-08  3.6228442788014630e-08  3.7669260458140700e-08 
 3.9167379806621264e-08  4.0725079726269592e-08  4.2344729741047231e-08  4.4028793610406545e-08 
 4.5779833076972313e-08  4.7600511763264231e-08  4.9493599223384949e-08  5.1461975155838005e-08 
 5.3508633783882590e-08  5.5636688410087425e-08  5.7849376152011674e-08  6.0150062866215007e-08 
 6.2542248268086793e-08  6.5029571255280126e-08  6.7615815442849741e-08  7.0304914918509967e-08 
 7.3100960226767079e-08  7.6008204591028079e-08  7.9031070383148197e-08  8.2174155850257574e-08 
 8.5442242109097575e-08  8.8840300418504629e-08  9.2373499741101114e-08  9.6047214605697347e-08 
 9.9867033282356809e-08  1.0383876628256297e-07  1.0796845519741217e-07  1.1226238188727558e-07 
 1.1672707803690537e-07  1.2136933509051789e-07  1.2619621458196223e-07  1.3121505887568392e-07 
 1.3643350233482252e-07  1.4185948293342173e-07  1.4750125433041550e-07  1.5336739842375120e-07 
 1.5946683840374127e-07  1.6580885232549413e-07  1.7240308722106518e-07  1.7925957377278772e-07 
 1.8638874157009659e-07  1.9380143497305167e-07  2.0150892960667471e-07  2.0952294951119118e-07 
 2.1785568497425034e-07  2.2651981107224584e-07  2.3552850694892564e-07  2.4489547586061081e-07 
 2.5463496601850223e-07  2.6476179225976551e-07  2.7529135858035598e-07  2.8623968156383093e-07 
 2.9762341474178665e-07  3.0945987392295498e-07  3.2176706352947287e-07  3.3456370398036889e-07 
 3.4786926016390402e-07  3.6170397104205611e-07  3.7608888043215387e-07  3.9104586901247801e-07 
 4.0659768760046719e-07  4.2276799175414206e-07  4.3958137774934516e-07  4.5706341998749526e-07 
 4.7524070989072681e-07  4.9414089634354679e-07  5.1379272774248954e-07  5.3422609571769081e-07 
 5.5547208059285992e-07  5.7756299865273631e-07  6.0053245128990231e-07  6.2441537610564913e-07 
 6.4924810004258242e-07  6.7506839462972836e-07  7.0191553342410878e-07  7.2983035173611257e-07 
 7.5885530872941970e-07  7.8903455198989814e-07  8.2041398466157903e-07  8.5304133525176693e-07 
 8.8696623021137997e-07  9.2224026940080985e-07  9.5891710455601301e-07  9.9705252087406397e-07 
 1.0367045218421656e-06  1.0779334174390079e-06  1.1208019158425454e-06  1.1653752187835025e-06 
 1.2117211206895267e-06  1.2599101117706295e-06  1.3100154852025498e-06  1.3621134485708804e-06 
 1.4162832397452996e-06  1.4726072473599397e-06  1.5311711360829063e-06  1.5920639768653347e-06 
 1.6553783823677525e-06  1.7212106477695319e-06  1.7896608971753093e-06  1.8608332358407583e-06 
 1.9348359084489265e-06  2.0117814636775452e-06  2.0917869253072531e-06  2.1749739701305550e-06 
 2.2614691129318176e-06  2.3514038988190411e-06  2.4449151031996155e-06  2.5421449397036314e-06 
 2.6432412763704682e-06  2.7483578604269171e-06  2.8576545519980815e-06  2.9712975671058651e-06 
 3.0894597303239169e-06  3.2123207374726417e-06  3.3400674287528912e-06  3.4728940727330070e-06 
 3.6110026616201768e-06  3.7546032182642311e-06  3.9039141153597811e-06  4.0591624073310388e-06 
 4.2205841754029308e-06  4.3884248863820161e-06  4.5629397656916228e-06  4.7443941852269924e-06 
 4.9330640666188153e-06  5.1292363005168857e-06  5.3332091825297146e-06  5.5452928664812835e-06 
 5.7658098356722554e-06  5.9950953928602524e-06  6.2334981697020143e-06  6.4813806564299789e-06 
 6.7391197525659697e-06  7.0071073395069770e-06  7.2857508758507179e-06  7.5754740163632470e-06 
 7.8767172555266181e-06  8.1899385966415563e-06  8.5156142474989752e-06  8.8542393436740222e-06 
 9.2063287005385348e-06  9.5724175951304732e-06  9.9530625790645341e-06  1.0348842323714860e-05 
 1.0760358498949375e-05  1.1188236686745898e-05  1.1633127331073008e-05  1.2095706725473119e-05 
 1.2576678039841995e-05  1.3076772387958705e-05  1.3596749937380186e-05  1.4137401063379720e-05 
 1.4699547548674244e-05  1.5284043830754443e-05  1.5891778298703440e-05  1.6523674641464425e-05 
 1.7180693249594620e-05  1.7863832672623660e-05  1.8574131134218802e-05  1.9312668107444474e-05 
 2.0080565952496084e-05  2.0878991619380503e-05  2.1709158418113664e-05  2.2572327859107190e-05 
 2.3469811566520867e-05  2.4402973267468007e-05  2.5373230860073468e-05  2.6382058563503801e-05 
 2.7430989153210014e-05  2.8521616284752696e-05  2.9655596909711088e-05  3.0834653787315718e-05 
 3.2060578095587311e-05  3.3335232145913859e-05  3.4660552205151868e-05  3.6038551429498583e-05 
 3.7471322914549918e-05  3.8961042866129844e-05  4.0509973896660001e-05  4.2120468452023615e-05 
 4.3794972374072647e-05  4.5536028604129731e-05  4.7346281033045655e-05  4.9228478503591537e-05 
 5.1185478971190562e-05  5.3220253829231839e-05  5.5335892405449211e-05  5.7535606636105848e-05 
 5.9822735924986150e-05  6.2200752194472664e-05  6.4673265136267361e-05  6.7244027669615468e-05 
 6.9916941615193423e-05  7.2696063593143267e-05  7.5585611154067026e-05  7.8589969152135540e-05 
 8.1713696369826476e-05  8.4961532404172820e-05  8.8338404824793622e-05  9.1849436614369057e-05 
 9.5499953902649702e-05  9.9295494005503676e-05  1.0324181378096903e-04  1.0734489831473142e-04 
 1.1161096994793284e-04  1.1604649766071710e-04  1.2065820682543498e-04  1.2545308934397572e-04 
 1.3043841418423913e-04  1.3562173833136021e-04  1.4101091816988139e-04  1.4661412131370300e-04 
 1.5243983890129506e-04  1.5849689837430956e-04  1.6479447675844802e-04  1.7134211446614953e-04 
 1.7814972964142614e-04  1.8522763306794119e-04  1.9258654366224341e-04  2.0023760457489641e-04 
 2.0819239992312457e-04  2.1646297217948996e-04  2.2506184024204541e-04  2.3400201821238638e-04 
 2.4329703490902352e-04  2.5296095414453719e-04  2.6300839579605702e-04  2.7345455769972339e-04 
 2.8431523840095392e-04  2.9560686079352502e-04  3.0734649668174376e-04  3.1955189230124369e-04 
 3.3224149483530510e-04  3.4543447996495302e-04  3.5915078049254421e-04  3.7341111608001299e-04 
 3.8823702414449293e-04  4.0365089195562164e-04  4.1967598998046327e-04  4.3633650652371225e-04 
 4.5365758371256640e-04  4.7166535487750793e-04  4.9038698338209807e-04  5.0985070295684492e-04 
 5.3008585959420627e-04  5.5112295506389106e-04  5.7299369210974944e-04  5.9573102139177405e-04 
 6.1936919023905176e-04  6.4394379328183021e-04  6.6949182503335156e-04  6.9605173449462305e-04 
 7.2366348185789531e-04  7.5236859738731117e-04  7.8221024255797781e-04  8.1323327353755991e-04 
 8.4548430709745052e-04  8.7901178904363573e-04  9.1386606526045573e-04  9.5009945546374412e-04 
 9.8776632976311585e-04  1.0269231881366036e-03  1.0676287429243643e-03  1.1099440044517613e-03 
 1.1539323698959009e-03  1.1996597155134584e-03  1.2471944923515789e-03  1.2966078255676583e-03 
 1.3479736174879364e-03  1.4013686545390023e-03  1.4568727181908082e-03  1.5145687000539666e-03 
 1.5745427212788764e-03  1.6368842564087396e-03  1.7016862618432784e-03  1.7690453090748199e-03 
 1.8390617228633303e-03  1.9118397245220346e-03  1.9874875804902306e-03  2.0661177563753457e-03 
 2.1478470766514469e-03  2.2327968902063700e-03  2.3210932419361952e-03  2.4128670505895204e-03 
 2.5082542930715350e-03  2.6073961954215662e-03  2.7104394306848786e-03  2.8175363239042938e-03 
 2.9288450644634270e-03  3.0445299260178993e-03  3.1647614942585268e-03  3.2897169027536737e-03 
 3.4195800771254742e-03  3.5545419878190098e-03  3.6948009117297453e-03  3.8405627029585096e-03 
 3.9920410729700206e-03  4.1494578804348930e-03  4.3130434310400473e-03  4.4830367875571906e-03 
 4.6596860904631115e-03  4.8432488894096177e-03  5.0339924858440240e-03  5.2321942870863277e-03 
 5.4381421721671460e-03  5.6521348697406142e-03  5.8744823483811784e-03  6.1055062195730101e-03 
 6.3455401537158866e-03  6.5949303094462132e-03  6.8540357765970528e-03  7.1232290330992369e-03 
 7.4028964161337802e-03  7.6934386078359148e-03  7.9952711358513961e-03  8.3088248890327045e-03 
 8.6345466485619696e-03  8.9728996347709523e-03  9.3243640699244134e-03  9.6894377572193796e-03 
 1.0068636676226914e-02  1.0462495595011745e-02  1.0871568699120128e-02  1.1296430237618371e-02 
 1.1737675186347576e-02  1.2195919928515977e-02  1.2671802952744287e-02  1.3165985568625593e-02 
 1.3679152639851384e-02  1.4212013334890090e-02  1.4765301895190187e-02  1.5339778420817473e-02 
 1.5936229673392727e-02  1.6555469896145196e-02  1.7198341650840721e-02  1.7865716671276618e-02 
 1.8558496732975490e-02  1.9277614538636231e-02  2.0024034618825359e-02  2.0798754247310140e-02 
 2.1602804370347266e-02  2.2437250549148267e-02  2.3303193914648548e-02  2.4201772133592776e-02 
 2.5134160384849225e-02  2.6101572344732888e-02  2.7105261180024150e-02  2.8146520547180046e-02 
 2.9226685596169505e-02  3.0347133977156781e-02  3.1509286848144240e-02  3.2714609881488492e-02 
 3.3964614267082839e-02  3.5260857709765565e-02  3.6604945418390107e-02  3.7998531083736832e-02 
 3.9443317842308437e-02  4.0941059222772504e-02  4.2493560071691375e-02  4.4102677454833678e-02 
 4.5770321530241888e-02  4.7498456388904320e-02  4.9289100858665655e-02  5.1144329266745253e-02 
 5.3066272155945712e-02  5.5057116949353536e-02  5.7119108558047062e-02  5.9254549926035890e-02 
 6.1465802506285395e-02  6.3755286661411240e-02  6.6125481982238582e-02  6.8578927517095822e-02 
 7.1118221904268419e-02  7.3746023399739652e-02  7.6465049791817452e-02  7.9278078193890378e-02 
 8.2187944706002380e-02  8.5197543935526782e-02  8.8309828366594248e-02  9.1527807567411135e-02 
 9.4854547223970950e-02  9.8293167987999863e-02  1.0184684412626142e-01  1.0551880195756941e-01 
 1.0931231806303898e-01  1.1323071725417098e-01  1.1727737028241640e-01  1.2145569127279220e-01 
 1.2576913486297550e-01  1.3022119302807589e-01  1.3481539156994893e-01  1.3955528624850544e-01 
 1.4444445853092946e-01  1.4948651093312948e-01  1.5468506192602213e-01  1.6004374037746075e-01 
 1.6556617949879002e-01  1.7125601026305218e-01  1.7711685425995416e-01  1.8315231595075349e-01 
 1.8936597428427657e-01  1.9576137363347423e-01  2.0234201401017479e-01  2.0911134051417338e-01 
 2.1607273197155422e-01  2.2322948871618437e-01  2.3058481946788886e-01  2.3814182726084945e-01 
 2.4590349437653142e-01  2.5387266623697252e-01  2.6205203421671147e-01  2.7044411733518481e-01 
 2.7905124279616766e-01  2.8787552534693750e-01  2.9691884543751268e-01  3.0618282616953235e-01 
 3.1566880903544220e-01  3.2537782846151542e-01  3.3531058518306545e-01  3.4546741849696178e-01 
 3.5584827745522485e-01  3.6645269108393685e-01  3.7727973773382140e-01  3.8832801369230041e-01 
 3.9959560121134657e-01  4.1108003613047706e-01  4.2277827529926071e-01  4.3468666402799594e-01 
 4.4680090381800119e-01  4.5911602064329204e-01  4.7162633407230958e-01  4.8432542753073404e-01 
 4.9720612001321840e-01  5.1026043955184142e-01  5.2347959874143546e-01  5.3685397260555023e-01 
 5.5037307906114008e-01  5.6402556220468070e-01  5.7779917859737284e-01  5.9168078667294677e-01 
 6.0565633932946572e-01  6.1971087969839211e-01  6.3382854001264766e-01  6.4799254342408985e-01 
 6.6218520855413399e-01  6.7638795650448691e-01  6.9058132001420491e-01  7.0474495443115437e-01 
 7.1885765017746495e-01  7.3289734643659443e-01  7.4684114588067740e-01  7.6066533039603701e-01 
 7.7434537795579517e-01  7.8785598103212795e-01  8.0117106723448217e-01  8.1426382319718427e-01 
 8.2710672310859834e-01  8.3967156365692974e-01  8.5192950754153929e-01  8.6385113803391500e-01 
 8.7540652733436397e-01  8.8656532161978951e-01  8.9729684567279910e-01  9.0757022978102120e-01 
 9.1735456115959868e-01  9.2661906144873141e-01  9.3533329085391304e-01  9.4346737822901827e-01 
 9.5099227487496141e-01  9.5788002809054584e-01  9.6410406865079135e-01  9.6963950451845071e-01 
 9.7446341136651893e-01  9.7855510908145638e-01  9.8189641252608828e-01  9.8447184467059834e-01 
 9.8626880093910940e-01  9.8727765542023949e-01  9.8749180254035263e-01  9.8690763189215558e-01 
 9.8552443902177556e-01  9.8334428083350511e-01  9.8037179044523393e-01  9.7661397223622848e-01 
 9.7208000275585138e-01  9.6678106630226535e-01  9.6073025451293770e-01  9.5394255649398463e-01 
 9.4643495931371990e-01  9.3822666789061482e-01  9.2933943867308144e-01  9.1979800386514210e-01 
 9.0963054375917585e-01  8.9886914608149782e-01  8.8755017574750361e-01  8.7571446897446392e-01 
 8.6340726519407418e-01  8.5067780105054225e-01  8.3757851437875175e-01  8.2416384232838824e-01 
 8.1048864466182646e-01  7.9660633639656619e-01  7.8256686686550825e-01  7.6841472661998100e-01 
 7.5418719018244806e-01  7.3991300267937865e-01  7.2561168518939401e-01  7.1129356455188275e-01 
 6.9696053140370851e-01  6.8260740517463991e-01  6.6822365347104640e-01  6.5379509824813320e-01 
 6.3931107726794612e-01  6.2478313176971578e-01  6.1022815350353476e-01  5.9566258487485868e-01 
 5.8110240952338410e-01  5.6656314419040543e-01  5.5205983179428697e-01  5.3760703563176160e-01 
 5.2321883462134067e-01  5.0890881950417743e-01  4.9469008991725305e-01  4.8057525225373759e-01 
 4.6657641822582141e-01  4.5270520404622067e-01  4.3897273014597787e-01  4.2538962134815700e-01 
 4.1196600741967637e-01  3.9871152392694675e-01  3.8563531332535389e-01  3.7274602621813452e-01 
 3.6005182272708647e-01  3.4756037389964523e-01  3.3527886323845824e-01  3.2321398808893625e-01 
 3.1137196109843235e-01  2.9975851164264528e-01  2.8837888726091288e-01  2.7723785514084970e-01 
 2.6633970371286048e-01  2.5568824443474736e-01  2.4528681386632287e-01  2.3513827615037286e-01 
 2.2524502602990482e-01  2.1560899254459148e-01  2.0623164354752160e-01  1.9711399118767739e-01 
 1.8825659849521453e-01  1.7965958718562519e-01  1.7132264678803011e-01  1.6324504516825689e-01 
 1.5542564049003516e-01  1.4786289462313124e-01  1.4055488797244517e-01  1.3349933566142311e-01 
 1.2669360497488005e-01  1.2013473393056671e-01  1.1381945081823389e-01  1.0774419452930126e-01 
 1.0190513547687462e-01  9.6298196895640412e-02  9.0919076310853095e-02  8.5763266963708812e-02 
 8.0826078989792716e-02  7.6102660163479927e-02  7.1588016038243718e-02  6.7277029338053171e-02 
 6.3164478482312852e-02  5.9245055155054210e-02  5.5513380861709045e-02  5.1964022445271062e-02 
 4.8591506563133761e-02  4.5390333153064837e-02  4.2354987937479251e-02  3.9479954034705958e-02 
 3.6759722757951994e-02  3.4188803690494887e-02  3.1761734127831093e-02  2.9473087974870384e-02 
 2.7317484179363739e-02  2.5289594772409201e-02  2.3384152574063750e-02  2.1595958607792901e-02 
 1.9919889252687416e-02  1.8350903147947285e-02  1.6884047850815088e-02  1.5514466237508786e-02 
 1.4237402627147733e-02  1.3048208601406286e-02  1.1942348487727019e-02  1.0915404471308057e-02 
 9.9630813005711777e-03  9.0812105521692436e-03  8.2657544245086784e-03  7.5128090329282622e-03 
 6.8186071847746877e-03  6.1795206183459560e-03  5.5920616957622687e-03  5.0528845460283273e-03 
 4.5587856606670247e-03  4.1067039501637616e-03  3.6937202749330942e-03  3.3170564695055279e-03 
 2.9740738830655051e-03  2.6622714633083638e-03  2.3792834138058874e-03  2.1228764576734383e-03 
 1.8909467423311628e-03  1.6815164215698681e-03  1.4927299520071683e-03  1.3228501413599964e-03 
 1.1702539859265732e-03  1.0334283340059801e-03  9.1096541129488749e-04  8.0155824286817356e-04 
 7.0399600501834297e-04  6.1715933840732196e-04  5.4001565209738491e-04  4.7161444595354181e-04 
 4.1108267673126700e-04  3.5762019091060667e-04  3.1049524504320349e-04  2.6904013207301595e-04 
 2.3264692980134376e-04  2.0076338541650537e-04  1.7288894781933756e-04  1.4857095736607847e-04 
 1.2740100063582293e-04  1.0901143592364574e-04  9.3072093373204411e-05  7.9287152002404209e-05 
 6.7392194347575218e-05  5.7151438061744982e-05  4.8355142548094971e-05  4.0817187597187336e-05 
 3.4372820017486499e-05  2.8876563405647293e-05  2.4200285488330556e-05  2.0231416876998738e-05 
 1.6871314604537014e-05  1.4033763450621321e-05  1.1643607803854510e-05  9.6355066447185578e-06 
 7.9528041559409971e-06  6.5465084673931438e-06  5.3743711125384309e-06  4.4000599042182675e-06 
 3.5924181208775928e-06  2.9248031221408472e-06  2.3744977772492176e-06  1.9221883839955347e-06 
 1.5515030725899987e-06  1.2486050221420017e-06  1.0018351612749844e-06  8.0139937372558760e-07 
 6.3909557988636641e-07  5.0807641212197279e-07  4.0264354179068915e-07  3.1807004626831293e-07 
 2.5044752244477433e-07  1.9655495717627489e-07  1.5374665350755616e-07  1.1985678303308838e-07 
 9.3118388833670756e-08  7.2094899585457701e-08  5.5622433623949730e-08  4.2761372262773365e-08 
 3.2755864586979038e-08  2.5000091810811835e-08  1.9010270195792774e-08  1.4401506328296430e-08 
 1.0868735325828165e-08  8.1710841304492607e-09  6.1191069916332404e-09  4.5643894236690168e-09 
 3.3910831934886042e-09  2.5091600200558638e-09  1.8491238088795697e-09  1.3570280315069797e-09 
 9.9116272761298017e-10  7.2182649697598329e-10  5.2459963200662284e-10  3.7374056224127162e-10 
 2.6791897220663400e-10  2.1078099039891011e-10  1.1404868317769078e-10  1.3254039521935175e-10 
 9.2070656965949934e-11  6.3654378127655994e-11  4.3796789523434787e-11  0.0000000000000000e+00 
 0.0000000000000000e+00  0.0000000000000000e+00  0.0000000000000000e+00  0.0000000000000000e+00 
 0.0000000000000000e+00  0.0000000000000000e+00  0.0000000000000000e+00  0.0000000000000000e+00 
 0.0000000000000000e+00  0.0000000000000000e+00  0.0000000000000000e+00  0.0000000000000000e+00 
 0.0000000000000000e+00  0.0000000000000000e+00  0.0000000000000000e+00  0.0000000000000000e+00 
 0.0000000000000000e+00  0.0000000000000000e+00  0.0000000000000000e+00  0.0000000000000000e+00 
 0.0000000000000000e+00  0.0000000000000000e+00  0.0000000000000000e+00  0.0000000000000000e+00 
 0.0000000000000000e+00  0.0000000000000000e+00  0.0000000000000000e+00  0.0000000000000000e+00 
 0.0000000000000000e+00  0.0000000000000000e+00  0.0000000000000000e+00  0.0000000000000000e+00 
 0.0000000000000000e+00  0.0000000000000000e+00  0.0000000000000000e+00  0.0000000000000000e+00 
 0.0000000000000000e+00  0.0000000000000000e+00  0.0000000000000000e+00  0.0000000000000000e+00 
 0.0000000000000000e+00  0.0000000000000000e+00  0.0000000000000000e+00  0.0000000000000000e+00 
 0.0000000000000000e+00  0.0000000000000000e+00  0.0000000000000000e+00  0.0000000000000000e+00 
 0.0000000000000000e+00  0.0000000000000000e+00  0.0000000000000000e+00  0.0000000000000000e+00 
 0.0000000000000000e+00  0.0000000000000000e+00  0.0000000000000000e+00  0.0000000000000000e+00 
 0.0000000000000000e+00  0.0000000000000000e+00  0.0000000000000000e+00  0.0000000000000000e+00 
 0.0000000000000000e+00  0.0000000000000000e+00  0.0000000000000000e+00  0.0000000000000000e+00 
 0.0000000000000000e+00  0.0000000000000000e+00  0.0000000000000000e+00  0.0000000000000000e+00 
 0.0000000000000000e+00  0.0000000000000000e+00  0.0000000000000000e+00  0.0000000000000000e+00 
 0.0000000000000000e+00  0.0000000000000000e+00  0.0000000000000000e+00  0.0000000000000000e+00 
 0.0000000000000000e+00  0.0000000000000000e+00  0.0000000000000000e+00  0.0000000000000000e+00 
 0.0000000000000000e+00  0.0000000000000000e+00  0.0000000000000000e+00  0.0000000000000000e+00 
 0.0000000000000000e+00  0.0000000000000000e+00  0.0000000000000000e+00  0.0000000000000000e+00 
 0.0000000000000000e+00  0.0000000000000000e+00  0.0000000000000000e+00  0.0000000000000000e+00 
 0.0000000000000000e+00  0.0000000000000000e+00  0.0000000000000000e+00  0.0000000000000000e+00 
 0.0000000000000000e+00  0.0000000000000000e+00  0.0000000000000000e+00  0.0000000000000000e+00 
 0.0000000000000000e+00  0.0000000000000000e+00  0.0000000000000000e+00  0.0000000000000000e+00 
 0.0000000000000000e+00  0.0000000000000000e+00  0.0000000000000000e+00  0.0000000000000000e+00 
 0.0000000000000000e+00  0.0000000000000000e+00  0.0000000000000000e+00  0.0000000000000000e+00 
 0.0000000000000000e+00  0.0000000000000000e+00  0.0000000000000000e+00  0.0000000000000000e+00 
 0.0000000000000000e+00  0.0000000000000000e+00  0.0000000000000000e+00  0.0000000000000000e+00 
 0.0000000000000000e+00  0.0000000000000000e+00  0.0000000000000000e+00  0.0000000000000000e+00 
 0.0000000000000000e+00  0.0000000000000000e+00  0.0000000000000000e+00  0.0000000000000000e+00 
 0.0000000000000000e+00  0.0000000000000000e+00  0.0000000000000000e+00  0.0000000000000000e+00 
 0.0000000000000000e+00  0.0000000000000000e+00  0.0000000000000000e+00  0.0000000000000000e+00 
 0.0000000000000000e+00  0.0000000000000000e+00  0.0000000000000000e+00  0.0000000000000000e+00 
 0.0000000000000000e+00  0.0000000000000000e+00  0.0000000000000000e+00  0.0000000000000000e+00 
 0.0000000000000000e+00 
</PP_PSWFC>


<PP_RHOATOM>
 9.3179100453529745e-11  9.5633526335009638e-11  9.8152604122039083e-11  1.0073803680712408e-10 
 1.0339157224120825e-10  1.0611500431528623e-10  1.0891017417314286e-10  1.1177897145603594e-10 
 1.1472333558016553e-10  1.1774525704779414e-10  1.2084677879290076e-10  1.2402999756228256e-10 
 1.2729706533303581e-10  1.3065019076737365e-10  1.3409164070576654e-10  1.3762374169941207e-10 
 1.4124888158307227e-10  1.4496951108934140e-10  1.4878814550543335e-10  1.5270736637361249e-10 
 1.5672982323641429e-10  1.6085823542783619e-10  1.6509539391171180e-10  1.6944416316850824e-10 
 1.7390748313182402e-10  1.7848837117589589e-10  1.8318992415545908e-10  1.8801532049933836e-10 
 1.9296782235918708e-10  1.9805077781482600e-10  2.0326762313767249e-10  2.0862188511379102e-10 
 2.1411718342813433e-10  2.1975723311158806e-10  2.2554584705247417e-10  2.3148693857420639e-10 
 2.3758452408084819e-10  2.4384272577235260e-10  2.5026577443132755e-10  2.5685801228320513e-10 
 2.6362389593175206e-10  2.7056799937190213e-10  2.7769501708195152e-10  2.8500976719720483e-10 
 2.9251719476721768e-10  3.0022237509883713e-10  3.0813051718730523e-10  3.1624696723773329e-10 
 3.2457721227934556e-10  3.3312688387491375e-10  3.4190176192791162e-10  3.5090777858994855e-10 
 3.6015102227112951e-10  3.6963774175605066e-10  3.7937435042821868e-10  3.8936743060573599e-10 
 3.9962373799120592e-10  4.1015020623883667e-10  4.2095395164186040e-10  4.3204227794341632e-10 
 4.4342268127415857e-10  4.5510285521992469e-10  4.6709069602289494e-10  4.7939430791974861e-10 
 4.9202200862043839e-10  5.0498233493127650e-10  5.1828404852614390e-10  5.3193614186970859e-10 
 5.4594784429668025e-10  5.6032862825118640e-10  5.7508821569050673e-10  5.9023658465748468e-10 
 6.0578397602606272e-10  6.2174090042450572e-10  6.3811814534097943e-10  6.5492678241630744e-10 
 6.7217817492881603e-10  6.8988398547634826e-10  7.0805618386061505e-10  7.2670705517924205e-10 
 7.4584920813095962e-10  7.6549558353955894e-10  7.8565946310238734e-10  8.0635447836927434e-10 
 8.2759461995797616e-10  8.4939424701236881e-10  8.7176809690977048e-10  8.9473129522396747e-10 
 9.1829936595067980e-10  9.4248824200236804e-10  9.6731427597948706e-10  9.9279425122546575e-10 
 1.0189453931728789e-09  1.0457853809885012e-09  1.0733323595250881e-09  1.1016049515879832e-09 
 1.1306222705248460e-09  1.1604039331469933e-09  1.1909700729911148e-09  1.2223413539302965e-09 
 1.2545389841435945e-09  1.2875847304535537e-09  1.3215009330414162e-09  1.3563105205499253e-09 
 1.3920370255839529e-09  1.4287046006194347e-09  1.4663380343313605e-09  1.5049627683518543e-09 
 1.5446049144696785e-09  1.5852912722827944e-09  1.6270493473159034e-09  1.6699073696152214e-09 
 1.7138943128330582e-09  1.7590399138151009e-09  1.8053746927036499e-09  1.8529299735703810e-09 
 1.9017379055926130e-09  1.9518314847873490e-09  2.0032445763178526e-09  2.0560119373877588e-09 
 2.1101692407382607e-09  2.1657530987642369e-09  2.2228010882656048e-09  2.2813517758506526e-09 
 2.3414447440085294e-09  2.4031206178685013e-09  2.4664210926640534e-09  2.5313889619204646e-09 
 2.5980681463848234e-09  2.6665037237181188e-09  2.7367419589694321e-09  2.8088303358528473e-09 
 2.8828175888482440e-09  2.9587537361476218e-09  3.0366901134692919e-09  3.1166794087627513e-09 
 3.1987756978277098e-09  3.2830344808713695e-09  3.3695127200286531e-09  3.4582688778707336e-09 
 3.5493629569279399e-09  3.6428565402537189e-09  3.7388128330570608e-09  3.8372967054316494e-09 
 3.9383747362104101e-09  4.0421152579753374e-09  4.1485884032528687e-09  4.2578661519260912e-09 
 4.3700223798958468e-09  4.4851329090235961e-09  4.6032755583898168e-09  4.7245301969026512e-09 
 4.8489787972922193e-09  4.9767054915272792e-09  5.1077966276915624e-09  5.2423408283583009e-09 
 5.3804290505023711e-09  5.5221546469906320e-09  5.6676134296919143e-09  5.8169037342493901e-09 
 5.9701264865591634e-09  6.1273852709998844e-09  6.2887864004596567e-09  6.4544389882074927e-09 
 6.6244550216579332e-09  6.7989494380786463e-09  6.9780402022923434e-09  7.1618483864252924e-09 
 7.3504982517566037e-09  7.5441173327234129e-09  7.7428365231388534e-09  7.9467901646811688e-09 
 8.1561161377135292e-09  8.3709559544963298e-09  8.5914548548546130e-09  8.8177619043655517e-09 
 9.0500300951322585e-09  9.2884164492120424e-09  9.5330821247690795e-09  9.7841925250231965e-09 
 1.0041917410068525e-08  1.0306431011637521e-08  1.0577912150887958e-08  1.0856544359292516e-08 
 1.1142516002712812e-08  1.1436020408741455e-08  1.1737255997398573e-08  1.2046426415271001e-08 
 1.2363740673184577e-08  1.2689413287503210e-08  1.3023664425149495e-08  1.3366720052445640e-08 
 1.3718812087874694e-08  1.4080178558865926e-08  1.4451063762709754e-08  1.4831718431711548e-08 
 1.5222399902695648e-08  1.5623372290974095e-08  1.6034906668898247e-08  1.6457281249113035e-08 
 1.6890781572638816e-08  1.7335700701907121e-08  1.7792339418881166e-08  1.8261006428395194e-08 
 1.8742018566849770e-08  1.9235701016404227e-08  1.9742387524811288e-08  2.0262420631042237e-08 
 2.0796151896855182e-08  2.1343942144463068e-08  2.1906161700461929e-08  2.2483190646184602e-08 
 2.3075419074648767e-08  2.3683247354273397e-08  2.4307086399541310e-08  2.4947357948791687e-08 
 2.5604494849329456e-08  2.6278941350044860e-08  2.6971153401740738e-08  2.7681598965370796e-08 
 2.8410758328396855e-08  2.9159124429479460e-08  2.9927203191720748e-08  3.0715513864685645e-08 
 3.1524589375431397e-08  3.2354976688784323e-08  3.3207237177105888e-08  3.4081946999798929e-08 
 3.4979697492810067e-08  3.5901095568392412e-08  3.6846764125397686e-08  3.7817342470375961e-08 
 3.8813486749767586e-08  3.9835870393478890e-08  4.0885184570142573e-08  4.1962138654369288e-08 
 4.3067460706307336e-08  4.4201897963834123e-08  4.5366217347712084e-08  4.6561205980051066e-08 
 4.7787671716426940e-08  4.9046443692016753e-08  5.0338372882119107e-08  5.1664332677439288e-08 
 5.3025219474527597e-08  5.4421953281769835e-08  5.5855478341340401e-08  5.7326763767537418e-08 
 5.8836804201932413e-08  6.0386620485776381e-08  6.1977260350118134e-08  6.3609799124099536e-08 
 6.5285340461908567e-08  6.7005017088880483e-08  6.8769991567250931e-08  7.0581457082079562e-08 
 7.2440638247876003e-08  7.4348791936471443e-08  7.6307208126697239e-08  7.8317210776444325e-08 
 8.0380158717692710e-08  8.2497446575116740e-08  8.4670505708886051e-08  8.6900805182300958e-08 
 8.9189852754914593e-08  9.1539195901814898e-08  9.3950422859754588e-08  9.6425163700835802e-08 
 9.8965091434476960e-08  1.0157192313840380e-07  1.0424742111943249e-07  1.0699339410482754e-07 
 1.0981169846503973e-07  1.1270423946864994e-07  1.1567297257037193e-07  1.1871990473297622e-07 
 1.2184709578403796e-07  1.2505665980841784e-07  1.2835076657742324e-07  1.3173164301561191e-07 
 1.3520157470623282e-07  1.3876290743631778e-07  1.4241804878247166e-07  1.4616946973843326e-07 
 1.5001970638550305e-07  1.5397136160697172e-07  1.5802710684770544e-07  1.6218968392007751e-07 
 1.6646190685746919e-07  1.7084666381658843e-07  1.7534691902989787e-07  1.7996571480946567e-07 
 1.8470617360360021e-07  1.8957150010765234e-07  1.9456498343041565e-07  1.9968999931759181e-07 
 2.0495001243381188e-07  2.1034857870477655e-07  2.1588934772107610e-07  2.2157606520532986e-07 
 2.2741257554430726e-07  2.3340282438774300e-07  2.3955086131560156e-07  2.4586084257559615e-07 
 2.5233703389281003e-07  2.5898381335331927e-07  2.6580567436376968e-07  2.7280722868890309e-07 
 2.7999320956908867e-07  2.8736847491996559e-07  2.9493801061636311e-07  3.0270693386270627e-07 
 3.1068049665220407e-07  3.1886408931713850e-07  3.2726324417266597e-07  3.3588363925659008e-07 
 3.4473110216763223e-07  3.5381161400479711e-07  3.6313131341049201e-07  3.7269650072013418e-07 
 3.8251364222104980e-07  3.9258937452354551e-07  4.0293050904710193e-07  4.1354403662472239e-07 
 4.2443713222855282e-07  4.3561715981995949e-07  4.4709167732734706e-07  4.5886844175507697e-07 
 4.7095541442694523e-07  4.8336076636775141e-07  4.9609288382661248e-07  5.0916037394573067e-07 
 5.2257207057847299e-07  5.3633704026066767e-07  5.5046458833917321e-07  5.6496426526184886e-07 
 5.7984587303318040e-07  5.9511947183992458e-07  6.1079538685124125e-07  6.2688421519793159e-07 
 6.4339683313545698e-07  6.6034440339562196e-07  6.7773838273185593e-07  6.9559052966320849e-07 
 7.1391291242229155e-07  7.3271791711251920e-07  7.5201825608018322e-07  7.7182697650699198e-07 
 7.9215746922891086e-07  8.1302347778722937e-07  8.3443910771798291e-07  8.5641883608601620e-07 
 8.7897752127010648e-07  9.0213041300577529e-07  9.2589316269256471e-07  9.5028183397273379e-07 
 9.7531291358853707e-07  1.0010033225254126e-06  1.0273704274485904e-06  1.0544320524408722e-06 
 1.0822064910494925e-06  1.1107125186502008e-06  1.1399694051369224e-06  1.1699969279455579e-06 
 1.2008153854207302e-06  1.2324456105344775e-06  1.2649089849662098e-06  1.2982274535533811e-06 
 1.3324235391226596e-06  1.3675203577116246e-06  1.4035416341912433e-06  1.4405117182996897e-06 
 1.4784556010983324e-06  1.5173989318609998e-06  1.5573680354079147e-06  1.5983899298960361e-06 
 1.6404923450777674e-06  1.6837037410404011e-06  1.7280533274389325e-06  1.7735710832352254e-06 
 1.8202877769568481e-06  1.8682349874892919e-06  1.9174451254155456e-06  1.9679514549174653e-06 
 2.0197881162537497e-06  2.0729901488296236e-06  2.1275935148738489e-06  2.1836351237390225e-06 
 2.2411528568415902e-06  2.3001855932583325e-06  2.3607732359966964e-06  2.4229567389565970e-06 
 2.4867781346019488e-06  2.5522805623606011e-06  2.6195082977717618e-06  2.6885067824006555e-06 
 2.7593226545405521e-06  2.8320037807228849e-06  2.9065992880567404e-06  2.9831595974194600e-06 
 3.0617364575208222e-06  3.1423829798637165e-06  3.2251536746249561e-06  3.3101044874803000e-06 
 3.3972928373986957e-06  3.4867776554310247e-06  3.5786194245196785e-06  3.6728802203557122e-06 
 3.7696237533111130e-06  3.8689154114744990e-06  3.9708223048192136e-06  4.0754133105336487e-06 
 4.1827591195442437e-06  4.2929322842626292e-06  4.4060072675890132e-06  4.5220604932048736e-06 
 4.6411703971887755e-06  4.7634174809902619e-06  4.8888843657972577e-06  5.0176558483338074e-06 
 5.1498189581257062e-06  5.2854630162725127e-06  5.4246796957655751e-06  5.5675630833927733e-06 
 5.7142097432714975e-06  5.8647187820528452e-06  6.0191919158407491e-06  6.1777335388713069e-06 
 6.3404507939982701e-06  6.5074536450324823e-06  6.6788549509837347e-06  6.8547705422549866e-06 
 7.0353192988404809e-06  7.2206232305800835e-06  7.4108075595241358e-06  7.6060008044640322e-06 
 7.8063348676855636e-06  8.0119451240032231e-06  8.2229705121356901e-06  8.4395536284835724e-06 
 8.6618408233728624e-06  8.8899822998286234e-06  9.1241322149454207e-06  9.3644487839227138e-06 
 9.6110943868352515e-06  9.8642356782101383e-06  1.0124043699484232e-05  1.0390693994418016e-05 
 1.0664366727542690e-05  1.0945246805721122e-05  1.1233524002903550e-05  1.1529393088162644e-05 
 1.1833053957093515e-05  1.2144711766667423e-05  1.2464577073629626e-05  1.2792865976534586e-05 
 1.3129800261514193e-05  1.3475607551876652e-05  1.3830521461637156e-05  1.4194781753083329e-05 
 1.4568634498481552e-05  1.4952332246032966e-05  1.5346134190190815e-05  1.5750306346453735e-05 
 1.6165121730752813e-05  1.6590860543552980e-05  1.7027810358792738e-05  1.7476266317789588e-05 
 1.7936531328241732e-05  1.8408916268459947e-05  1.8893740196967677e-05  1.9391330567610253e-05 
 1.9902023450318490e-05  2.0426163757675654e-05  2.0964105477440490e-05  2.1516211911183658e-05 
 2.2082855919198266e-05  2.2664420171850460e-05  2.3261297407539903e-05  2.3873890697444209e-05 
 2.4502613717227642e-05  2.5147891025896700e-05  2.5810158351992606e-05  2.6489862887314851e-05 
 2.7187463588374590e-05  2.7903431485783088e-05  2.8638250001785952e-05  2.9392415276158488e-05 
 3.0166436500685558e-05  3.0960836262452869e-05  3.1776150896185096e-05  3.2612930845871438e-05 
 3.3471741035927030e-05  3.4353161252143529e-05  3.5257786532691961e-05  3.6186227569446484e-05 
 3.7139111119905721e-05  3.8117080429996208e-05  3.9120795668050962e-05  4.0150934370264083e-05 
 4.1208191897930837e-05  4.2293281906793214e-05  4.3406936828816898e-05  4.4549908366739198e-05 
 4.5722968001734752e-05  4.6926907514556759e-05  4.8162539520522636e-05  4.9430698018723950e-05 
 5.0732238955851154e-05  5.2068040805036931e-05  5.3439005160134569e-05  5.4846057345857016e-05 
 5.6290147044222283e-05  5.7772248937758247e-05  5.9293363369938871e-05  6.0854517023336637e-05 
 6.2456763615993219e-05  6.4101184616526617e-05  6.5788889978508439e-05  6.7521018894666599e-05 
 6.9298740571483789e-05  7.1123255024784225e-05  7.2995793896920224e-05  7.4917621296193733e-05 
 7.6890034659167874e-05  7.8914365636549328e-05  8.0991981003347374e-05  8.3124283594038632e-05 
 8.5312713263500426e-05  8.7558747874495667e-05  8.9863904312531776e-05  9.2229739528941341e-05 
 9.4657851613070643e-05  9.7149880894495044e-05  9.9707511076220081e-05  1.0233247039986576e-04 
 1.0502653284387324e-04  1.0779151935582150e-04  1.1062929911998280e-04  1.1354179086130174e-04 
 1.1653096418703258e-04  1.1959884096732725e-04  1.2274749675612585e-04  1.2597906225376713e-04 
 1.2929572481280079e-04  1.3269972998855684e-04  1.3619338313611097e-04  1.3977905105535225e-04 
 1.4345916368596100e-04  1.4723621585419118e-04  1.5111276907345015e-04  1.5509145340077970e-04 
 1.5917496935144885e-04  1.6336608987400000e-04  1.6766766238820321e-04  1.7208261088853797e-04 
 1.7661393811593885e-04  1.8126472780072950e-04  1.8603814697981826e-04  1.9093744839142649e-04 
 1.9596597295080655e-04  2.0112715231061982e-04  2.0642451150987648e-04  2.1186167171556510e-04 
 2.1744235306138496e-04  2.2317037758824075e-04  2.2904967229149284e-04  2.3508427228025191e-04 
 2.4127832405436983e-04  2.4763608890513952e-04  2.5416194644613472e-04  2.6086039828102114e-04 
 2.6773607181567328e-04  2.7479372422239653e-04  2.8203824656461559e-04  2.8947466809094364e-04 
 2.9710816070820730e-04  3.0494404364363127e-04  3.1298778830714084e-04  3.2124502336550203e-04 
 3.2972154004087204e-04  3.3842329764721809e-04  3.4735642937906426e-04  3.5652724836804524e-04 
 3.6594225402390826e-04  3.7560813867779986e-04  3.8553179454701905e-04  3.9572032104180448e-04 
 4.0618103243628302e-04  4.1692146592734532e-04  4.2794939010699055e-04  4.3927281387562249e-04 
 4.5089999582581357e-04  4.6283945412833557e-04  4.7509997695462656e-04  4.8769063347247786e-04 
 5.0062078545453877e-04  5.1390009954224367e-04  5.2753856021104468e-04  5.4154648348634304e-04 
 5.5593453146332193e-04  5.7071372768797599e-04  5.8589547346103862e-04  6.0149156513131089e-04 
 6.1751421245000116e-04  6.3397605806326575e-04  6.5089019822610642e-04  6.6827020482724913e-04 
 6.8613014882157449e-04  7.0448462517423694e-04  7.2334877942862544e-04  7.4273833601914171e-04 
 7.6266962845915310e-04  7.8315963154465464e-04  8.0422599572512919e-04  8.2588708380493974e-04 
 8.4816201015129415e-04  8.7107068259861017e-04  8.9463384725388254e-04  9.1887313642367103e-04 
 9.4381111990050057e-04  9.6947135986506555e-04  9.9587846968060686e-04  1.0230581768774034e-03 
 1.0510373906485288e-03  1.0798442742030909e-03  1.1095083223501077e-03  1.1400604447152323e-03 
 1.1715330550238529e-03  1.2039601669177663e-03  1.2373774968089531e-03  1.2718225743130428e-03 
 1.3073348608471508e-03  1.3439558770220478e-03  1.3817293395074200e-03  1.4207013081013881e-03 
 1.4609203437919965e-03  1.5024376786590252e-03  1.5453073985299195e-03  1.5895866393738369e-03 
 1.6353357984934631e-03  1.6826187616553437e-03  1.7315031473870185e-03  1.7820605697629233e-03 
 1.8343669211019734e-03  1.8885026761080721e-03  1.9445532191011508e-03  2.0026091961112382e-03 
 2.0627668937422995e-03  2.1251286468564842e-03  2.1898032772838735e-03  2.2569065659286641e-03 
 2.3265617608202401e-03  2.3989001238483047e-03  2.4740615191252346e-03  2.5521950461380922e-03 
 2.6334597210861620e-03  2.7180252100521027e-03  2.8060726179224087e-03  2.8977953372603805e-03 
 2.9933999616433803e-03  3.0931072683027363e-03  3.1971532752585780e-03  3.3057903785148205e-03 
 3.4192885752816031e-03  3.5379367796202934e-03  3.6620442373617888e-03  3.7919420476359381e-03 
 3.9279847988687869e-03  4.0705523276558788e-03  4.2200516095090438e-03  4.3769187910991632e-03 
 4.5416213742822077e-03  4.7146605629045405e-03  4.8965737841323090e-03  5.0879373968469085e-03 
 5.2893696004947515e-03  5.5015335586715841e-03  5.7251407526727680e-03  5.9609545812392330e-03 
 6.2097942237928777e-03  6.4725387855684323e-03  6.7501317442333446e-03  7.0435857188271087e-03 
 7.3539875831621637e-03  7.6825039472027644e-03  8.0303870313844575e-03  8.3989809603511531e-03 
 8.7897285041734358e-03  9.2041782967725392e-03  9.6439925630067667e-03  1.0110955387684094e-02 
 1.0606981561644975e-02  1.1134126042012410e-02  1.1694594065732693e-02  1.2290751957623105e-02 
 1.2925138676306019e-02  1.3600478143633970e-02  1.4319692405500843e-02  1.5085915674258458e-02 
 1.5902509305369121e-02  1.6773077763328065e-02  1.7701485634361941e-02  1.8691875745875570e-02 
 1.9748688455125160e-02  2.0876682172037996e-02  2.2080955183598636e-02  2.3366968849592051e-02 
 2.4740572241886992e-02  2.6208028301663730e-02  2.7776041591200579e-02  2.9451787718789153e-02 
 3.1242944517238726e-02  3.3157725058026000e-02  3.5204912584551828e-02  3.7393897449049175e-02 
 3.9734716138436849e-02  4.2238092474761998e-02  4.4915481075790187e-02  4.7779113160699022e-02 
 5.0842044784594816e-02  5.4118207583769562e-02  5.7622462110968400e-02  6.1370653836545261e-02 
 6.5379671886961518e-02  6.9667510586739076e-02  7.4253333863357973e-02  7.9157542566770239e-02 
 8.4401844745886551e-02  9.0009328913585332e-02  9.6004540319148735e-02  1.0241356023249185e-01 
 1.0926408822796219e-01  1.1658552743640060e-01  1.2440907271266345e-01  1.3276780164134216e-01 
 1.4169676827593164e-01  1.5123309947574443e-01  1.6141609367016913e-01  1.7228732184111839e-01 
 1.8389073047117013e-01  1.9627274615676737e-01  2.0948238153224519e-01  2.2357134209115861e-01 
 2.3859413342562547e-01  2.5460816833197292e-01  2.7167387315103475e-01  2.8985479262366265e-01 
 3.0921769244584418e-01  3.2983265860248989e-01  3.5177319244435090e-01  3.7511630034789623e-01 
 3.9994257666304067e-01  4.2633627850828831e-01  4.5438539081672885e-01  4.8418167986972005e-01 
 5.1582073337834777e-01  5.4940198498620529e-01  5.8502872087215341e-01  6.2280806592940774e-01 
 6.6285094678992573e-01  7.0527202875287043e-01  7.5018962346615148e-01  7.9772556400473871e-01 
 8.4800504379316566e-01  9.0115641563807558e-01  9.5731094697657382e-01  1.0166025273144501e+00 
 1.0791673237342603e+00  1.1451433803054425e+00  1.2146701572375491e+00  1.2878880056939850e+00 
 1.3649375743385357e+00  1.4459591439316029e+00  1.5310918866385435e+00  1.6204730471688151e+00 
 1.7142370434407324e+00  1.8125144851691388e+00  1.9154311096062511e+00  2.0231066346295732e+00 
 2.1356535304612421e+00  2.2531757125110756e+00  2.3757671591455951e+00  2.5035104595759075e+00 
 2.6364752985003213e+00  2.7747168855960025e+00  2.9182743393886623e+00  3.0671690363903492e+00 
 3.2214029376337630e+00  3.3809569057938482e+00  3.5457890269234813e+00  3.7158329513949599e+00 
 3.8909962688979212e+00  4.0711589322790163e+00  4.2561717446209730e+00  4.4458549232790538e+00 
 4.6399967536826123e+00  4.8383523446672765e+00  5.0406424960668286e+00  5.2465526884389551e+00 
 5.4557322043378607e+00  5.6677933907172804e+00  5.8823110731048613e+00  6.0988221343792137e+00 
 6.3168252745284992e+00  6.5357809728318266e+00  6.7551116805512645e+00  6.9742022803860930e+00 
 7.1924008583847492e+00  7.4090198442877515e+00  7.6233375867028919e+00  7.8346004391569366e+00 
 8.0420254407387599e+00  8.2448036793421551e+00  8.4421044248677539e+00  8.6330801125299246e+00 
 8.8168722410941953e+00  8.9926182261613672e+00  9.1594592137062403e+00  9.3165488138652002e+00 
 9.4630626602798102e+00  9.5982086381150076e+00  9.7212375574427909e+00  9.8314539826015874e+00 
 9.9282268682306132e+00  1.0010999605716179e+01  1.0079299057044691e+01  1.0132743153625061e+01 
 1.0171046671585239e+01  1.0194024866429508e+01  1.0201594759825387e+01  1.0193774016803451e+01 
 1.0170677525299160e+01  1.0132511979283812e+01  1.0079568954494626e+01  1.0012217130822425e+01 
 9.9308944342131173e+00  9.8361009198645508e+00  9.7283931768020473e+00  9.6083808871667351e+00 
 9.4767259172745391e+00  9.3341439605623506e+00  9.1814083196428697e+00  9.0193549473703403e+00 
 8.8488874220754283e+00  8.6709801781725577e+00  8.4866781221331529e+00  8.2970908006649786e+00 
 8.1033795992339428e+00  7.9067370499798812e+00  7.7083581926503344e+00  7.5094049883941221e+00 
 7.3109659181202078e+00  7.1140139545411873e+00  6.9193669126733450e+00  6.7276545946114092e+00 
 6.5392970159557500e+00  6.3544972491684071e+00  6.1732510303077683e+00  5.9953733254876571e+00 
 5.8205397190892860e+00  5.6483380508633072e+00  5.4783235729432329e+00  5.3100886871377107e+00 
 5.1434168022040794e+00  4.9784177890196446e+00  4.8152638315426941e+00  4.6541140004955697e+00 
 4.4951148251670681e+00  4.3384008741571822e+00  4.1840953385497350e+00  4.0323106115322833e+00 
 3.8831488590339687e+00  3.7367025765150155e+00  3.5930551276113123e+00  3.4522812609094045e+00 
 3.3144476016969748e+00  3.1796131160980110e+00  3.0478295455572453e+00  2.9191418101825994e+00 
 2.7935883799853669e+00  2.6712016135741337e+00  2.5520080643731098e+00  2.4360287548324893e+00 
 2.3232794197783724e+00  2.2137707201073082e+00  2.1075084292952493e+00  2.0044935939629052e+00 
 1.9047226721291819e+00  1.8081876516628383e+00  1.7148761522988416e+00  1.6247715147380997e+00 
 1.5378528805319887e+00  1.4540952665578586e+00  1.3734696379208691e+00  1.2959429830465072e+00 
 1.2214783945606349e+00  1.1500351592989260e+00  1.0815688603903322e+00  1.0160314939219393e+00 
 9.5337160182868108e-01  8.9353442388233240e-01  8.3646206641016441e-01  7.8209369078650659e-01 
 7.3036571956453078e-01  6.8121205927739781e-01  6.3456433809567392e-01  5.9035215600555935e-01 
 5.4850334485691532e-01  5.0894423532546351e-01  4.7159992765858377e-01  4.3639456310360503e-01 
 4.0325159293428220e-01  3.7209404217049985e-01  3.4284476537796849e-01  3.1542669222689595e-01 
 2.8976306087456588e-01  2.6577763766069429e-01  2.4339492200725912e-01  2.2254033584092991e-01 
 2.0314039724886326e-01  1.8512287842467307e-01  1.6841694828031650e-01  1.5295330033171400e-01 
 1.3866426665017081e-01  1.2548391879038232e-01  1.1334815664209423e-01  1.0219478615001575e-01 
 9.1963586778063849e-02  8.2596369492734079e-02  7.4037025909852963e-02  6.6231569105142774e-02 
 5.9128166444515733e-02  5.2677164656477773e-02  4.6831107256119241e-02  4.1544744344916576e-02 
 3.6775034757173738e-02  3.2481140503799320e-02  2.8624413476064085e-02  2.5168374412704982e-02 
 2.2078684198296797e-02  1.9323107643226790e-02  1.6871469989431901e-02  1.4695606484856273e-02 
 1.2769305467370411e-02  1.1068245490410049e-02  9.5699271035444115e-03  8.2535999683101824e-03 
 7.1001860407634010e-03  6.0921995861232337e-03  5.2136648073461463e-03  4.4500318689855850e-03 
 3.7880920814084150e-03  3.2158929799753536e-03  2.7226539911080652e-03  2.2986833244137282e-03 
 1.9352966694593061e-03  1.6247382096010530e-03  1.3601043956081723e-03  1.1352708506386297e-03 
 9.4482270720138068e-04  7.8398860760928320e-04  6.4857853339600100e-04  5.3492556725375060e-04 
 4.3983163417466348e-04  3.6051721693394339e-04  2.9457499572542109e-04  2.3992732213804917e-04 
 1.9478740444936452e-04  1.5762405374169003e-04  1.2712981868083555e-04  1.0219232045984230e-04 
 8.1868588023216880e-05  6.5362186780271996e-05  5.2002931093941119e-05  4.1228971384399735e-05 
 3.2571050205902272e-05  2.5638727644365271e-05  2.0108384368930111e-05  1.5712820210096305e-05 
 1.2232276823245546e-05  9.4867244627080147e-06  7.3292648133748261e-06  5.6405139226253804e-06 
 4.3238413056640419e-06  3.3013530644613927e-06  2.5105182040363169e-06  1.9013481271478762e-06 
 1.4340494472838292e-06  1.0770797187062393e-06  8.0554440376901675e-07  5.9988136658747265e-07 
 4.4478640103835621e-07  3.2833978736223709e-07  2.4129965422817642e-07  1.7653303960339712e-07 
 1.2856003791496984e-07  9.3190340523854771e-08  6.7234871258515502e-08  4.8278138989649918e-08 
 3.4499424523873473e-08  2.4533037253016392e-08  1.7359663318114311e-08  1.2222323808968197e-08 
 8.5617076333503741e-09  5.9666745291592848e-09  4.1365710431314113e-09  2.8526944224255759e-09 
 1.9568011286538975e-09  1.3350097651897877e-09  9.0581132724885635e-10  6.1118886312064880e-10 
 4.1007747031932811e-10  2.7357548283347961e-10  1.8145828264869258e-10  1.1965529388935535e-10 
 7.8434882061835662e-11  5.1106372671502169e-11  3.3097498762508502e-11  2.1302716040549784e-11 
 1.3625717941710208e-11  8.6602990310166884e-12  5.4691452750436549e-12  3.4314892633934996e-12 
 2.1388752779058225e-12  1.3243125646676681e-12  8.1444169771485346e-13  4.9745616272646320e-13 
 3.0174297309077913e-13  1.8174666680419393e-13  1.0869351314179605e-13  6.4536911257686971e-14 
 3.8039873364785040e-14  2.2256393100975692e-14  1.2924499014683509e-14  7.4485606062184166e-15 
 4.2597680922048865e-15  2.4172875776289235e-15  1.3608399731726065e-15  7.6009958990720988e-16 
 4.2108099074704768e-16  2.3135487216395419e-16  1.2607917535430612e-16  6.8123478554644612e-17 
 3.6458482094833767e-17  1.9395138925427879e-17  1.0274389697419230e-17  5.2294151542715673e-18 
 2.6927309898037022e-18  1.6688086044350845e-18  4.9019132900952504e-19  6.5978996385347342e-19 
 3.1650814741746858e-19  1.5038407171857819e-19  7.0762292979838398e-20  0.0000000000000000e+00 
 0.0000000000000000e+00  0.0000000000000000e+00  0.0000000000000000e+00  0.0000000000000000e+00 
 0.0000000000000000e+00  0.0000000000000000e+00  0.0000000000000000e+00  0.0000000000000000e+00 
 0.0000000000000000e+00  0.0000000000000000e+00  0.0000000000000000e+00  0.0000000000000000e+00 
 0.0000000000000000e+00  0.0000000000000000e+00  0.0000000000000000e+00  0.0000000000000000e+00 
 0.0000000000000000e+00  0.0000000000000000e+00  0.0000000000000000e+00  0.0000000000000000e+00 
 0.0000000000000000e+00  0.0000000000000000e+00  0.0000000000000000e+00  0.0000000000000000e+00 
 0.0000000000000000e+00  0.0000000000000000e+00  0.0000000000000000e+00  0.0000000000000000e+00 
 0.0000000000000000e+00  0.0000000000000000e+00  0.0000000000000000e+00  0.0000000000000000e+00 
 0.0000000000000000e+00  0.0000000000000000e+00  0.0000000000000000e+00  0.0000000000000000e+00 
 0.0000000000000000e+00  0.0000000000000000e+00  0.0000000000000000e+00  0.0000000000000000e+00 
 0.0000000000000000e+00  0.0000000000000000e+00  0.0000000000000000e+00  0.0000000000000000e+00 
 0.0000000000000000e+00  0.0000000000000000e+00  0.0000000000000000e+00  0.0000000000000000e+00 
 0.0000000000000000e+00  0.0000000000000000e+00  0.0000000000000000e+00  0.0000000000000000e+00 
 0.0000000000000000e+00  0.0000000000000000e+00  0.0000000000000000e+00  0.0000000000000000e+00 
 0.0000000000000000e+00  0.0000000000000000e+00  0.0000000000000000e+00  0.0000000000000000e+00 
 0.0000000000000000e+00  0.0000000000000000e+00  0.0000000000000000e+00  0.0000000000000000e+00 
 0.0000000000000000e+00  0.0000000000000000e+00  0.0000000000000000e+00  0.0000000000000000e+00 
 0.0000000000000000e+00  0.0000000000000000e+00  0.0000000000000000e+00  0.0000000000000000e+00 
 0.0000000000000000e+00  0.0000000000000000e+00  0.0000000000000000e+00  0.0000000000000000e+00 
 0.0000000000000000e+00  0.0000000000000000e+00  0.0000000000000000e+00  0.0000000000000000e+00 
 0.0000000000000000e+00  0.0000000000000000e+00  0.0000000000000000e+00  0.0000000000000000e+00 
 0.0000000000000000e+00  0.0000000000000000e+00  0.0000000000000000e+00  0.0000000000000000e+00 
 0.0000000000000000e+00  0.0000000000000000e+00  0.0000000000000000e+00  0.0000000000000000e+00 
 0.0000000000000000e+00  0.0000000000000000e+00  0.0000000000000000e+00  0.0000000000000000e+00 
 0.0000000000000000e+00  0.0000000000000000e+00  0.0000000000000000e+00  0.0000000000000000e+00 
 0.0000000000000000e+00  0.0000000000000000e+00  0.0000000000000000e+00  0.0000000000000000e+00 
 0.0000000000000000e+00  0.0000000000000000e+00  0.0000000000000000e+00  0.0000000000000000e+00 
 0.0000000000000000e+00  0.0000000000000000e+00  0.0000000000000000e+00  0.0000000000000000e+00 
 0.0000000000000000e+00  0.0000000000000000e+00  0.0000000000000000e+00  0.0000000000000000e+00 
 0.0000000000000000e+00  0.0000000000000000e+00  0.0000000000000000e+00  0.0000000000000000e+00 
 0.0000000000000000e+00  0.0000000000000000e+00  0.0000000000000000e+00  0.0000000000000000e+00 
 0.0000000000000000e+00  0.0000000000000000e+00  0.0000000000000000e+00  0.0000000000000000e+00 
 0.0000000000000000e+00  0.0000000000000000e+00  0.0000000000000000e+00  0.0000000000000000e+00 
 0.0000000000000000e+00 
</PP_RHOATOM>


<PP_ADDINFO>
 1S  1  0   0.50  2.00 
 2P  2  1   0.50  0.00 
 2P  2  1   1.50  0.00 
 3D  3  2   1.50  4.00 
 3D  3  2   2.50  6.00 
  1   0.50 
  1   1.50 
  2   1.50 
  2   2.50 
 -6.27252754,  117.30216498,   82.00000000,    0.01300000 
</PP_ADDINFO>
