
     Program PWSCF v.6.4.1 starts on  5Sep2020 at 19:53:13 

     This program is part of the open-source Quantum ESPRESSO suite
     for quantum simulation of materials; please cite
         "P. Giannozzi et al., J. Phys.:Condens. Matter 21 395502 (2009);
         "P. Giannozzi et al., J. Phys.:Condens. Matter 29 465901 (2017);
          URL http://www.quantum-espresso.org", 
     in publications or presentations arising from this work. More details at
     http://www.quantum-espresso.org/quote

     Parallel version (MPI & OpenMP), running on     256 processor cores
     Number of MPI processes:                64
     Threads/MPI process:                     4

     MPI processes distributed on     4 nodes
     K-points division:     npool     =       8
     R & G space division:  proc/nbgrp/npool/nimage =       8
     Reading input from T320_ts3000_scf.in

     Current dimensions of program PWSCF are:
     Max number of different atomic species (ntypx) = 10
     Max number of k-points (npk) =  40000
     Max angular momentum in pseudopotentials (lmaxx) =  3

     Subspace diagonalization in iterative solution of the eigenvalue problem:
     one sub-group per band group will be used
     scalapack distributed-memory algorithm (size of sub-group:  2*  2 procs)

 
     Parallelization info
     --------------------
     sticks:   dense  smooth     PW     G-vecs:    dense   smooth      PW
     Min        1126    1126    300                80260    80260   11023
     Max        1127    1127    301                80262    80262   11024
     Sum        9009    9009   2401               642083   642083   88191
 

     Title: 
     T320_ts3000                                                                


     bravais-lattice index     =            0
     lattice parameter (alat)  =      23.7274  a.u.
     unit-cell volume          =   13440.5562 (a.u.)^3
     number of atoms/cell      =           96
     number of atomic types    =            5
     number of electrons       =       640.00
     number of Kohn-Sham states=          700
     kinetic-energy cutoff     =      50.0000  Ry
     charge density cutoff     =     200.0000  Ry
     convergence threshold     =      1.0E-04
     mixing beta               =       0.7000
     number of iterations used =            8  plain     mixing
     Exchange-correlation      = SLA  PW   PBE  PBE ( 1  4  3  4 0 0)
     Non magnetic calculation with spin-orbit


     celldm(1)=  23.727439  celldm(2)=   0.000000  celldm(3)=   0.000000
     celldm(4)=   0.000000  celldm(5)=   0.000000  celldm(6)=   0.000000

     crystal axes: (cart. coord. in units of alat)
               a(1) = (   1.000000   0.000000   0.000000 )  
               a(2) = (   0.000000   1.006154   0.000000 )  
               a(3) = (   0.000000   0.000000   1.000000 )  

     reciprocal axes: (cart. coord. in units 2 pi/alat)
               b(1) = (  1.000000  0.000000  0.000000 )  
               b(2) = (  0.000000  0.993883  0.000000 )  
               b(3) = (  0.000000  0.000000  1.000000 )  


     PseudoPot. # 1 for H  read from file:
     /global/homes/d/d_abram/dft/pseudos/h_srl_gga.upf
     MD5 check sum: ab276909a9cd17446c251ba4380ebe68
     Pseudo is Norm-conserving, Zval =  1.0
     Generated by new atomic code, or converted to UPF format
     Using radial grid of 1076 points,  0 beta functions with: 

     PseudoPot. # 2 for C  read from file:
     /global/homes/d/d_abram/dft/pseudos/c_srl_gga.upf
     MD5 check sum: de9e42bb94d891d86d6164ce4df3162e
     Pseudo is Norm-conserving, Zval =  4.0
     Generated by new atomic code, or converted to UPF format
     Using radial grid of 1122 points,  1 beta functions with: 
                l(1) =   1

     PseudoPot. # 3 for N  read from file:
     /global/homes/d/d_abram/dft/pseudos/n_srl_gga.upf
     MD5 check sum: fc04c09f9cf6be3b101c21da36b38153
     Pseudo is Norm-conserving, Zval =  5.0
     Generated by new atomic code, or converted to UPF format
     Using radial grid of 1126 points,  1 beta functions with: 
                l(1) =   1

     PseudoPot. # 4 for Pb read from file:
     /global/homes/d/d_abram/dft/pseudos/pb_frl_gga.upf
     MD5 check sum: 00b12db5c119af3e4e38a6ffd441034c
     Pseudo is Norm-conserving, Zval = 14.0
     Generated by new atomic code, or converted to UPF format
     Using radial grid of 1189 points,  4 beta functions with: 
                l(1) =   1
                l(2) =   1
                l(3) =   2
                l(4) =   2

     PseudoPot. # 5 for I  read from file:
     /global/homes/d/d_abram/dft/pseudos/i_frl_gga.upf
     MD5 check sum: a2e458d981e5f38f1248c9a07f7dbf45
     Pseudo is Norm-conserving, Zval = 17.0
     Generated by new atomic code, or converted to UPF format
     Using radial grid of 1178 points,  4 beta functions with: 
                l(1) =   1
                l(2) =   1
                l(3) =   2
                l(4) =   2

     atomic species   valence    mass     pseudopotential
        H              1.00     1.00800     H ( 1.00)
        C              4.00    12.01000     C ( 1.00)
        N              5.00    14.01000     N ( 1.00)
        Pb            14.00   207.20000     Pb( 1.00)
        I             17.00   126.90000     I ( 1.00)

     No symmetry found



   Cartesian axes

     site n.     atom                  positions (alat units)
         1           Pb  tau(   1) = (   0.0287306   0.0207224   0.9943119  )
         2           I   tau(   2) = (   0.2652855   0.9695031   0.9815531  )
         3           I   tau(   3) = (   0.0348847   0.2515718   0.9934438  )
         4           I   tau(   4) = (   0.0153954   0.0046595   0.2343322  )
         5           H   tau(   5) = (   0.3261663   0.1911482   0.2103039  )
         6           H   tau(   6) = (   0.2518760   0.1527323   0.3180291  )
         7           H   tau(   7) = (   0.3465079   0.2506678   0.3261065  )
         8           N   tau(   8) = (   0.2900497   0.2163273   0.2822176  )
         9           C   tau(   9) = (   0.2088241   0.2953571   0.2667669  )
        10           H   tau(  10) = (   0.1594574   0.2624239   0.1990057  )
        11           H   tau(  11) = (   0.1597951   0.2972415   0.3426333  )
        12           H   tau(  12) = (   0.2475251   0.3765357   0.2530157  )
        13           Pb  tau(  13) = (   0.9952835   0.0097941   0.4907064  )
        14           I   tau(  14) = (   0.2512500   0.0032972   0.5019242  )
        15           I   tau(  15) = (   0.9914129   0.2539921   0.4779739  )
        16           I   tau(  16) = (   0.0048787   1.0042434   0.7436759  )
        17           H   tau(  17) = (   0.2085573   0.1702474   0.6678430  )
        18           H   tau(  18) = (   0.1172569   0.2610668   0.7083041  )
        19           H   tau(  19) = (   0.2246420   0.3136392   0.6540576  )
        20           N   tau(  20) = (   0.1951781   0.2469110   0.6994732  )
        21           C   tau(  21) = (   0.2547200   0.2494939   0.8004368  )
        22           H   tau(  22) = (   0.2277927   0.3220240   0.8341975  )
        23           H   tau(  23) = (   0.3405713   0.2539212   0.7887252  )
        24           H   tau(  24) = (   0.2353047   0.1744175   0.8465342  )
        25           Pb  tau(  25) = (   0.0152681   0.5030025   0.0111603  )
        26           I   tau(  26) = (   0.2499439   0.5325613   0.0063976  )
        27           I   tau(  27) = (   0.9782957   0.7518680   0.9880121  )
        28           I   tau(  28) = (   0.0075616   0.5229898   0.2621651  )
        29           H   tau(  29) = (   0.2887237   0.7000825   0.1381266  )
        30           H   tau(  30) = (   0.3142166   0.8312507   0.1835813  )
        31           H   tau(  31) = (   0.3501739   0.7235446   0.2548435  )
        32           N   tau(  32) = (   0.2945854   0.7535748   0.2022329  )
        33           C   tau(  33) = (   0.1877577   0.7477983   0.2488822  )
        34           H   tau(  34) = (   0.1947416   0.8037021   0.3130960  )
        35           H   tau(  35) = (   0.1810996   0.6616938   0.2706765  )
        36           H   tau(  36) = (   0.1267384   0.7792899   0.1918323  )
        37           Pb  tau(  37) = (   0.9925996   0.4997674   0.5128154  )
        38           I   tau(  38) = (   0.2434338   0.4751211   0.5407717  )
        39           I   tau(  39) = (   0.9888165   0.7662994   0.4869338  )
        40           I   tau(  40) = (   0.9832654   0.4935688   0.7547121  )
        41           H   tau(  41) = (   0.3034481   0.8203157   0.8025393  )
        42           H   tau(  42) = (   0.3521044   0.7371476   0.7100841  )
        43           H   tau(  43) = (   0.3023243   0.6814110   0.8136177  )
        44           N   tau(  44) = (   0.2948060   0.7460254   0.7649844  )
        45           C   tau(  45) = (   0.1901231   0.7342677   0.7077075  )
        46           H   tau(  46) = (   0.1900148   0.7978723   0.6513218  )
        47           H   tau(  47) = (   0.1765663   0.6582388   0.6668674  )
        48           H   tau(  48) = (   0.1360750   0.7554050   0.7748490  )
        49           Pb  tau(  49) = (   0.5005113   0.0022599   0.9925518  )
        50           I   tau(  50) = (   0.7455587   0.0475873   0.9799443  )
        51           I   tau(  51) = (   0.4681507   0.2467589   0.0566109  )
        52           I   tau(  52) = (   0.5066964   0.9523878   0.2293378  )
        53           H   tau(  53) = (   0.6615990   0.2126327   0.3315103  )
        54           H   tau(  54) = (   0.6329577   0.2550896   0.2127689  )
        55           H   tau(  55) = (   0.6893538   0.1290552   0.2342287  )
        56           N   tau(  56) = (   0.6856281   0.2085374   0.2534880  )
        57           C   tau(  57) = (   0.7859656   0.2586560   0.2470464  )
        58           H   tau(  58) = (   0.8427272   0.2009865   0.2763519  )
        59           H   tau(  59) = (   0.7835341   0.3244420   0.3090924  )
        60           H   tau(  60) = (   0.8096913   0.2856725   0.1684435  )
        61           Pb  tau(  61) = (   0.4954006   0.0055762   0.5038396  )
        62           I   tau(  62) = (   0.7487898   0.0207298   0.4897882  )
        63           I   tau(  63) = (   0.4992227   0.2413902   0.4610314  )
        64           I   tau(  64) = (   0.5037010   0.0574318   0.7478453  )
        65           H   tau(  65) = (   0.6372314   0.3039705   0.7734784  )
        66           H   tau(  66) = (   0.6642479   0.1752833   0.7577290  )
        67           H   tau(  67) = (   0.6983885   0.2687221   0.6745832  )
        68           N   tau(  68) = (   0.6966467   0.2480022   0.7508279  )
        69           C   tau(  69) = (   0.7975855   0.2688137   0.8105753  )
        70           H   tau(  70) = (   0.7646890   0.2829862   0.8914290  )
        71           H   tau(  71) = (   0.8521251   0.2024352   0.8099541  )
        72           H   tau(  72) = (   0.8278260   0.3417755   0.7812643  )
        73           Pb  tau(  73) = (   0.5057152   0.4990610   0.0033213  )
        74           I   tau(  74) = (   0.7307284   0.4719991   0.0366883  )
        75           I   tau(  75) = (   0.5243859   0.7562699   0.9480552  )
        76           I   tau(  76) = (   0.4780305   0.5397013   0.2723960  )
        77           H   tau(  77) = (   0.8144539   0.6313338   0.2421213  )
        78           H   tau(  78) = (   0.6907993   0.6797441   0.2242104  )
        79           H   tau(  79) = (   0.7453453   0.6815408   0.3420152  )
        80           N   tau(  80) = (   0.7586018   0.6934275   0.2665837  )
        81           C   tau(  81) = (   0.8092612   0.7989235   0.2349678  )
        82           H   tau(  82) = (   0.7961344   0.8137292   0.1488760  )
        83           H   tau(  83) = (   0.7764284   0.8683803   0.2817087  )
        84           H   tau(  84) = (   0.8928864   0.7917533   0.2451565  )
        85           Pb  tau(  85) = (   0.4998750   0.4841224   0.5040769  )
        86           I   tau(  86) = (   0.7463567   0.4881977   0.4944290  )
        87           I   tau(  87) = (   0.4736533   0.7468776   0.5336938  )
        88           I   tau(  88) = (   0.5072682   0.4498878   0.7503341  )
        89           H   tau(  89) = (   0.7728715   0.8957934   0.8124868  )
        90           H   tau(  90) = (   0.7074344   0.7942023   0.8555259  )
        91           H   tau(  91) = (   0.8409114   0.7839395   0.8483819  )
        92           N   tau(  92) = (   0.7732259   0.8143185   0.8095001  )
        93           C   tau(  93) = (   0.7675450   0.7698690   0.6988855  )
        94           H   tau(  94) = (   0.6990304   0.8011217   0.6638656  )
        95           H   tau(  95) = (   0.7629153   0.6855899   0.6999726  )
        96           H   tau(  96) = (   0.8360850   0.7949884   0.6453964  )

     number of k points=    36
                       cart. coord. in units 2pi/alat
        k(    1) = (   0.0000000   0.0000000   0.0000000), wk =   0.0156250
        k(    2) = (   0.0000000   0.0000000   0.2500000), wk =   0.0312500
        k(    3) = (   0.0000000   0.0000000  -0.5000000), wk =   0.0156250
        k(    4) = (   0.0000000   0.2484708   0.0000000), wk =   0.0312500
        k(    5) = (   0.0000000   0.2484708   0.2500000), wk =   0.0312500
        k(    6) = (   0.0000000   0.2484708  -0.5000000), wk =   0.0312500
        k(    7) = (   0.0000000  -0.4969416   0.0000000), wk =   0.0156250
        k(    8) = (   0.0000000  -0.4969416   0.2500000), wk =   0.0312500
        k(    9) = (   0.0000000  -0.4969416  -0.5000000), wk =   0.0156250
        k(   10) = (   0.2500000   0.0000000   0.2500000), wk =   0.0312500
        k(   11) = (   0.2500000   0.0000000  -0.5000000), wk =   0.0312500
        k(   12) = (   0.2500000   0.2484708   0.2500000), wk =   0.0312500
        k(   13) = (   0.2500000   0.2484708  -0.5000000), wk =   0.0312500
        k(   14) = (   0.2500000  -0.4969416   0.2500000), wk =   0.0312500
        k(   15) = (   0.2500000  -0.4969416  -0.5000000), wk =   0.0312500
        k(   16) = (  -0.5000000   0.0000000  -0.5000000), wk =   0.0156250
        k(   17) = (  -0.5000000   0.2484708  -0.5000000), wk =   0.0312500
        k(   18) = (  -0.5000000  -0.4969416  -0.5000000), wk =   0.0156250
        k(   19) = (   0.2500000   0.0000000   0.0000000), wk =   0.0312500
        k(   20) = (  -0.5000000   0.0000000   0.0000000), wk =   0.0156250
        k(   21) = (   0.0000000  -0.2484708   0.2500000), wk =   0.0312500
        k(   22) = (   0.2500000  -0.2484708   0.0000000), wk =   0.0312500
        k(   23) = (  -0.2500000  -0.2484708   0.0000000), wk =   0.0312500
        k(   24) = (  -0.5000000  -0.2484708   0.0000000), wk =   0.0312500
        k(   25) = (   0.2500000   0.4969416   0.0000000), wk =   0.0312500
        k(   26) = (  -0.5000000   0.4969416   0.0000000), wk =   0.0156250
        k(   27) = (  -0.2500000   0.0000000   0.2500000), wk =   0.0312500
        k(   28) = (  -0.5000000   0.0000000   0.2500000), wk =   0.0312500
        k(   29) = (  -0.2500000  -0.2484708   0.2500000), wk =   0.0312500
        k(   30) = (  -0.2500000   0.2484708  -0.2500000), wk =   0.0312500
        k(   31) = (   0.2500000  -0.2484708  -0.2500000), wk =   0.0312500
        k(   32) = (  -0.2500000   0.2484708   0.5000000), wk =   0.0312500
        k(   33) = (  -0.5000000  -0.2484708   0.2500000), wk =   0.0312500
        k(   34) = (   0.5000000  -0.2484708  -0.2500000), wk =   0.0312500
        k(   35) = (  -0.2500000   0.4969416   0.2500000), wk =   0.0312500
        k(   36) = (  -0.5000000   0.4969416   0.2500000), wk =   0.0312500

     Dense  grid:   642083 G-vectors     FFT dimensions: ( 108, 108, 108)

     Estimated max dynamical RAM per process >       3.27 GB

     Estimated total dynamical RAM >     208.99 GB

     Initial potential from superposition of free atoms

     starting charge  623.99741, renormalised to  640.00000
     Starting wfcs are  800 randomized atomic wfcs

     total cpu time spent up to now is       87.6 secs

     Self-consistent Calculation

     iteration #  1     ecut=    50.00 Ry     beta= 0.70
     Davidson diagonalization with overlap
     ethr =  1.00E-02,  avg # of iterations =  3.8

     total cpu time spent up to now is      532.6 secs

     total energy              =   -6226.08703957 Ry
     Harris-Foulkes estimate   =   -6232.10762335 Ry
     estimated scf accuracy    <       9.42308222 Ry

     iteration #  2     ecut=    50.00 Ry     beta= 0.70
     Davidson diagonalization with overlap
     ethr =  1.47E-03,  avg # of iterations =  6.6

     total cpu time spent up to now is     1002.8 secs

     total energy              =   -6228.23342235 Ry
     Harris-Foulkes estimate   =   -6230.10565321 Ry
     estimated scf accuracy    <       3.01894826 Ry

     iteration #  3     ecut=    50.00 Ry     beta= 0.70
     Davidson diagonalization with overlap
     ethr =  4.72E-04,  avg # of iterations =  6.2

     total cpu time spent up to now is     1458.2 secs

     total energy              =   -6228.86367407 Ry
     Harris-Foulkes estimate   =   -6229.04084291 Ry
     estimated scf accuracy    <       0.30363521 Ry

     iteration #  4     ecut=    50.00 Ry     beta= 0.70
     Davidson diagonalization with overlap
     ethr =  4.74E-05,  avg # of iterations =  9.6

     total cpu time spent up to now is     2090.6 secs

     total energy              =   -6228.92987866 Ry
     Harris-Foulkes estimate   =   -6229.03402339 Ry
     estimated scf accuracy    <       0.24098105 Ry

     iteration #  5     ecut=    50.00 Ry     beta= 0.70
     Davidson diagonalization with overlap
     ethr =  3.77E-05,  avg # of iterations =  9.4

     total cpu time spent up to now is     2583.1 secs

     total energy              =   -6228.97746317 Ry
     Harris-Foulkes estimate   =   -6228.98267129 Ry
     estimated scf accuracy    <       0.01019005 Ry

     iteration #  6     ecut=    50.00 Ry     beta= 0.70
     Davidson diagonalization with overlap
     ethr =  1.59E-06,  avg # of iterations =  9.9

     total cpu time spent up to now is     3223.5 secs

     total energy              =   -6228.98011724 Ry
     Harris-Foulkes estimate   =   -6228.98157643 Ry
     estimated scf accuracy    <       0.00316928 Ry

     iteration #  7     ecut=    50.00 Ry     beta= 0.70
     Davidson diagonalization with overlap
     ethr =  4.95E-07,  avg # of iterations =  3.1

     total cpu time spent up to now is     3547.5 secs

     total energy              =   -6228.98076657 Ry
     Harris-Foulkes estimate   =   -6228.98083360 Ry
     estimated scf accuracy    <       0.00013834 Ry

     iteration #  8     ecut=    50.00 Ry     beta= 0.70
     Davidson diagonalization with overlap
     ethr =  2.16E-08,  avg # of iterations =  3.0

     total cpu time spent up to now is     3873.6 secs

     End of self-consistent calculation

          k = 0.0000 0.0000 0.0000 ( 80285 PWs)   bands (ev):

   -41.9224 -41.9224 -41.8180 -41.8180 -41.6524 -41.6524 -41.6428 -41.6428
   -41.5389 -41.5389 -41.5310 -41.5310 -41.4510 -41.4510 -41.4479 -41.4479
   -41.4292 -41.4292 -41.4254 -41.4254 -41.4168 -41.4168 -41.4100 -41.4100
   -41.3846 -41.3846 -41.3703 -41.3703 -41.3443 -41.3443 -41.3405 -41.3405
   -41.3255 -41.3255 -41.3187 -41.3187 -41.3177 -41.3177 -41.3062 -41.3062
   -41.3047 -41.3047 -41.2789 -41.2789 -41.2672 -41.2672 -41.2530 -41.2530
   -41.2493 -41.2493 -41.2355 -41.2355 -41.2305 -41.2305 -41.2255 -41.2255
   -41.2019 -41.2019 -41.1854 -41.1854 -41.1662 -41.1662 -41.1642 -41.1642
   -41.1635 -41.1635 -41.1142 -41.1142 -41.1068 -41.1068 -41.0858 -41.0858
   -41.0849 -41.0849 -41.0628 -41.0628 -41.0449 -41.0449 -41.0421 -41.0421
   -40.9759 -40.9759 -40.9751 -40.9751 -40.9598 -40.9598 -40.9517 -40.9517
   -40.8759 -40.8759 -40.8559 -40.8559 -40.8486 -40.8486 -40.7370 -40.7370
   -40.2237 -40.2237 -40.1746 -40.1746 -40.0866 -40.0866 -39.9546 -39.9546
   -39.9448 -39.9448 -39.9001 -39.9001 -39.8910 -39.8910 -39.8054 -39.8054
   -39.7978 -39.7978 -39.7532 -39.7532 -39.7521 -39.7521 -39.7299 -39.7299
   -39.7294 -39.7294 -39.7178 -39.7178 -39.7111 -39.7111 -39.7003 -39.7003
   -39.6870 -39.6870 -39.6852 -39.6852 -39.6843 -39.6843 -39.6734 -39.6734
   -39.6713 -39.6713 -39.6700 -39.6700 -39.6613 -39.6613 -39.6308 -39.6308
   -39.6260 -39.6260 -39.6139 -39.6139 -39.6134 -39.6134 -39.6128 -39.6128
   -39.5887 -39.5887 -39.5876 -39.5876 -39.5814 -39.5814 -39.5812 -39.5812
   -39.5729 -39.5729 -39.5655 -39.5655 -39.5530 -39.5530 -39.5331 -39.5331
   -39.5326 -39.5326 -39.5312 -39.5312 -39.5291 -39.5291 -39.5141 -39.5141
   -39.5103 -39.5103 -39.5079 -39.5079 -39.5037 -39.5037 -39.4743 -39.4743
   -39.4708 -39.4708 -39.4686 -39.4686 -39.4663 -39.4663 -39.4580 -39.4580
   -39.4485 -39.4485 -39.4366 -39.4366 -39.4108 -39.4108 -39.4074 -39.4074
   -39.3876 -39.3876 -39.3825 -39.3825 -39.3706 -39.3706 -39.3644 -39.3644
   -39.3501 -39.3501 -39.3341 -39.3341 -39.3176 -39.3176 -39.3093 -39.3093
   -39.3067 -39.3067 -39.2597 -39.2597 -39.2531 -39.2531 -39.2489 -39.2489
   -39.2433 -39.2433 -39.2185 -39.2185 -39.2042 -39.2042 -39.1498 -39.1498
   -39.1497 -39.1497 -39.1272 -39.1272 -39.0976 -39.0976 -39.0036 -39.0036
   -16.9548 -16.9548 -16.7332 -16.7332 -16.4027 -16.4027 -16.3564 -16.3564
   -16.3176 -16.3176 -16.2905 -16.2905 -16.2351 -16.2351 -15.8719 -15.8719
   -14.3154 -14.3154 -14.3083 -14.3083 -14.2777 -14.2777 -14.2598 -14.2598
   -14.2058 -14.2058 -14.1939 -14.1939 -14.1913 -14.1913 -14.1710 -14.1710
   -14.0986 -14.0986 -14.0835 -14.0835 -14.0786 -14.0786 -14.0766 -14.0766
   -14.0641 -14.0641 -14.0540 -14.0540 -14.0033 -14.0033 -13.9893 -13.9893
   -11.7845 -11.7845 -11.7607 -11.7607 -11.7416 -11.7416 -11.7256 -11.7256
   -11.7190 -11.7190 -11.6831 -11.6831 -11.6737 -11.6737 -11.6572 -11.6572
   -11.6562 -11.6562 -11.6264 -11.6264 -11.6141 -11.6141 -11.5959 -11.5959
   -11.5727 -11.5727 -11.5540 -11.5540 -11.5469 -11.5469 -11.5412 -11.5412
   -11.5291 -11.5291 -11.5133 -11.5133 -11.5010 -11.5010 -11.4946 -11.4946
   -11.4744 -11.4744 -11.4655 -11.4655 -11.4498 -11.4498 -11.4109 -11.4109
    -9.3095  -9.3095  -9.2476  -9.2476  -9.2085  -9.2085  -9.1097  -9.1097
    -9.0894  -9.0894  -9.0697  -9.0697  -8.9971  -8.9971  -8.9826  -8.9826
    -8.6422  -8.6422  -8.4350  -8.4350  -8.3213  -8.3213  -8.1744  -8.1744
    -8.1231  -8.1231  -8.0912  -8.0912  -8.0281  -8.0281  -7.9765  -7.9765
    -7.9476  -7.9476  -7.9222  -7.9222  -7.8910  -7.8910  -7.8729  -7.8729
    -7.8440  -7.8440  -7.8179  -7.8179  -7.7424  -7.7424  -7.7073  -7.7073
    -7.6633  -7.6633  -7.6418  -7.6418  -7.6220  -7.6220  -7.5889  -7.5889
    -7.5030  -7.5030  -7.4141  -7.4141  -7.3902  -7.3902  -7.2960  -7.2960
    -6.5999  -6.5999  -6.4839  -6.4839  -6.2086  -6.2086  -6.1291  -6.1291
    -6.1165  -6.1165  -6.1020  -6.1020  -6.0048  -6.0048  -5.9885  -5.9885
    -5.8654  -5.8654  -5.7704  -5.7704  -5.7232  -5.7232  -5.5426  -5.5426
    -5.5276  -5.5276  -5.4628  -5.4628  -5.1532  -5.1532  -5.1251  -5.1251
    -4.4830  -4.4830  -3.9911  -3.9911  -3.9451  -3.9451  -3.8642  -3.8642
    -3.8144  -3.8144  -3.6586  -3.6586  -3.5205  -3.5205  -3.4897  -3.4897
    -3.4590  -3.4590  -3.4360  -3.4360  -3.4186  -3.4186  -3.3680  -3.3680
    -3.3653  -3.3653  -3.3351  -3.3351  -3.1898  -3.1898  -2.7832  -2.7832
    -1.7495  -1.7495  -1.6528  -1.6528  -1.6099  -1.6099  -1.5265  -1.5265
    -1.4447  -1.4447  -1.4234  -1.4234  -1.3965  -1.3965  -1.3753  -1.3753
    -1.3394  -1.3394  -1.2313  -1.2313  -1.2203  -1.2203  -1.1345  -1.1345
    -1.1103  -1.1103  -1.0987  -1.0987  -1.0930  -1.0930  -1.0049  -1.0049
     0.1547   0.1547   0.2167   0.2167   0.2564   0.2564   0.3094   0.3094
     0.3352   0.3352   0.3905   0.3905   0.4124   0.4124   0.4367   0.4367
     0.4807   0.4807   0.5487   0.5487   0.5880   0.5880   0.6553   0.6553
     1.1533   1.1533   1.2615   1.2615   1.3001   1.3001   1.3213   1.3213
     1.5162   1.5162   1.5794   1.5794   1.6162   1.6162   1.6719   1.6719
     1.7359   1.7359   1.7770   1.7770   1.8185   1.8185   1.8446   1.8446
     1.8790   1.8790   1.9247   1.9247   1.9684   1.9684   2.0435   2.0435
     2.0689   2.0689   2.0905   2.0905   2.1204   2.1204   2.1627   2.1627
     2.1881   2.1881   2.2359   2.2359   2.2752   2.2752   2.3197   2.3197
     2.3576   2.3576   2.3840   2.3840   2.4079   2.4079   2.4442   2.4442
     2.4510   2.4510   2.4792   2.4792   2.5260   2.5260   2.5394   2.5394
     2.5660   2.5660   2.5888   2.5888   2.6146   2.6146   2.6298   2.6298
     2.6624   2.6624   2.6916   2.6916   2.7219   2.7219   2.7540   2.7540
     2.7872   2.7872   2.8279   2.8279   2.8713   2.8713   2.9033   2.9033
     2.9206   2.9206   2.9825   2.9825   3.0204   3.0204   3.0556   3.0556
     3.0940   3.0940   3.1164   3.1164   3.1563   3.1563   3.1962   3.1962
     3.2377   3.2377   3.2885   3.2885   3.3188   3.3188   3.3956   3.3956
     3.6205   3.6205   3.6607   3.6607   3.7252   3.7252   4.1063   4.1063
     4.5741   4.5741   5.2365   5.2365   5.2852   5.2852   5.3693   5.3693
     5.9415   5.9415   5.9827   5.9827   6.0778   6.0778   6.1433   6.1433
     6.2254   6.2254   6.4483   6.4483   6.4966   6.4966   6.5390   6.5390
     7.2100   7.2100   7.8659   7.8659   7.9118   7.9118   8.0369   8.0369
     8.1672   8.1672   8.2557   8.2557   8.2807   8.2807   8.4257   8.4257
     8.4435   8.4435   8.5169   8.5169   8.5567   8.5567   8.5919   8.5919
     8.6470   8.6470   8.7025   8.7025   8.7757   8.7757   8.8385   8.8386
     8.8718   8.8718   8.9182   8.9183

          k = 0.0000 0.0000 0.2500 ( 80189 PWs)   bands (ev):

   -41.9224 -41.9224 -41.8180 -41.8180 -41.6524 -41.6524 -41.6428 -41.6428
   -41.5389 -41.5389 -41.5310 -41.5310 -41.4510 -41.4510 -41.4479 -41.4479
   -41.4292 -41.4292 -41.4253 -41.4253 -41.4168 -41.4168 -41.4100 -41.4100
   -41.3846 -41.3846 -41.3703 -41.3703 -41.3443 -41.3443 -41.3405 -41.3405
   -41.3255 -41.3255 -41.3187 -41.3187 -41.3177 -41.3177 -41.3062 -41.3062
   -41.3047 -41.3047 -41.2789 -41.2789 -41.2672 -41.2672 -41.2530 -41.2530
   -41.2493 -41.2493 -41.2355 -41.2355 -41.2305 -41.2305 -41.2255 -41.2255
   -41.2019 -41.2019 -41.1854 -41.1854 -41.1662 -41.1662 -41.1642 -41.1642
   -41.1635 -41.1635 -41.1142 -41.1142 -41.1068 -41.1068 -41.0858 -41.0858
   -41.0849 -41.0849 -41.0628 -41.0628 -41.0449 -41.0449 -41.0421 -41.0421
   -40.9759 -40.9759 -40.9750 -40.9750 -40.9598 -40.9598 -40.9517 -40.9517
   -40.8759 -40.8759 -40.8558 -40.8558 -40.8486 -40.8486 -40.7370 -40.7370
   -40.2237 -40.2237 -40.1746 -40.1746 -40.0866 -40.0866 -39.9546 -39.9546
   -39.9448 -39.9448 -39.9001 -39.9001 -39.8910 -39.8910 -39.8054 -39.8054
   -39.7978 -39.7978 -39.7531 -39.7531 -39.7521 -39.7521 -39.7299 -39.7299
   -39.7294 -39.7294 -39.7178 -39.7178 -39.7110 -39.7110 -39.7003 -39.7003
   -39.6869 -39.6869 -39.6851 -39.6851 -39.6843 -39.6843 -39.6734 -39.6734
   -39.6713 -39.6713 -39.6700 -39.6700 -39.6613 -39.6613 -39.6307 -39.6307
   -39.6260 -39.6260 -39.6139 -39.6139 -39.6134 -39.6134 -39.6128 -39.6128
   -39.5887 -39.5887 -39.5875 -39.5875 -39.5814 -39.5814 -39.5811 -39.5811
   -39.5729 -39.5729 -39.5655 -39.5655 -39.5530 -39.5530 -39.5331 -39.5331
   -39.5326 -39.5326 -39.5311 -39.5311 -39.5291 -39.5291 -39.5141 -39.5141
   -39.5103 -39.5103 -39.5079 -39.5079 -39.5037 -39.5037 -39.4743 -39.4743
   -39.4708 -39.4708 -39.4686 -39.4686 -39.4663 -39.4663 -39.4580 -39.4580
   -39.4485 -39.4485 -39.4366 -39.4366 -39.4108 -39.4108 -39.4074 -39.4074
   -39.3876 -39.3876 -39.3824 -39.3824 -39.3706 -39.3706 -39.3644 -39.3644
   -39.3501 -39.3501 -39.3341 -39.3341 -39.3176 -39.3176 -39.3093 -39.3093
   -39.3067 -39.3067 -39.2597 -39.2597 -39.2531 -39.2531 -39.2489 -39.2489
   -39.2433 -39.2433 -39.2185 -39.2185 -39.2041 -39.2041 -39.1498 -39.1498
   -39.1497 -39.1497 -39.1271 -39.1271 -39.0976 -39.0976 -39.0036 -39.0036
   -16.9548 -16.9548 -16.7331 -16.7331 -16.4027 -16.4027 -16.3564 -16.3564
   -16.3176 -16.3176 -16.2905 -16.2905 -16.2350 -16.2350 -15.8719 -15.8719
   -14.3154 -14.3154 -14.3082 -14.3082 -14.2776 -14.2776 -14.2598 -14.2598
   -14.2058 -14.2058 -14.1939 -14.1939 -14.1913 -14.1913 -14.1709 -14.1709
   -14.0985 -14.0985 -14.0835 -14.0835 -14.0786 -14.0786 -14.0765 -14.0765
   -14.0641 -14.0641 -14.0539 -14.0539 -14.0032 -14.0032 -13.9893 -13.9893
   -11.7844 -11.7844 -11.7606 -11.7606 -11.7416 -11.7416 -11.7256 -11.7256
   -11.7189 -11.7189 -11.6831 -11.6831 -11.6738 -11.6738 -11.6572 -11.6572
   -11.6562 -11.6562 -11.6262 -11.6262 -11.6140 -11.6140 -11.5959 -11.5959
   -11.5727 -11.5727 -11.5540 -11.5540 -11.5469 -11.5469 -11.5410 -11.5410
   -11.5292 -11.5292 -11.5134 -11.5134 -11.5010 -11.5010 -11.4945 -11.4945
   -11.4744 -11.4744 -11.4656 -11.4655 -11.4500 -11.4499 -11.4109 -11.4109
    -9.3091  -9.3091  -9.2476  -9.2476  -9.2089  -9.2089  -9.1099  -9.1099
    -9.0893  -9.0893  -9.0696  -9.0696  -8.9972  -8.9972  -8.9825  -8.9825
    -8.6398  -8.6398  -8.4365  -8.4364  -8.3142  -8.3141  -8.1722  -8.1712
    -8.1390  -8.1383  -8.1029  -8.1025  -8.0408  -8.0392  -7.9771  -7.9760
    -7.9421  -7.9412  -7.9168  -7.9160  -7.8855  -7.8843  -7.8701  -7.8697
    -7.8424  -7.8419  -7.8178  -7.8172  -7.7502  -7.7493  -7.6921  -7.6914
    -7.6652  -7.6635  -7.6388  -7.6371  -7.6223  -7.6218  -7.5850  -7.5840
    -7.5032  -7.5029  -7.4184  -7.4181  -7.3920  -7.3920  -7.3002  -7.3000
    -6.5999  -6.5999  -6.4841  -6.4841  -6.2086  -6.2086  -6.1290  -6.1290
    -6.1163  -6.1163  -6.1022  -6.1022  -6.0037  -6.0037  -5.9895  -5.9894
    -5.8648  -5.8648  -5.7700  -5.7700  -5.7233  -5.7233  -5.5425  -5.5425
    -5.5276  -5.5276  -5.4628  -5.4628  -5.1532  -5.1532  -5.1254  -5.1253
    -4.4155  -4.4153  -4.0543  -4.0537  -3.8916  -3.8911  -3.8245  -3.8226
    -3.8109  -3.8091  -3.6593  -3.6590  -3.5519  -3.5503  -3.4970  -3.4960
    -3.4862  -3.4850  -3.4586  -3.4577  -3.4422  -3.4408  -3.4326  -3.4319
    -3.3595  -3.3589  -3.2836  -3.2826  -3.1874  -3.1870  -2.8829  -2.8823
    -1.7494  -1.7493  -1.6517  -1.6517  -1.6104  -1.6103  -1.5262  -1.5261
    -1.4446  -1.4439  -1.4246  -1.4239  -1.3964  -1.3962  -1.3756  -1.3755
    -1.3380  -1.3379  -1.2308  -1.2305  -1.2204  -1.2202  -1.1290  -1.1286
    -1.1115  -1.1086  -1.1026  -1.1002  -1.0907  -1.0899  -1.0092  -1.0089
     0.1735   0.1771   0.2162   0.2295   0.2932   0.3036   0.3133   0.3167
     0.3800   0.3943   0.4162   0.4213   0.4729   0.4820   0.5356   0.5426
     0.5741   0.5797   0.6311   0.6406   0.7030   0.7124   0.7995   0.8102
     1.1479   1.1565   1.2534   1.2596   1.2891   1.2948   1.3184   1.3358
     1.4426   1.4911   1.5222   1.5454   1.5755   1.5900   1.6114   1.6463
     1.6655   1.6879   1.7323   1.7708   1.7816   1.8050   1.8269   1.8547
     1.8626   1.8768   1.8904   1.9069   1.9399   1.9674   1.9842   2.0093
     2.0204   2.0433   2.0651   2.0788   2.0917   2.1071   2.1148   2.1548
     2.1766   2.1961   2.2134   2.2241   2.2437   2.2627   2.2879   2.2964
     2.3210   2.3300   2.3489   2.3736   2.3837   2.3859   2.4150   2.4230
     2.4353   2.4460   2.4620   2.4733   2.4848   2.4965   2.5056   2.5235
     2.5380   2.5479   2.5581   2.5809   2.5999   2.6099   2.6376   2.6470
     2.6540   2.6787   2.6860   2.7041   2.7132   2.7301   2.7390   2.7514
     2.7968   2.8066   2.8187   2.8345   2.8583   2.8702   2.8896   2.9010
     2.9188   2.9410   2.9551   2.9733   2.9872   3.0078   3.0202   3.0370
     3.0648   3.0826   3.0898   3.0962   3.1298   3.1476   3.1718   3.1895
     3.2085   3.2217   3.2454   3.2723   3.2876   3.3004   3.3437   3.3618
     3.4575   3.5054   3.5198   3.5471   3.6622   3.6825   3.8761   3.8922
     4.8366   4.8545   5.2472   5.2558   5.4978   5.5245   5.5734   5.6074
     5.9495   5.9763   6.0702   6.0813   6.1666   6.1729   6.3672   6.3904
     6.4220   6.4466   6.4952   6.5153   6.7578   6.7727   6.7988   6.8596
     7.3078   7.3104   7.7664   7.7817   7.9096   7.9165   7.9568   7.9662
     8.0392   8.0597   8.1110   8.1306   8.2052   8.2133   8.3191   8.3378
     8.3818   8.3896   8.4178   8.4462   8.4929   8.5327   8.5750   8.5943
     8.6198   8.6229   8.6493   8.6679   8.7118   8.7443   8.7881   8.8174
     8.8445   8.8586   8.8693   8.8894

          k = 0.0000 0.0000-0.5000 ( 80218 PWs)   bands (ev):

   -41.9224 -41.9224 -41.8180 -41.8180 -41.6524 -41.6524 -41.6428 -41.6428
   -41.5389 -41.5389 -41.5310 -41.5310 -41.4510 -41.4510 -41.4479 -41.4479
   -41.4292 -41.4292 -41.4253 -41.4253 -41.4168 -41.4168 -41.4100 -41.4100
   -41.3846 -41.3846 -41.3703 -41.3703 -41.3443 -41.3443 -41.3405 -41.3405
   -41.3255 -41.3255 -41.3187 -41.3187 -41.3177 -41.3177 -41.3062 -41.3062
   -41.3047 -41.3047 -41.2789 -41.2789 -41.2672 -41.2672 -41.2530 -41.2530
   -41.2493 -41.2493 -41.2355 -41.2355 -41.2305 -41.2305 -41.2255 -41.2255
   -41.2019 -41.2019 -41.1854 -41.1854 -41.1662 -41.1662 -41.1642 -41.1642
   -41.1635 -41.1635 -41.1142 -41.1142 -41.1068 -41.1068 -41.0858 -41.0858
   -41.0849 -41.0849 -41.0628 -41.0628 -41.0449 -41.0449 -41.0421 -41.0421
   -40.9759 -40.9759 -40.9750 -40.9750 -40.9598 -40.9598 -40.9517 -40.9517
   -40.8759 -40.8759 -40.8558 -40.8558 -40.8486 -40.8486 -40.7370 -40.7370
   -40.2237 -40.2237 -40.1746 -40.1746 -40.0866 -40.0866 -39.9546 -39.9546
   -39.9448 -39.9448 -39.9001 -39.9001 -39.8910 -39.8910 -39.8054 -39.8054
   -39.7978 -39.7978 -39.7531 -39.7531 -39.7521 -39.7521 -39.7299 -39.7299
   -39.7294 -39.7294 -39.7178 -39.7178 -39.7110 -39.7110 -39.7003 -39.7003
   -39.6869 -39.6869 -39.6852 -39.6852 -39.6843 -39.6843 -39.6734 -39.6734
   -39.6713 -39.6713 -39.6700 -39.6700 -39.6613 -39.6613 -39.6307 -39.6307
   -39.6260 -39.6260 -39.6139 -39.6139 -39.6134 -39.6134 -39.6128 -39.6128
   -39.5887 -39.5887 -39.5875 -39.5875 -39.5814 -39.5814 -39.5811 -39.5811
   -39.5729 -39.5729 -39.5655 -39.5655 -39.5530 -39.5530 -39.5331 -39.5331
   -39.5326 -39.5326 -39.5311 -39.5311 -39.5291 -39.5291 -39.5141 -39.5141
   -39.5103 -39.5103 -39.5079 -39.5079 -39.5037 -39.5037 -39.4743 -39.4743
   -39.4708 -39.4708 -39.4686 -39.4686 -39.4663 -39.4663 -39.4580 -39.4580
   -39.4485 -39.4485 -39.4366 -39.4366 -39.4108 -39.4108 -39.4074 -39.4074
   -39.3876 -39.3876 -39.3825 -39.3825 -39.3706 -39.3706 -39.3644 -39.3644
   -39.3501 -39.3501 -39.3341 -39.3341 -39.3176 -39.3176 -39.3093 -39.3093
   -39.3067 -39.3067 -39.2597 -39.2597 -39.2531 -39.2531 -39.2489 -39.2489
   -39.2433 -39.2433 -39.2185 -39.2185 -39.2041 -39.2041 -39.1498 -39.1498
   -39.1497 -39.1497 -39.1271 -39.1271 -39.0976 -39.0976 -39.0036 -39.0036
   -16.9548 -16.9548 -16.7331 -16.7331 -16.4027 -16.4027 -16.3564 -16.3564
   -16.3176 -16.3176 -16.2905 -16.2905 -16.2350 -16.2350 -15.8719 -15.8719
   -14.3154 -14.3154 -14.3082 -14.3082 -14.2777 -14.2777 -14.2598 -14.2598
   -14.2058 -14.2058 -14.1939 -14.1939 -14.1913 -14.1913 -14.1709 -14.1709
   -14.0985 -14.0985 -14.0835 -14.0835 -14.0786 -14.0786 -14.0765 -14.0765
   -14.0641 -14.0641 -14.0539 -14.0539 -14.0032 -14.0032 -13.9893 -13.9893
   -11.7844 -11.7844 -11.7605 -11.7605 -11.7415 -11.7415 -11.7256 -11.7256
   -11.7189 -11.7189 -11.6831 -11.6831 -11.6740 -11.6740 -11.6572 -11.6572
   -11.6562 -11.6562 -11.6261 -11.6261 -11.6140 -11.6140 -11.5959 -11.5959
   -11.5727 -11.5727 -11.5539 -11.5539 -11.5469 -11.5469 -11.5409 -11.5409
   -11.5294 -11.5294 -11.5135 -11.5135 -11.5010 -11.5010 -11.4945 -11.4945
   -11.4744 -11.4744 -11.4656 -11.4656 -11.4501 -11.4501 -11.4109 -11.4109
    -9.3088  -9.3088  -9.2476  -9.2476  -9.2093  -9.2093  -9.1101  -9.1101
    -9.0892  -9.0892  -9.0697  -9.0697  -8.9973  -8.9973  -8.9824  -8.9824
    -8.6373  -8.6373  -8.4379  -8.4379  -8.3058  -8.3058  -8.1677  -8.1677
    -8.1561  -8.1561  -8.1158  -8.1158  -8.0425  -8.0425  -7.9811  -7.9811
    -7.9412  -7.9412  -7.9122  -7.9122  -7.8801  -7.8801  -7.8634  -7.8634
    -7.8402  -7.8402  -7.8159  -7.8159  -7.7522  -7.7522  -7.6788  -7.6788
    -7.6668  -7.6668  -7.6361  -7.6361  -7.6247  -7.6247  -7.5761  -7.5761
    -7.5029  -7.5029  -7.4228  -7.4228  -7.3941  -7.3941  -7.3043  -7.3043
    -6.6000  -6.6000  -6.4843  -6.4843  -6.2086  -6.2086  -6.1289  -6.1289
    -6.1162  -6.1162  -6.1024  -6.1024  -6.0025  -6.0025  -5.9905  -5.9905
    -5.8644  -5.8644  -5.7697  -5.7697  -5.7235  -5.7235  -5.5424  -5.5424
    -5.5276  -5.5276  -5.4628  -5.4628  -5.1534  -5.1534  -5.1256  -5.1256
    -4.2698  -4.2698  -4.2092  -4.2092  -3.8323  -3.8323  -3.7523  -3.7523
    -3.7052  -3.7052  -3.6700  -3.6700  -3.6443  -3.6443  -3.6307  -3.6307
    -3.5048  -3.5048  -3.4869  -3.4869  -3.4474  -3.4474  -3.4362  -3.4362
    -3.3587  -3.3587  -3.2119  -3.2119  -3.1254  -3.1254  -3.0503  -3.0503
    -1.7493  -1.7493  -1.6507  -1.6507  -1.6109  -1.6109  -1.5258  -1.5258
    -1.4439  -1.4439  -1.4252  -1.4252  -1.3962  -1.3962  -1.3759  -1.3759
    -1.3366  -1.3366  -1.2303  -1.2303  -1.2203  -1.2203  -1.1230  -1.1230
    -1.1100  -1.1100  -1.1036  -1.1036  -1.0884  -1.0884  -1.0136  -1.0136
     0.1912   0.1912   0.2524   0.2524   0.2641   0.2641   0.3176   0.3176
     0.3995   0.3995   0.4136   0.4136   0.5654   0.5654   0.5715   0.5715
     0.7702   0.7702   0.8747   0.8747   1.0781   1.0781   1.1369   1.1369
     1.1697   1.1697   1.1832   1.1832   1.2230   1.2230   1.2757   1.2757
     1.3263   1.3263   1.4009   1.4009   1.4979   1.4979   1.5634   1.5634
     1.5851   1.5851   1.6552   1.6552   1.7443   1.7443   1.8139   1.8139
     1.8502   1.8502   1.8890   1.8890   1.9082   1.9082   1.9361   1.9361
     1.9904   1.9904   2.0086   2.0086   2.0662   2.0662   2.0957   2.0957
     2.1455   2.1455   2.1894   2.1894   2.2486   2.2486   2.2955   2.2955
     2.3187   2.3187   2.3396   2.3396   2.3679   2.3679   2.4015   2.4015
     2.4297   2.4297   2.4497   2.4497   2.4768   2.4768   2.4997   2.4997
     2.5315   2.5315   2.5565   2.5565   2.6002   2.6002   2.6271   2.6271
     2.6746   2.6746   2.7013   2.7013   2.7220   2.7220   2.7621   2.7621
     2.7885   2.7885   2.8280   2.8280   2.8649   2.8649   2.9174   2.9174
     2.9335   2.9335   2.9536   2.9536   2.9847   2.9847   3.0230   3.0230
     3.0511   3.0511   3.0814   3.0814   3.1166   3.1166   3.1729   3.1729
     3.1975   3.1975   3.2296   3.2296   3.2926   3.2926   3.3285   3.3285
     3.3600   3.3600   3.4349   3.4349   3.6529   3.6529   3.8012   3.8012
     5.0488   5.0488   5.1584   5.1584   5.7352   5.7352   5.7542   5.7542
     5.9400   5.9400   6.0289   6.0289   6.2586   6.2586   6.3296   6.3296
     6.9297   6.9297   7.0136   7.0136   7.3511   7.3511   7.4366   7.4366
     7.5339   7.5339   7.5776   7.5776   7.6476   7.6476   7.7042   7.7042
     7.7873   7.7873   7.8096   7.8096   8.0126   8.0126   8.1182   8.1182
     8.1610   8.1610   8.3580   8.3580   8.4493   8.4493   8.5277   8.5277
     8.6214   8.6214   8.6593   8.6593   8.7437   8.7437   8.7931   8.7931
     8.8218   8.8218   8.9093   8.9093

          k = 0.0000 0.2485 0.0000 ( 80274 PWs)   bands (ev):

   -41.9224 -41.9224 -41.8180 -41.8180 -41.6524 -41.6524 -41.6428 -41.6428
   -41.5389 -41.5389 -41.5310 -41.5310 -41.4510 -41.4510 -41.4479 -41.4479
   -41.4292 -41.4292 -41.4254 -41.4254 -41.4168 -41.4168 -41.4100 -41.4100
   -41.3846 -41.3846 -41.3703 -41.3703 -41.3443 -41.3443 -41.3405 -41.3405
   -41.3255 -41.3255 -41.3187 -41.3187 -41.3177 -41.3177 -41.3062 -41.3062
   -41.3047 -41.3047 -41.2789 -41.2789 -41.2672 -41.2672 -41.2530 -41.2530
   -41.2493 -41.2493 -41.2355 -41.2355 -41.2305 -41.2305 -41.2255 -41.2255
   -41.2019 -41.2019 -41.1854 -41.1854 -41.1662 -41.1662 -41.1642 -41.1642
   -41.1635 -41.1635 -41.1142 -41.1142 -41.1068 -41.1068 -41.0858 -41.0858
   -41.0849 -41.0849 -41.0628 -41.0628 -41.0449 -41.0449 -41.0421 -41.0421
   -40.9759 -40.9759 -40.9751 -40.9751 -40.9598 -40.9598 -40.9517 -40.9517
   -40.8759 -40.8759 -40.8558 -40.8558 -40.8486 -40.8486 -40.7370 -40.7370
   -40.2237 -40.2237 -40.1746 -40.1746 -40.0866 -40.0866 -39.9546 -39.9546
   -39.9448 -39.9448 -39.9001 -39.9001 -39.8910 -39.8910 -39.8054 -39.8054
   -39.7978 -39.7978 -39.7532 -39.7532 -39.7521 -39.7521 -39.7299 -39.7299
   -39.7294 -39.7294 -39.7178 -39.7178 -39.7110 -39.7110 -39.7003 -39.7003
   -39.6870 -39.6870 -39.6852 -39.6852 -39.6843 -39.6843 -39.6734 -39.6734
   -39.6713 -39.6713 -39.6700 -39.6700 -39.6613 -39.6613 -39.6308 -39.6308
   -39.6260 -39.6260 -39.6139 -39.6139 -39.6134 -39.6134 -39.6128 -39.6128
   -39.5887 -39.5887 -39.5875 -39.5875 -39.5814 -39.5814 -39.5812 -39.5812
   -39.5729 -39.5729 -39.5655 -39.5655 -39.5530 -39.5530 -39.5331 -39.5331
   -39.5326 -39.5326 -39.5312 -39.5312 -39.5291 -39.5291 -39.5141 -39.5141
   -39.5103 -39.5103 -39.5079 -39.5079 -39.5037 -39.5037 -39.4743 -39.4743
   -39.4708 -39.4708 -39.4686 -39.4686 -39.4663 -39.4663 -39.4580 -39.4580
   -39.4485 -39.4485 -39.4366 -39.4366 -39.4108 -39.4108 -39.4074 -39.4074
   -39.3876 -39.3876 -39.3825 -39.3825 -39.3706 -39.3706 -39.3644 -39.3644
   -39.3501 -39.3501 -39.3341 -39.3341 -39.3176 -39.3176 -39.3093 -39.3093
   -39.3067 -39.3067 -39.2597 -39.2597 -39.2531 -39.2531 -39.2489 -39.2489
   -39.2433 -39.2433 -39.2185 -39.2185 -39.2042 -39.2042 -39.1498 -39.1498
   -39.1497 -39.1497 -39.1272 -39.1272 -39.0976 -39.0976 -39.0036 -39.0036
   -16.9548 -16.9548 -16.7331 -16.7331 -16.4027 -16.4027 -16.3564 -16.3564
   -16.3176 -16.3176 -16.2905 -16.2905 -16.2351 -16.2351 -15.8719 -15.8719
   -14.3154 -14.3154 -14.3083 -14.3083 -14.2777 -14.2777 -14.2598 -14.2598
   -14.2058 -14.2058 -14.1939 -14.1939 -14.1913 -14.1913 -14.1710 -14.1710
   -14.0986 -14.0986 -14.0835 -14.0835 -14.0786 -14.0786 -14.0765 -14.0765
   -14.0641 -14.0641 -14.0539 -14.0539 -14.0033 -14.0033 -13.9893 -13.9893
   -11.7845 -11.7844 -11.7607 -11.7607 -11.7414 -11.7414 -11.7256 -11.7256
   -11.7190 -11.7190 -11.6831 -11.6831 -11.6739 -11.6738 -11.6573 -11.6572
   -11.6562 -11.6562 -11.6263 -11.6262 -11.6141 -11.6141 -11.5959 -11.5959
   -11.5729 -11.5728 -11.5541 -11.5540 -11.5469 -11.5469 -11.5412 -11.5412
   -11.5291 -11.5291 -11.5132 -11.5131 -11.5010 -11.5010 -11.4946 -11.4946
   -11.4745 -11.4744 -11.4656 -11.4655 -11.4500 -11.4499 -11.4109 -11.4109
    -9.3095  -9.3095  -9.2476  -9.2476  -9.2085  -9.2085  -9.1089  -9.1089
    -9.0903  -9.0903  -9.0696  -9.0696  -8.9964  -8.9964  -8.9834  -8.9834
    -8.6402  -8.6401  -8.4286  -8.4285  -8.3347  -8.3346  -8.1738  -8.1730
    -8.1237  -8.1233  -8.0881  -8.0873  -8.0397  -8.0388  -7.9768  -7.9765
    -7.9541  -7.9534  -7.9186  -7.9173  -7.8896  -7.8876  -7.8738  -7.8735
    -7.8438  -7.8410  -7.8169  -7.8147  -7.7416  -7.7410  -7.7060  -7.7048
    -7.6613  -7.6609  -7.6400  -7.6396  -7.6172  -7.6166  -7.5762  -7.5748
    -7.5113  -7.5107  -7.4143  -7.4142  -7.3932  -7.3931  -7.3024  -7.3021
    -6.5999  -6.5998  -6.4839  -6.4839  -6.2082  -6.2082  -6.1291  -6.1291
    -6.1146  -6.1146  -6.1034  -6.1033  -6.0049  -6.0049  -5.9884  -5.9884
    -5.8654  -5.8654  -5.7705  -5.7705  -5.7233  -5.7233  -5.5426  -5.5426
    -5.5278  -5.5277  -5.4628  -5.4628  -5.1532  -5.1532  -5.1252  -5.1251
    -4.4246  -4.4242  -4.0331  -4.0327  -3.9334  -3.9327  -3.8275  -3.8266
    -3.7978  -3.7970  -3.6595  -3.6594  -3.5465  -3.5456  -3.4966  -3.4962
    -3.4798  -3.4794  -3.4499  -3.4494  -3.4406  -3.4398  -3.4179  -3.4174
    -3.3580  -3.3575  -3.3069  -3.3063  -3.1811  -3.1810  -2.8672  -2.8658
    -1.7485  -1.7485  -1.6517  -1.6514  -1.6101  -1.6099  -1.5274  -1.5273
    -1.4444  -1.4442  -1.4233  -1.4231  -1.3964  -1.3961  -1.3750  -1.3748
    -1.3392  -1.3391  -1.2308  -1.2305  -1.2207  -1.2204  -1.1347  -1.1343
    -1.1115  -1.1109  -1.0992  -1.0989  -1.0930  -1.0929  -1.0046  -1.0046
     0.1761   0.1884   0.2484   0.2553   0.2817   0.2872   0.3375   0.3406
     0.3639   0.3749   0.3888   0.4068   0.4423   0.4486   0.4642   0.4773
     0.5419   0.5448   0.6233   0.6251   0.7560   0.7692   0.8114   0.8166
     1.1506   1.1899   1.2458   1.2695   1.2845   1.3082   1.3165   1.3267
     1.4150   1.4902   1.5273   1.5445   1.5828   1.6021   1.6240   1.6428
     1.6818   1.7019   1.7326   1.7679   1.7941   1.8033   1.8139   1.8387
     1.8576   1.8714   1.8910   1.9092   1.9460   1.9668   1.9959   2.0182
     2.0372   2.0520   2.0575   2.0700   2.0988   2.1082   2.1223   2.1523
     2.1669   2.1922   2.2027   2.2254   2.2475   2.2636   2.2903   2.2997
     2.3137   2.3345   2.3485   2.3612   2.3770   2.3876   2.4046   2.4266
     2.4290   2.4377   2.4570   2.4723   2.4831   2.4988   2.5156   2.5314
     2.5492   2.5588   2.5684   2.5876   2.5911   2.5993   2.6179   2.6314
     2.6411   2.6603   2.6731   2.6973   2.7117   2.7329   2.7451   2.7584
     2.7798   2.8066   2.8156   2.8415   2.8605   2.8749   2.9002   2.9067
     2.9108   2.9341   2.9696   2.9852   3.0003   3.0176   3.0395   3.0477
     3.0723   3.0853   3.0967   3.1164   3.1438   3.1571   3.1721   3.1941
     3.2187   3.2309   3.2536   3.2622   3.2756   3.3085   3.3328   3.3643
     3.4757   3.5110   3.5280   3.5671   3.6978   3.7047   3.9035   3.9145
     4.7831   4.8954   5.2355   5.2684   5.4346   5.5242   5.5647   5.6134
     5.9455   5.9737   6.0637   6.0933   6.1619   6.1916   6.3338   6.3728
     6.4148   6.4576   6.4715   6.4952   6.6784   6.7363   6.8316   6.8443
     7.2946   7.2975   7.6910   7.7031   7.8022   7.8305   7.9785   7.9991
     8.0314   8.0491   8.1646   8.1936   8.2312   8.2629   8.3075   8.3303
     8.3692   8.4020   8.4362   8.4523   8.5045   8.5247   8.5475   8.5721
     8.6019   8.6149   8.6337   8.6562   8.7442   8.7631   8.8131   8.8303
     8.8540   8.8644   8.8893   8.9207

          k = 0.0000 0.2485 0.2500 ( 80251 PWs)   bands (ev):

   -41.9224 -41.9224 -41.8180 -41.8180 -41.6524 -41.6524 -41.6428 -41.6428
   -41.5389 -41.5389 -41.5310 -41.5310 -41.4510 -41.4510 -41.4479 -41.4479
   -41.4292 -41.4292 -41.4253 -41.4253 -41.4168 -41.4168 -41.4100 -41.4100
   -41.3846 -41.3846 -41.3703 -41.3703 -41.3443 -41.3443 -41.3405 -41.3405
   -41.3255 -41.3255 -41.3187 -41.3187 -41.3177 -41.3177 -41.3062 -41.3062
   -41.3047 -41.3047 -41.2789 -41.2789 -41.2672 -41.2672 -41.2530 -41.2530
   -41.2493 -41.2493 -41.2355 -41.2355 -41.2305 -41.2305 -41.2255 -41.2255
   -41.2019 -41.2019 -41.1854 -41.1854 -41.1662 -41.1662 -41.1642 -41.1642
   -41.1635 -41.1635 -41.1142 -41.1142 -41.1068 -41.1068 -41.0858 -41.0858
   -41.0849 -41.0849 -41.0628 -41.0628 -41.0449 -41.0449 -41.0421 -41.0421
   -40.9759 -40.9759 -40.9751 -40.9751 -40.9598 -40.9598 -40.9517 -40.9517
   -40.8759 -40.8759 -40.8558 -40.8558 -40.8486 -40.8486 -40.7370 -40.7370
   -40.2237 -40.2237 -40.1746 -40.1746 -40.0866 -40.0866 -39.9546 -39.9546
   -39.9448 -39.9448 -39.9001 -39.9001 -39.8910 -39.8910 -39.8054 -39.8054
   -39.7978 -39.7978 -39.7531 -39.7531 -39.7521 -39.7521 -39.7299 -39.7299
   -39.7294 -39.7294 -39.7178 -39.7178 -39.7110 -39.7110 -39.7003 -39.7003
   -39.6869 -39.6869 -39.6852 -39.6852 -39.6843 -39.6843 -39.6734 -39.6734
   -39.6713 -39.6713 -39.6700 -39.6700 -39.6613 -39.6613 -39.6308 -39.6308
   -39.6260 -39.6260 -39.6139 -39.6139 -39.6134 -39.6134 -39.6128 -39.6128
   -39.5887 -39.5887 -39.5875 -39.5875 -39.5814 -39.5814 -39.5812 -39.5812
   -39.5729 -39.5729 -39.5655 -39.5655 -39.5530 -39.5530 -39.5331 -39.5331
   -39.5326 -39.5326 -39.5311 -39.5311 -39.5291 -39.5291 -39.5141 -39.5141
   -39.5103 -39.5103 -39.5079 -39.5079 -39.5037 -39.5037 -39.4743 -39.4743
   -39.4708 -39.4708 -39.4686 -39.4686 -39.4663 -39.4663 -39.4580 -39.4580
   -39.4485 -39.4485 -39.4366 -39.4366 -39.4108 -39.4108 -39.4074 -39.4074
   -39.3876 -39.3876 -39.3825 -39.3825 -39.3706 -39.3706 -39.3644 -39.3644
   -39.3501 -39.3501 -39.3341 -39.3341 -39.3176 -39.3176 -39.3093 -39.3093
   -39.3067 -39.3067 -39.2597 -39.2597 -39.2531 -39.2531 -39.2489 -39.2489
   -39.2433 -39.2433 -39.2185 -39.2185 -39.2042 -39.2042 -39.1498 -39.1498
   -39.1497 -39.1497 -39.1271 -39.1271 -39.0976 -39.0976 -39.0036 -39.0036
   -16.9548 -16.9548 -16.7331 -16.7331 -16.4027 -16.4027 -16.3564 -16.3564
   -16.3176 -16.3176 -16.2905 -16.2905 -16.2351 -16.2351 -15.8719 -15.8719
   -14.3154 -14.3154 -14.3083 -14.3083 -14.2777 -14.2777 -14.2598 -14.2598
   -14.2058 -14.2058 -14.1939 -14.1939 -14.1913 -14.1913 -14.1709 -14.1709
   -14.0986 -14.0986 -14.0835 -14.0835 -14.0786 -14.0786 -14.0765 -14.0765
   -14.0641 -14.0641 -14.0539 -14.0539 -14.0033 -14.0033 -13.9893 -13.9893
   -11.7844 -11.7844 -11.7606 -11.7606 -11.7414 -11.7413 -11.7256 -11.7256
   -11.7189 -11.7189 -11.6831 -11.6831 -11.6740 -11.6739 -11.6573 -11.6572
   -11.6562 -11.6562 -11.6261 -11.6260 -11.6141 -11.6140 -11.5959 -11.5959
   -11.5729 -11.5728 -11.5540 -11.5540 -11.5469 -11.5469 -11.5410 -11.5410
   -11.5292 -11.5292 -11.5132 -11.5131 -11.5010 -11.5010 -11.4945 -11.4945
   -11.4745 -11.4744 -11.4656 -11.4656 -11.4502 -11.4501 -11.4109 -11.4109
    -9.3091  -9.3091  -9.2476  -9.2476  -9.2089  -9.2088  -9.1091  -9.1091
    -9.0901  -9.0901  -9.0696  -9.0696  -8.9966  -8.9965  -8.9832  -8.9832
    -8.6383  -8.6382  -8.4282  -8.4281  -8.3289  -8.3287  -8.1716  -8.1703
    -8.1457  -8.1442  -8.0953  -8.0950  -8.0464  -8.0448  -7.9799  -7.9783
    -7.9466  -7.9457  -7.9116  -7.9096  -7.8840  -7.8823  -7.8697  -7.8692
    -7.8437  -7.8409  -7.8221  -7.8199  -7.7450  -7.7426  -7.6964  -7.6955
    -7.6617  -7.6595  -7.6293  -7.6273  -7.6181  -7.6166  -7.5784  -7.5777
    -7.5111  -7.5101  -7.4187  -7.4185  -7.3940  -7.3939  -7.3055  -7.3053
    -6.5999  -6.5999  -6.4841  -6.4841  -6.2082  -6.2082  -6.1291  -6.1291
    -6.1145  -6.1144  -6.1036  -6.1036  -6.0039  -6.0038  -5.9892  -5.9891
    -5.8649  -5.8649  -5.7702  -5.7701  -5.7235  -5.7235  -5.5425  -5.5425
    -5.5277  -5.5277  -5.4629  -5.4628  -5.1534  -5.1533  -5.1254  -5.1254
    -4.3588  -4.3582  -4.0131  -4.0124  -3.9567  -3.9560  -3.8215  -3.8213
    -3.7724  -3.7709  -3.6586  -3.6585  -3.6028  -3.6017  -3.5071  -3.5060
    -3.4860  -3.4854  -3.4518  -3.4512  -3.4384  -3.4380  -3.4027  -3.4022
    -3.3706  -3.3698  -3.3394  -3.3390  -3.1872  -3.1870  -2.9619  -2.9601
    -1.7485  -1.7484  -1.6510  -1.6509  -1.6100  -1.6098  -1.5271  -1.5270
    -1.4443  -1.4438  -1.4246  -1.4236  -1.3964  -1.3959  -1.3753  -1.3752
    -1.3377  -1.3376  -1.2299  -1.2293  -1.2213  -1.2210  -1.1288  -1.1287
    -1.1120  -1.1096  -1.1022  -1.1001  -1.0910  -1.0903  -1.0090  -1.0086
     0.1985   0.2093   0.2615   0.2672   0.3275   0.3314   0.3537   0.3634
     0.3884   0.4069   0.4942   0.5057   0.5611   0.5735   0.5929   0.6121
     0.6434   0.6514   0.6897   0.6944   0.8029   0.8117   0.8718   0.8867
     1.1458   1.1849   1.2483   1.2647   1.2788   1.2965   1.3147   1.3342
     1.4122   1.4342   1.4894   1.5135   1.5288   1.5578   1.5874   1.6116
     1.6522   1.6550   1.7134   1.7290   1.7702   1.7842   1.7973   1.8102
     1.8514   1.8594   1.8776   1.8971   1.9270   1.9461   1.9728   1.9813
     1.9990   2.0059   2.0473   2.0528   2.0624   2.0925   2.1104   2.1224
     2.1547   2.1582   2.1905   2.2071   2.2318   2.2418   2.2581   2.2717
     2.2873   2.2985   2.3206   2.3404   2.3597   2.3704   2.3912   2.3992
     2.4103   2.4217   2.4307   2.4448   2.4642   2.4841   2.4986   2.5134
     2.5237   2.5368   2.5461   2.5522   2.5854   2.5898   2.6042   2.6320
     2.6440   2.6601   2.6760   2.6993   2.7171   2.7322   2.7393   2.7641
     2.7897   2.8048   2.8100   2.8306   2.8515   2.8678   2.8896   2.9014
     2.9177   2.9264   2.9522   2.9691   2.9878   3.0036   3.0147   3.0332
     3.0590   3.0684   3.0828   3.1037   3.1148   3.1433   3.1528   3.1652
     3.1867   3.1992   3.2151   3.2487   3.2542   3.2701   3.3012   3.3281
     3.3989   3.4442   3.4607   3.4883   3.5507   3.5762   3.6862   3.7266
     5.0467   5.1497   5.4362   5.4828   5.5557   5.6005   5.7601   5.7878
     6.0360   6.1055   6.2659   6.2937   6.3310   6.4166   6.4235   6.4572
     6.5405   6.6008   6.6841   6.7232   6.7605   6.8040   6.9119   7.0460
     7.3670   7.3783   7.6148   7.6308   7.8242   7.8513   7.9496   7.9600
     8.0086   8.0454   8.0605   8.0854   8.1296   8.1708   8.1996   8.2144
     8.2634   8.3179   8.3597   8.3840   8.4406   8.4707   8.4975   8.5186
     8.5561   8.5727   8.5955   8.6182   8.6480   8.6802   8.7231   8.7516
     8.8090   8.8420   8.8792   8.9086

          k = 0.0000 0.2485-0.5000 ( 80228 PWs)   bands (ev):

   -41.9224 -41.9224 -41.8180 -41.8180 -41.6524 -41.6524 -41.6428 -41.6428
   -41.5389 -41.5389 -41.5310 -41.5310 -41.4510 -41.4510 -41.4479 -41.4479
   -41.4292 -41.4292 -41.4253 -41.4253 -41.4168 -41.4168 -41.4100 -41.4100
   -41.3846 -41.3846 -41.3703 -41.3703 -41.3443 -41.3443 -41.3405 -41.3405
   -41.3255 -41.3255 -41.3187 -41.3187 -41.3177 -41.3177 -41.3062 -41.3062
   -41.3047 -41.3047 -41.2789 -41.2789 -41.2672 -41.2672 -41.2530 -41.2530
   -41.2493 -41.2493 -41.2355 -41.2355 -41.2305 -41.2305 -41.2255 -41.2255
   -41.2019 -41.2019 -41.1854 -41.1854 -41.1662 -41.1662 -41.1642 -41.1642
   -41.1635 -41.1635 -41.1142 -41.1142 -41.1068 -41.1068 -41.0857 -41.0857
   -41.0849 -41.0849 -41.0628 -41.0628 -41.0449 -41.0449 -41.0421 -41.0421
   -40.9759 -40.9759 -40.9750 -40.9750 -40.9598 -40.9598 -40.9517 -40.9517
   -40.8759 -40.8759 -40.8558 -40.8558 -40.8486 -40.8486 -40.7370 -40.7370
   -40.2237 -40.2237 -40.1746 -40.1746 -40.0866 -40.0866 -39.9546 -39.9546
   -39.9448 -39.9448 -39.9001 -39.9001 -39.8910 -39.8910 -39.8054 -39.8054
   -39.7978 -39.7978 -39.7531 -39.7531 -39.7521 -39.7521 -39.7299 -39.7299
   -39.7294 -39.7294 -39.7178 -39.7178 -39.7110 -39.7110 -39.7003 -39.7003
   -39.6869 -39.6869 -39.6852 -39.6852 -39.6843 -39.6843 -39.6734 -39.6734
   -39.6713 -39.6713 -39.6700 -39.6700 -39.6613 -39.6613 -39.6308 -39.6308
   -39.6260 -39.6260 -39.6139 -39.6139 -39.6134 -39.6134 -39.6128 -39.6128
   -39.5887 -39.5887 -39.5875 -39.5875 -39.5814 -39.5814 -39.5811 -39.5811
   -39.5729 -39.5729 -39.5655 -39.5655 -39.5530 -39.5530 -39.5331 -39.5331
   -39.5326 -39.5326 -39.5311 -39.5311 -39.5291 -39.5291 -39.5141 -39.5141
   -39.5103 -39.5103 -39.5079 -39.5079 -39.5037 -39.5037 -39.4743 -39.4743
   -39.4708 -39.4708 -39.4686 -39.4686 -39.4663 -39.4663 -39.4580 -39.4580
   -39.4485 -39.4485 -39.4366 -39.4366 -39.4108 -39.4108 -39.4074 -39.4074
   -39.3876 -39.3876 -39.3825 -39.3825 -39.3706 -39.3706 -39.3644 -39.3644
   -39.3501 -39.3501 -39.3341 -39.3341 -39.3176 -39.3176 -39.3093 -39.3093
   -39.3067 -39.3067 -39.2597 -39.2597 -39.2531 -39.2531 -39.2489 -39.2489
   -39.2433 -39.2433 -39.2185 -39.2185 -39.2041 -39.2041 -39.1498 -39.1498
   -39.1497 -39.1497 -39.1271 -39.1271 -39.0976 -39.0976 -39.0036 -39.0036
   -16.9548 -16.9548 -16.7331 -16.7331 -16.4027 -16.4027 -16.3564 -16.3564
   -16.3176 -16.3176 -16.2905 -16.2905 -16.2350 -16.2350 -15.8719 -15.8719
   -14.3154 -14.3154 -14.3082 -14.3082 -14.2776 -14.2776 -14.2598 -14.2598
   -14.2058 -14.2058 -14.1939 -14.1939 -14.1913 -14.1913 -14.1709 -14.1709
   -14.0986 -14.0986 -14.0835 -14.0835 -14.0786 -14.0786 -14.0765 -14.0765
   -14.0641 -14.0641 -14.0539 -14.0539 -14.0033 -14.0033 -13.9893 -13.9893
   -11.7844 -11.7844 -11.7605 -11.7605 -11.7414 -11.7413 -11.7256 -11.7256
   -11.7189 -11.7189 -11.6831 -11.6831 -11.6741 -11.6741 -11.6573 -11.6573
   -11.6561 -11.6561 -11.6260 -11.6259 -11.6140 -11.6140 -11.5959 -11.5959
   -11.5729 -11.5728 -11.5540 -11.5540 -11.5470 -11.5470 -11.5409 -11.5409
   -11.5294 -11.5293 -11.5133 -11.5132 -11.5010 -11.5010 -11.4945 -11.4945
   -11.4744 -11.4744 -11.4657 -11.4656 -11.4503 -11.4502 -11.4109 -11.4109
    -9.3088  -9.3088  -9.2476  -9.2476  -9.2092  -9.2092  -9.1092  -9.1092
    -9.0900  -9.0900  -9.0696  -9.0696  -8.9966  -8.9966  -8.9831  -8.9831
    -8.6360  -8.6360  -8.4299  -8.4298  -8.3197  -8.3195  -8.1770  -8.1763
    -8.1532  -8.1523  -8.1090  -8.1083  -8.0498  -8.0485  -7.9849  -7.9842
    -7.9403  -7.9394  -7.9074  -7.9057  -7.8804  -7.8796  -7.8643  -7.8634
    -7.8370  -7.8345  -7.8254  -7.8241  -7.7490  -7.7473  -7.6874  -7.6860
    -7.6588  -7.6577  -7.6256  -7.6243  -7.6190  -7.6181  -7.5736  -7.5724
    -7.5121  -7.5111  -7.4234  -7.4233  -7.3952  -7.3951  -7.3085  -7.3082
    -6.6000  -6.6000  -6.4842  -6.4842  -6.2082  -6.2082  -6.1289  -6.1289
    -6.1145  -6.1144  -6.1036  -6.1036  -6.0025  -6.0025  -5.9903  -5.9903
    -5.8644  -5.8644  -5.7698  -5.7697  -5.7236  -5.7236  -5.5425  -5.5425
    -5.5277  -5.5277  -5.4629  -5.4629  -5.1535  -5.1535  -5.1256  -5.1256
    -4.2168  -4.2161  -4.1568  -4.1564  -3.8581  -3.8573  -3.7998  -3.7992
    -3.7733  -3.7716  -3.6683  -3.6677  -3.6057  -3.6043  -3.5840  -3.5817
    -3.5078  -3.5071  -3.4818  -3.4811  -3.4477  -3.4475  -3.4378  -3.4372
    -3.3580  -3.3575  -3.2358  -3.2349  -3.1772  -3.1762  -3.1257  -3.1238
    -1.7483  -1.7483  -1.6505  -1.6504  -1.6099  -1.6098  -1.5269  -1.5268
    -1.4440  -1.4438  -1.4247  -1.4245  -1.3963  -1.3959  -1.3759  -1.3756
    -1.3363  -1.3362  -1.2294  -1.2291  -1.2212  -1.2210  -1.1234  -1.1230
    -1.1104  -1.1101  -1.1039  -1.1033  -1.0882  -1.0881  -1.0132  -1.0131
     0.2338   0.2389   0.2541   0.2656   0.3282   0.3351   0.3375   0.3441
     0.4175   0.4416   0.5616   0.5689   0.6877   0.6969   0.7283   0.7407
     0.7842   0.7952   0.8922   0.9032   1.0718   1.0803   1.1231   1.1341
     1.1551   1.1714   1.1878   1.2073   1.2254   1.2434   1.2613   1.2926
     1.3047   1.3318   1.3669   1.4043   1.4412   1.4828   1.5286   1.5523
     1.5673   1.5859   1.6294   1.6403   1.6984   1.7329   1.7662   1.8010
     1.8245   1.8355   1.8417   1.8629   1.8866   1.8969   1.9148   1.9191
     1.9547   1.9846   1.9926   2.0107   2.0332   2.0378   2.0748   2.0950
     2.1220   2.1333   2.1713   2.1821   2.2021   2.2269   2.2296   2.2513
     2.2841   2.3025   2.3131   2.3302   2.3445   2.3489   2.3688   2.3802
     2.3967   2.4071   2.4163   2.4297   2.4415   2.4595   2.4860   2.4968
     2.5083   2.5124   2.5322   2.5486   2.5674   2.5925   2.6158   2.6219
     2.6326   2.6529   2.6748   2.6966   2.7146   2.7271   2.7495   2.7754
     2.7841   2.7995   2.8217   2.8348   2.8574   2.8773   2.8851   2.9121
     2.9140   2.9207   2.9344   2.9557   2.9684   2.9846   3.0095   3.0202
     3.0421   3.0612   3.0703   3.1013   3.1045   3.1250   3.1402   3.1618
     3.1697   3.1815   3.1910   3.2187   3.2277   3.2498   3.2756   3.3023
     3.3394   3.3672   3.3863   3.4114   3.5166   3.5425   3.5663   3.6435
     5.2583   5.3612   5.3774   5.4519   5.7602   5.7927   5.8269   5.9047
     6.1365   6.1938   6.2068   6.2835   6.5094   6.5327   6.6071   6.6298
     6.8982   6.9405   6.9941   7.0647   7.3095   7.3352   7.3575   7.4698
     7.5283   7.5466   7.5672   7.5914   7.6310   7.6705   7.7196   7.7490
     7.7662   7.7851   7.8158   7.8872   7.9871   8.0077   8.0692   8.0996
     8.1205   8.1517   8.1609   8.1947   8.3187   8.3638   8.3818   8.4052
     8.4726   8.4853   8.5446   8.5713   8.5971   8.6642   8.6989   8.7709
     8.7905   8.8226   8.8525   8.8813

          k = 0.0000-0.4969 0.0000 ( 80270 PWs)   bands (ev):

   -41.9224 -41.9224 -41.8180 -41.8180 -41.6524 -41.6524 -41.6428 -41.6428
   -41.5389 -41.5389 -41.5310 -41.5310 -41.4510 -41.4510 -41.4479 -41.4479
   -41.4292 -41.4292 -41.4254 -41.4254 -41.4168 -41.4168 -41.4100 -41.4100
   -41.3846 -41.3846 -41.3703 -41.3703 -41.3443 -41.3443 -41.3405 -41.3405
   -41.3255 -41.3255 -41.3187 -41.3187 -41.3177 -41.3177 -41.3062 -41.3062
   -41.3047 -41.3047 -41.2789 -41.2789 -41.2672 -41.2672 -41.2530 -41.2530
   -41.2493 -41.2493 -41.2355 -41.2355 -41.2305 -41.2305 -41.2255 -41.2255
   -41.2019 -41.2019 -41.1854 -41.1854 -41.1662 -41.1662 -41.1642 -41.1642
   -41.1635 -41.1635 -41.1142 -41.1142 -41.1068 -41.1068 -41.0858 -41.0858
   -41.0849 -41.0849 -41.0628 -41.0628 -41.0449 -41.0449 -41.0421 -41.0421
   -40.9759 -40.9759 -40.9751 -40.9751 -40.9598 -40.9598 -40.9517 -40.9517
   -40.8759 -40.8759 -40.8558 -40.8558 -40.8486 -40.8486 -40.7370 -40.7370
   -40.2237 -40.2237 -40.1746 -40.1746 -40.0866 -40.0866 -39.9546 -39.9546
   -39.9448 -39.9448 -39.9001 -39.9001 -39.8910 -39.8910 -39.8054 -39.8054
   -39.7978 -39.7978 -39.7532 -39.7532 -39.7521 -39.7521 -39.7299 -39.7299
   -39.7294 -39.7294 -39.7178 -39.7178 -39.7110 -39.7110 -39.7003 -39.7003
   -39.6869 -39.6869 -39.6852 -39.6852 -39.6843 -39.6843 -39.6734 -39.6734
   -39.6713 -39.6713 -39.6700 -39.6700 -39.6613 -39.6613 -39.6308 -39.6308
   -39.6260 -39.6260 -39.6139 -39.6139 -39.6134 -39.6134 -39.6128 -39.6128
   -39.5887 -39.5887 -39.5875 -39.5875 -39.5814 -39.5814 -39.5812 -39.5812
   -39.5729 -39.5729 -39.5655 -39.5655 -39.5530 -39.5530 -39.5331 -39.5331
   -39.5326 -39.5326 -39.5312 -39.5312 -39.5291 -39.5291 -39.5141 -39.5141
   -39.5103 -39.5103 -39.5079 -39.5079 -39.5037 -39.5037 -39.4743 -39.4743
   -39.4708 -39.4708 -39.4686 -39.4686 -39.4663 -39.4663 -39.4580 -39.4580
   -39.4485 -39.4485 -39.4366 -39.4366 -39.4108 -39.4108 -39.4074 -39.4074
   -39.3876 -39.3876 -39.3825 -39.3825 -39.3706 -39.3706 -39.3644 -39.3644
   -39.3501 -39.3501 -39.3341 -39.3341 -39.3176 -39.3176 -39.3093 -39.3093
   -39.3067 -39.3067 -39.2597 -39.2597 -39.2531 -39.2531 -39.2489 -39.2489
   -39.2433 -39.2433 -39.2185 -39.2185 -39.2042 -39.2042 -39.1498 -39.1498
   -39.1497 -39.1497 -39.1272 -39.1272 -39.0976 -39.0976 -39.0036 -39.0036
   -16.9548 -16.9548 -16.7331 -16.7331 -16.4027 -16.4027 -16.3564 -16.3564
   -16.3176 -16.3176 -16.2905 -16.2905 -16.2351 -16.2351 -15.8719 -15.8719
   -14.3154 -14.3154 -14.3083 -14.3083 -14.2777 -14.2777 -14.2598 -14.2598
   -14.2058 -14.2058 -14.1939 -14.1939 -14.1913 -14.1913 -14.1710 -14.1710
   -14.0986 -14.0986 -14.0835 -14.0835 -14.0786 -14.0786 -14.0765 -14.0765
   -14.0641 -14.0641 -14.0539 -14.0539 -14.0033 -14.0033 -13.9893 -13.9893
   -11.7844 -11.7844 -11.7607 -11.7607 -11.7412 -11.7412 -11.7256 -11.7256
   -11.7190 -11.7190 -11.6830 -11.6830 -11.6740 -11.6740 -11.6573 -11.6573
   -11.6561 -11.6561 -11.6261 -11.6261 -11.6141 -11.6141 -11.5959 -11.5959
   -11.5731 -11.5731 -11.5541 -11.5541 -11.5469 -11.5469 -11.5412 -11.5412
   -11.5291 -11.5291 -11.5129 -11.5129 -11.5010 -11.5010 -11.4945 -11.4945
   -11.4744 -11.4744 -11.4657 -11.4657 -11.4501 -11.4501 -11.4109 -11.4109
    -9.3095  -9.3095  -9.2476  -9.2476  -9.2085  -9.2085  -9.1079  -9.1079
    -9.0912  -9.0912  -9.0696  -9.0696  -8.9955  -8.9955  -8.9843  -8.9843
    -8.6381  -8.6381  -8.4200  -8.4200  -8.3498  -8.3498  -8.1738  -8.1738
    -8.1200  -8.1200  -8.0839  -8.0839  -8.0534  -8.0534  -7.9777  -7.9777
    -7.9582  -7.9582  -7.9142  -7.9142  -7.8862  -7.8862  -7.8746  -7.8746
    -7.8464  -7.8464  -7.8044  -7.8044  -7.7411  -7.7411  -7.7064  -7.7064
    -7.6617  -7.6617  -7.6392  -7.6392  -7.6095  -7.6095  -7.5514  -7.5514
    -7.5275  -7.5275  -7.4144  -7.4144  -7.3961  -7.3961  -7.3090  -7.3090
    -6.5998  -6.5998  -6.4838  -6.4838  -6.2078  -6.2078  -6.1291  -6.1291
    -6.1120  -6.1120  -6.1055  -6.1055  -6.0049  -6.0049  -5.9882  -5.9882
    -5.8655  -5.8655  -5.7706  -5.7706  -5.7235  -5.7235  -5.5426  -5.5426
    -5.5279  -5.5279  -5.4628  -5.4628  -5.1532  -5.1532  -5.1252  -5.1252
    -4.3282  -4.3282  -4.1437  -4.1437  -3.8706  -3.8706  -3.8177  -3.8177
    -3.7018  -3.7018  -3.6597  -3.6597  -3.6334  -3.6334  -3.5536  -3.5536
    -3.4964  -3.4964  -3.4848  -3.4848  -3.4456  -3.4456  -3.4302  -3.4302
    -3.3593  -3.3593  -3.2569  -3.2569  -3.1424  -3.1424  -2.9822  -2.9822
    -1.7474  -1.7474  -1.6503  -1.6503  -1.6100  -1.6100  -1.5283  -1.5283
    -1.4440  -1.4440  -1.4230  -1.4230  -1.3959  -1.3959  -1.3746  -1.3746
    -1.3390  -1.3390  -1.2299  -1.2299  -1.2209  -1.2209  -1.1344  -1.1344
    -1.1121  -1.1121  -1.0994  -1.0994  -1.0930  -1.0930  -1.0044  -1.0044
     0.2079   0.2079   0.2637   0.2637   0.2776   0.2776   0.3485   0.3485
     0.3682   0.3682   0.4074   0.4074   0.4666   0.4666   0.5271   0.5271
     0.6590   0.6590   0.9386   0.9386   1.0185   1.0185   1.0633   1.0633
     1.1390   1.1390   1.2497   1.2497   1.2858   1.2858   1.3105   1.3105
     1.3481   1.3481   1.4183   1.4183   1.4831   1.4831   1.5493   1.5493
     1.6399   1.6399   1.6787   1.6787   1.7021   1.7021   1.8140   1.8140
     1.8494   1.8494   1.8806   1.8806   1.9320   1.9320   1.9684   1.9684
     1.9975   1.9975   2.0355   2.0355   2.0644   2.0644   2.1055   2.1055
     2.1246   2.1246   2.2042   2.2042   2.2408   2.2408   2.2750   2.2750
     2.2957   2.2957   2.3388   2.3388   2.3646   2.3646   2.3923   2.3923
     2.4138   2.4138   2.4508   2.4508   2.4853   2.4853   2.5043   2.5043
     2.5401   2.5401   2.5636   2.5636   2.5934   2.5934   2.6059   2.6059
     2.6550   2.6550   2.7014   2.7014   2.7229   2.7229   2.7557   2.7557
     2.7942   2.7942   2.8372   2.8372   2.8749   2.8749   2.9039   2.9039
     2.9214   2.9214   2.9716   2.9716   3.0134   3.0134   3.0467   3.0467
     3.0795   3.0795   3.1013   3.1013   3.1356   3.1356   3.1777   3.1777
     3.2027   3.2027   3.2233   3.2233   3.2636   3.2636   3.3495   3.3495
     3.3960   3.3960   3.4499   3.4499   3.6962   3.6962   3.8210   3.8210
     5.0335   5.0335   5.1710   5.1710   5.6734   5.6734   5.7720   5.7720
     5.9136   5.9136   6.0688   6.0688   6.2483   6.2483   6.3286   6.3286
     6.9655   6.9655   7.0354   7.0354   7.1682   7.1682   7.3120   7.3120
     7.3933   7.3933   7.4530   7.4530   7.5272   7.5272   7.6205   7.6205
     7.8275   7.8275   7.9083   7.9083   8.1048   8.1048   8.2064   8.2064
     8.2433   8.2433   8.3379   8.3379   8.4582   8.4582   8.5548   8.5548
     8.6054   8.6054   8.7027   8.7027   8.7383   8.7383   8.7889   8.7890
     8.8338   8.8338   8.8803   8.8804

          k = 0.0000-0.4969 0.2500 ( 80262 PWs)   bands (ev):

   -41.9224 -41.9224 -41.8180 -41.8180 -41.6524 -41.6524 -41.6428 -41.6428
   -41.5389 -41.5389 -41.5310 -41.5310 -41.4510 -41.4510 -41.4479 -41.4479
   -41.4292 -41.4292 -41.4253 -41.4253 -41.4168 -41.4168 -41.4100 -41.4100
   -41.3846 -41.3846 -41.3703 -41.3703 -41.3443 -41.3443 -41.3405 -41.3405
   -41.3255 -41.3255 -41.3187 -41.3187 -41.3177 -41.3177 -41.3062 -41.3062
   -41.3047 -41.3047 -41.2789 -41.2789 -41.2672 -41.2672 -41.2530 -41.2530
   -41.2493 -41.2493 -41.2355 -41.2355 -41.2305 -41.2305 -41.2255 -41.2255
   -41.2019 -41.2019 -41.1854 -41.1854 -41.1662 -41.1662 -41.1642 -41.1642
   -41.1635 -41.1635 -41.1142 -41.1142 -41.1068 -41.1068 -41.0858 -41.0858
   -41.0849 -41.0849 -41.0628 -41.0628 -41.0449 -41.0449 -41.0421 -41.0421
   -40.9759 -40.9759 -40.9751 -40.9751 -40.9598 -40.9598 -40.9517 -40.9517
   -40.8759 -40.8759 -40.8558 -40.8558 -40.8486 -40.8486 -40.7370 -40.7370
   -40.2237 -40.2237 -40.1746 -40.1746 -40.0866 -40.0866 -39.9546 -39.9546
   -39.9448 -39.9448 -39.9001 -39.9001 -39.8910 -39.8910 -39.8054 -39.8054
   -39.7978 -39.7978 -39.7531 -39.7531 -39.7521 -39.7521 -39.7299 -39.7299
   -39.7294 -39.7294 -39.7178 -39.7178 -39.7110 -39.7110 -39.7003 -39.7003
   -39.6869 -39.6869 -39.6852 -39.6852 -39.6843 -39.6843 -39.6734 -39.6734
   -39.6713 -39.6713 -39.6700 -39.6700 -39.6613 -39.6613 -39.6308 -39.6308
   -39.6260 -39.6260 -39.6139 -39.6139 -39.6134 -39.6134 -39.6128 -39.6128
   -39.5887 -39.5887 -39.5875 -39.5875 -39.5814 -39.5814 -39.5811 -39.5811
   -39.5729 -39.5729 -39.5655 -39.5655 -39.5530 -39.5530 -39.5331 -39.5331
   -39.5326 -39.5326 -39.5311 -39.5311 -39.5291 -39.5291 -39.5141 -39.5141
   -39.5103 -39.5103 -39.5079 -39.5079 -39.5037 -39.5037 -39.4743 -39.4743
   -39.4708 -39.4708 -39.4686 -39.4686 -39.4663 -39.4663 -39.4580 -39.4580
   -39.4485 -39.4485 -39.4366 -39.4366 -39.4108 -39.4108 -39.4074 -39.4074
   -39.3876 -39.3876 -39.3825 -39.3825 -39.3706 -39.3706 -39.3644 -39.3644
   -39.3501 -39.3501 -39.3341 -39.3341 -39.3176 -39.3176 -39.3093 -39.3093
   -39.3067 -39.3067 -39.2597 -39.2597 -39.2531 -39.2531 -39.2489 -39.2489
   -39.2433 -39.2433 -39.2185 -39.2185 -39.2042 -39.2042 -39.1498 -39.1498
   -39.1497 -39.1497 -39.1271 -39.1271 -39.0976 -39.0976 -39.0036 -39.0036
   -16.9548 -16.9548 -16.7331 -16.7331 -16.4027 -16.4027 -16.3564 -16.3564
   -16.3176 -16.3176 -16.2905 -16.2905 -16.2351 -16.2351 -15.8719 -15.8719
   -14.3154 -14.3154 -14.3083 -14.3083 -14.2777 -14.2777 -14.2598 -14.2598
   -14.2058 -14.2058 -14.1939 -14.1939 -14.1913 -14.1913 -14.1709 -14.1709
   -14.0986 -14.0986 -14.0836 -14.0835 -14.0786 -14.0786 -14.0765 -14.0765
   -14.0641 -14.0641 -14.0539 -14.0539 -14.0033 -14.0033 -13.9893 -13.9893
   -11.7844 -11.7844 -11.7606 -11.7606 -11.7412 -11.7412 -11.7256 -11.7256
   -11.7189 -11.7189 -11.6830 -11.6830 -11.6742 -11.6741 -11.6573 -11.6573
   -11.6561 -11.6561 -11.6260 -11.6259 -11.6141 -11.6140 -11.5959 -11.5959
   -11.5731 -11.5731 -11.5541 -11.5541 -11.5470 -11.5470 -11.5411 -11.5410
   -11.5292 -11.5292 -11.5130 -11.5129 -11.5010 -11.5010 -11.4945 -11.4945
   -11.4744 -11.4744 -11.4657 -11.4657 -11.4503 -11.4503 -11.4109 -11.4109
    -9.3091  -9.3091  -9.2476  -9.2476  -9.2088  -9.2088  -9.1081  -9.1081
    -9.0911  -9.0911  -9.0696  -9.0696  -8.9957  -8.9957  -8.9840  -8.9840
    -8.6364  -8.6364  -8.4197  -8.4196  -8.3434  -8.3433  -8.1779  -8.1761
    -8.1369  -8.1348  -8.0918  -8.0913  -8.0608  -8.0596  -7.9828  -7.9814
    -7.9440  -7.9434  -7.9095  -7.9085  -7.8826  -7.8819  -7.8714  -7.8701
    -7.8452  -7.8446  -7.8133  -7.8121  -7.7381  -7.7370  -7.7056  -7.7052
    -7.6626  -7.6603  -7.6243  -7.6227  -7.6088  -7.6072  -7.5599  -7.5591
    -7.5258  -7.5255  -7.4192  -7.4188  -7.3962  -7.3962  -7.3108  -7.3106
    -6.5999  -6.5999  -6.4840  -6.4840  -6.2078  -6.2078  -6.1290  -6.1290
    -6.1121  -6.1121  -6.1054  -6.1054  -6.0038  -6.0037  -5.9891  -5.9890
    -5.8650  -5.8650  -5.7703  -5.7702  -5.7236  -5.7236  -5.5426  -5.5426
    -5.5278  -5.5278  -5.4629  -5.4629  -5.1534  -5.1534  -5.1254  -5.1254
    -4.2653  -4.2650  -4.0830  -4.0828  -3.9230  -3.9222  -3.8229  -3.8225
    -3.7247  -3.7231  -3.6743  -3.6735  -3.6427  -3.6417  -3.5289  -3.5274
    -3.4932  -3.4927  -3.4724  -3.4714  -3.4442  -3.4433  -3.4201  -3.4182
    -3.3682  -3.3676  -3.3110  -3.3106  -3.1659  -3.1657  -3.0796  -3.0789
    -1.7475  -1.7474  -1.6503  -1.6502  -1.6095  -1.6094  -1.5282  -1.5281
    -1.4443  -1.4436  -1.4239  -1.4231  -1.3961  -1.3958  -1.3751  -1.3750
    -1.3374  -1.3373  -1.2291  -1.2285  -1.2218  -1.2216  -1.1291  -1.1287
    -1.1129  -1.1102  -1.1026  -1.1006  -1.0907  -1.0898  -1.0085  -1.0082
     0.2209   0.2340   0.2650   0.2745   0.3369   0.3424   0.3699   0.3727
     0.4505   0.4716   0.4993   0.5174   0.6404   0.6520   0.6780   0.7010
     0.7246   0.7384   0.9384   0.9453   1.0215   1.0267   1.0444   1.0667
     1.1564   1.1629   1.2264   1.2425   1.2596   1.2789   1.3031   1.3216
     1.3371   1.3680   1.3980   1.4308   1.4607   1.4721   1.5206   1.5378
     1.5809   1.6047   1.6339   1.6435   1.6617   1.6983   1.7651   1.8039
     1.8120   1.8356   1.8638   1.8872   1.8987   1.9106   1.9281   1.9448
     1.9613   1.9837   2.0135   2.0193   2.0319   2.0548   2.0811   2.0905
     2.1094   2.1267   2.1527   2.1915   2.2112   2.2282   2.2385   2.2497
     2.2605   2.2815   2.2932   2.3209   2.3305   2.3392   2.3657   2.3762
     2.3884   2.4099   2.4243   2.4349   2.4517   2.4701   2.4793   2.4863
     2.5074   2.5201   2.5407   2.5557   2.5626   2.5721   2.6046   2.6194
     2.6469   2.6625   2.6801   2.6944   2.7152   2.7319   2.7433   2.7628
     2.7897   2.8100   2.8199   2.8408   2.8581   2.8761   2.8824   2.8907
     2.9145   2.9255   2.9418   2.9634   2.9986   3.0107   3.0186   3.0364
     3.0507   3.0703   3.0841   3.0989   3.1044   3.1326   3.1533   3.1612
     3.1713   3.1855   3.1944   3.1992   3.2236   3.2443   3.2513   3.3078
     3.3519   3.3787   3.4200   3.4380   3.4964   3.5275   3.5986   3.6361
     5.2791   5.3146   5.4307   5.4607   5.7313   5.7504   5.8624   5.8943
     6.1139   6.1692   6.2880   6.3073   6.4870   6.5623   6.6361   6.6660
     6.9632   6.9739   7.0347   7.0418   7.1458   7.1699   7.2681   7.3068
     7.4027   7.4420   7.4597   7.4781   7.5979   7.6026   7.6583   7.6701
     7.7848   7.8178   7.9048   7.9679   8.0950   8.1058   8.1487   8.1607
     8.1963   8.2180   8.2376   8.2538   8.2975   8.3113   8.3563   8.3665
     8.4662   8.4957   8.5234   8.5452   8.6198   8.6875   8.7332   8.7914
     8.8099   8.8263   8.8597   8.8890

          k = 0.0000-0.4969-0.5000 ( 80284 PWs)   bands (ev):

   -41.9224 -41.9224 -41.8180 -41.8180 -41.6524 -41.6524 -41.6428 -41.6428
   -41.5389 -41.5389 -41.5310 -41.5310 -41.4510 -41.4510 -41.4479 -41.4479
   -41.4292 -41.4292 -41.4253 -41.4253 -41.4168 -41.4168 -41.4100 -41.4100
   -41.3846 -41.3846 -41.3703 -41.3703 -41.3443 -41.3443 -41.3405 -41.3405
   -41.3255 -41.3255 -41.3187 -41.3187 -41.3177 -41.3177 -41.3062 -41.3062
   -41.3047 -41.3047 -41.2789 -41.2789 -41.2672 -41.2672 -41.2530 -41.2530
   -41.2493 -41.2493 -41.2355 -41.2355 -41.2305 -41.2305 -41.2255 -41.2255
   -41.2019 -41.2019 -41.1854 -41.1854 -41.1662 -41.1662 -41.1642 -41.1642
   -41.1635 -41.1635 -41.1142 -41.1142 -41.1068 -41.1068 -41.0858 -41.0858
   -41.0849 -41.0849 -41.0628 -41.0628 -41.0449 -41.0449 -41.0421 -41.0421
   -40.9759 -40.9759 -40.9751 -40.9751 -40.9598 -40.9598 -40.9517 -40.9517
   -40.8759 -40.8759 -40.8558 -40.8558 -40.8486 -40.8486 -40.7370 -40.7370
   -40.2237 -40.2237 -40.1746 -40.1746 -40.0866 -40.0866 -39.9546 -39.9546
   -39.9448 -39.9448 -39.9001 -39.9001 -39.8910 -39.8910 -39.8054 -39.8054
   -39.7978 -39.7978 -39.7531 -39.7531 -39.7521 -39.7521 -39.7299 -39.7299
   -39.7294 -39.7294 -39.7178 -39.7178 -39.7110 -39.7110 -39.7003 -39.7003
   -39.6870 -39.6870 -39.6852 -39.6852 -39.6843 -39.6843 -39.6734 -39.6734
   -39.6713 -39.6713 -39.6700 -39.6700 -39.6613 -39.6613 -39.6308 -39.6308
   -39.6260 -39.6260 -39.6139 -39.6139 -39.6134 -39.6134 -39.6128 -39.6128
   -39.5887 -39.5887 -39.5876 -39.5876 -39.5814 -39.5814 -39.5812 -39.5812
   -39.5729 -39.5729 -39.5655 -39.5655 -39.5530 -39.5530 -39.5331 -39.5331
   -39.5326 -39.5326 -39.5312 -39.5312 -39.5291 -39.5291 -39.5141 -39.5141
   -39.5103 -39.5103 -39.5079 -39.5079 -39.5037 -39.5037 -39.4743 -39.4743
   -39.4708 -39.4708 -39.4686 -39.4686 -39.4663 -39.4663 -39.4580 -39.4580
   -39.4485 -39.4485 -39.4366 -39.4366 -39.4108 -39.4108 -39.4074 -39.4074
   -39.3876 -39.3876 -39.3825 -39.3825 -39.3706 -39.3706 -39.3644 -39.3644
   -39.3501 -39.3501 -39.3341 -39.3341 -39.3176 -39.3176 -39.3093 -39.3093
   -39.3067 -39.3067 -39.2597 -39.2597 -39.2531 -39.2531 -39.2489 -39.2489
   -39.2433 -39.2433 -39.2185 -39.2185 -39.2042 -39.2042 -39.1498 -39.1498
   -39.1497 -39.1497 -39.1271 -39.1271 -39.0976 -39.0976 -39.0036 -39.0036
   -16.9548 -16.9548 -16.7332 -16.7332 -16.4027 -16.4027 -16.3564 -16.3564
   -16.3176 -16.3176 -16.2905 -16.2905 -16.2351 -16.2351 -15.8719 -15.8719
   -14.3154 -14.3154 -14.3083 -14.3083 -14.2777 -14.2777 -14.2598 -14.2598
   -14.2058 -14.2058 -14.1939 -14.1939 -14.1913 -14.1913 -14.1709 -14.1709
   -14.0986 -14.0986 -14.0835 -14.0835 -14.0786 -14.0786 -14.0765 -14.0765
   -14.0641 -14.0641 -14.0539 -14.0539 -14.0033 -14.0033 -13.9893 -13.9893
   -11.7844 -11.7844 -11.7604 -11.7604 -11.7412 -11.7412 -11.7256 -11.7256
   -11.7189 -11.7189 -11.6830 -11.6830 -11.6743 -11.6743 -11.6574 -11.6574
   -11.6561 -11.6561 -11.6258 -11.6258 -11.6141 -11.6141 -11.5959 -11.5959
   -11.5731 -11.5731 -11.5540 -11.5540 -11.5470 -11.5470 -11.5409 -11.5409
   -11.5294 -11.5294 -11.5130 -11.5130 -11.5010 -11.5010 -11.4946 -11.4946
   -11.4744 -11.4744 -11.4658 -11.4658 -11.4504 -11.4504 -11.4109 -11.4109
    -9.3088  -9.3088  -9.2477  -9.2477  -9.2092  -9.2092  -9.1084  -9.1084
    -9.0909  -9.0909  -9.0696  -9.0696  -8.9959  -8.9959  -8.9838  -8.9838
    -8.6347  -8.6347  -8.4195  -8.4195  -8.3355  -8.3355  -8.1851  -8.1851
    -8.1475  -8.1475  -8.1016  -8.1016  -8.0587  -8.0587  -7.9881  -7.9881
    -7.9353  -7.9353  -7.9039  -7.9039  -7.8803  -7.8803  -7.8639  -7.8639
    -7.8351  -7.8351  -7.8297  -7.8297  -7.7362  -7.7362  -7.7014  -7.7014
    -7.6521  -7.6521  -7.6149  -7.6149  -7.6089  -7.6089  -7.5674  -7.5674
    -7.5233  -7.5233  -7.4239  -7.4239  -7.3964  -7.3964  -7.3125  -7.3125
    -6.5999  -6.5999  -6.4842  -6.4842  -6.2078  -6.2078  -6.1290  -6.1290
    -6.1122  -6.1122  -6.1053  -6.1053  -6.0026  -6.0026  -5.9901  -5.9901
    -5.8645  -5.8645  -5.7699  -5.7699  -5.7238  -5.7238  -5.5425  -5.5425
    -5.5278  -5.5278  -5.4629  -5.4629  -5.1535  -5.1535  -5.1256  -5.1256
    -4.1342  -4.1342  -4.0680  -4.0680  -3.9452  -3.9452  -3.8756  -3.8756
    -3.8146  -3.8146  -3.6686  -3.6686  -3.5465  -3.5465  -3.5253  -3.5253
    -3.4976  -3.4976  -3.4617  -3.4617  -3.4501  -3.4501  -3.4446  -3.4446
    -3.3469  -3.3469  -3.3101  -3.3101  -3.2515  -3.2515  -3.1754  -3.1754
    -1.7473  -1.7473  -1.6502  -1.6502  -1.6089  -1.6089  -1.5280  -1.5280
    -1.4439  -1.4439  -1.4240  -1.4240  -1.3961  -1.3961  -1.3756  -1.3756
    -1.3359  -1.3359  -1.2279  -1.2279  -1.2224  -1.2224  -1.1234  -1.1234
    -1.1107  -1.1107  -1.1036  -1.1036  -1.0881  -1.0881  -1.0128  -1.0128
     0.2538   0.2538   0.2715   0.2715   0.3336   0.3336   0.3550   0.3550
     0.5640   0.5640   0.7412   0.7412   0.8217   0.8217   0.8932   0.8932
     0.9757   0.9757   1.0050   1.0050   1.0432   1.0432   1.1286   1.1286
     1.1439   1.1439   1.1742   1.1742   1.2390   1.2390   1.2744   1.2744
     1.3208   1.3208   1.3542   1.3542   1.4364   1.4364   1.4935   1.4935
     1.5247   1.5247   1.5670   1.5670   1.6396   1.6396   1.7114   1.7114
     1.7733   1.7733   1.8188   1.8188   1.8691   1.8691   1.8892   1.8892
     1.8992   1.8992   1.9761   1.9761   2.0123   2.0123   2.0702   2.0702
     2.1044   2.1044   2.1417   2.1417   2.1887   2.1887   2.2156   2.2156
     2.2418   2.2418   2.2912   2.2912   2.3342   2.3342   2.3455   2.3455
     2.3726   2.3726   2.4150   2.4150   2.4289   2.4289   2.4710   2.4710
     2.4967   2.4967   2.5157   2.5157   2.5566   2.5566   2.6175   2.6175
     2.6547   2.6547   2.6694   2.6694   2.7260   2.7260   2.7544   2.7544
     2.8021   2.8021   2.8308   2.8308   2.8495   2.8495   2.8844   2.8844
     2.9165   2.9165   2.9277   2.9277   2.9676   2.9676   3.0244   3.0244
     3.0610   3.0610   3.0777   3.0777   3.1169   3.1169   3.1461   3.1461
     3.1690   3.1690   3.1847   3.1847   3.2199   3.2199   3.2311   3.2311
     3.3463   3.3463   3.3894   3.3894   3.4541   3.4541   3.4976   3.4976
     5.5257   5.5257   5.6272   5.6272   5.7167   5.7167   5.8129   5.8129
     6.5134   6.5134   6.6645   6.6645   6.8658   6.8658   6.9841   6.9841
     7.0393   7.0393   7.1413   7.1413   7.2525   7.2525   7.3580   7.3580
     7.4709   7.4709   7.5343   7.5343   7.6823   7.6823   7.7332   7.7332
     7.7552   7.7552   7.8298   7.8298   7.8747   7.8747   8.0065   8.0065
     8.0609   8.0609   8.1212   8.1212   8.1913   8.1913   8.2571   8.2571
     8.2977   8.2977   8.4010   8.4010   8.4405   8.4405   8.5186   8.5186
     8.8144   8.8144   8.8682   8.8682

          k = 0.2500 0.0000 0.2500 ( 80236 PWs)   bands (ev):

   -41.9224 -41.9224 -41.8180 -41.8180 -41.6524 -41.6524 -41.6428 -41.6428
   -41.5389 -41.5389 -41.5310 -41.5310 -41.4510 -41.4510 -41.4479 -41.4479
   -41.4292 -41.4292 -41.4253 -41.4253 -41.4168 -41.4168 -41.4100 -41.4100
   -41.3846 -41.3846 -41.3703 -41.3703 -41.3443 -41.3443 -41.3405 -41.3405
   -41.3255 -41.3255 -41.3187 -41.3187 -41.3177 -41.3177 -41.3062 -41.3062
   -41.3047 -41.3047 -41.2789 -41.2789 -41.2672 -41.2672 -41.2530 -41.2530
   -41.2493 -41.2493 -41.2355 -41.2355 -41.2305 -41.2305 -41.2255 -41.2255
   -41.2019 -41.2019 -41.1854 -41.1854 -41.1662 -41.1662 -41.1642 -41.1642
   -41.1635 -41.1635 -41.1142 -41.1142 -41.1068 -41.1068 -41.0858 -41.0858
   -41.0849 -41.0849 -41.0628 -41.0628 -41.0449 -41.0449 -41.0421 -41.0421
   -40.9759 -40.9759 -40.9751 -40.9751 -40.9598 -40.9598 -40.9517 -40.9517
   -40.8759 -40.8759 -40.8558 -40.8558 -40.8486 -40.8486 -40.7370 -40.7370
   -40.2237 -40.2237 -40.1746 -40.1746 -40.0866 -40.0866 -39.9546 -39.9546
   -39.9448 -39.9448 -39.9001 -39.9001 -39.8910 -39.8910 -39.8054 -39.8054
   -39.7978 -39.7978 -39.7531 -39.7531 -39.7521 -39.7521 -39.7299 -39.7299
   -39.7294 -39.7294 -39.7178 -39.7178 -39.7110 -39.7110 -39.7003 -39.7003
   -39.6869 -39.6869 -39.6852 -39.6852 -39.6843 -39.6843 -39.6734 -39.6734
   -39.6713 -39.6713 -39.6700 -39.6700 -39.6613 -39.6613 -39.6308 -39.6308
   -39.6260 -39.6260 -39.6139 -39.6139 -39.6134 -39.6134 -39.6128 -39.6128
   -39.5887 -39.5887 -39.5875 -39.5875 -39.5814 -39.5814 -39.5811 -39.5811
   -39.5729 -39.5729 -39.5655 -39.5655 -39.5530 -39.5530 -39.5331 -39.5331
   -39.5326 -39.5326 -39.5312 -39.5312 -39.5291 -39.5291 -39.5141 -39.5141
   -39.5103 -39.5103 -39.5079 -39.5079 -39.5037 -39.5037 -39.4743 -39.4743
   -39.4708 -39.4708 -39.4686 -39.4686 -39.4663 -39.4663 -39.4580 -39.4580
   -39.4485 -39.4485 -39.4366 -39.4366 -39.4108 -39.4108 -39.4074 -39.4074
   -39.3876 -39.3876 -39.3825 -39.3825 -39.3706 -39.3706 -39.3644 -39.3644
   -39.3501 -39.3501 -39.3341 -39.3341 -39.3176 -39.3176 -39.3093 -39.3093
   -39.3067 -39.3067 -39.2597 -39.2597 -39.2531 -39.2531 -39.2489 -39.2489
   -39.2433 -39.2433 -39.2185 -39.2185 -39.2041 -39.2041 -39.1498 -39.1498
   -39.1497 -39.1497 -39.1271 -39.1271 -39.0976 -39.0976 -39.0036 -39.0036
   -16.9548 -16.9548 -16.7331 -16.7331 -16.4027 -16.4027 -16.3564 -16.3564
   -16.3176 -16.3176 -16.2905 -16.2905 -16.2351 -16.2351 -15.8719 -15.8719
   -14.3154 -14.3154 -14.3082 -14.3082 -14.2777 -14.2777 -14.2598 -14.2598
   -14.2058 -14.2058 -14.1939 -14.1939 -14.1913 -14.1913 -14.1709 -14.1709
   -14.0985 -14.0985 -14.0835 -14.0835 -14.0786 -14.0786 -14.0766 -14.0766
   -14.0641 -14.0641 -14.0539 -14.0539 -14.0033 -14.0033 -13.9893 -13.9893
   -11.7843 -11.7842 -11.7606 -11.7606 -11.7415 -11.7415 -11.7256 -11.7256
   -11.7189 -11.7189 -11.6831 -11.6831 -11.6738 -11.6738 -11.6571 -11.6570
   -11.6564 -11.6563 -11.6263 -11.6262 -11.6141 -11.6140 -11.5959 -11.5959
   -11.5724 -11.5722 -11.5539 -11.5536 -11.5469 -11.5468 -11.5418 -11.5416
   -11.5294 -11.5293 -11.5134 -11.5134 -11.5010 -11.5010 -11.4946 -11.4945
   -11.4744 -11.4744 -11.4657 -11.4656 -11.4500 -11.4499 -11.4109 -11.4109
    -9.3092  -9.3092  -9.2475  -9.2475  -9.2080  -9.2080  -9.1098  -9.1098
    -9.0889  -9.0889  -9.0701  -9.0701  -8.9984  -8.9984  -8.9838  -8.9838
    -8.6340  -8.6339  -8.4303  -8.4302  -8.3106  -8.3103  -8.1999  -8.1989
    -8.1380  -8.1367  -8.1040  -8.1029  -8.0457  -8.0440  -7.9847  -7.9838
    -7.9636  -7.9616  -7.9213  -7.9198  -7.8919  -7.8885  -7.8542  -7.8531
    -7.8197  -7.8180  -7.7971  -7.7954  -7.7380  -7.7375  -7.6867  -7.6855
    -7.6658  -7.6635  -7.6415  -7.6404  -7.6310  -7.6306  -7.5874  -7.5864
    -7.5022  -7.5019  -7.4233  -7.4230  -7.3940  -7.3939  -7.3010  -7.3008
    -6.5999  -6.5999  -6.4840  -6.4840  -6.2087  -6.2087  -6.1290  -6.1290
    -6.1163  -6.1163  -6.1022  -6.1022  -6.0037  -6.0036  -5.9897  -5.9896
    -5.8653  -5.8653  -5.7701  -5.7701  -5.7235  -5.7235  -5.5425  -5.5425
    -5.5275  -5.5275  -5.4628  -5.4628  -5.1528  -5.1528  -5.1252  -5.1252
    -4.3487  -4.3485  -4.0170  -4.0168  -3.8998  -3.8988  -3.8387  -3.8376
    -3.8056  -3.8045  -3.6595  -3.6592  -3.5560  -3.5552  -3.5373  -3.5364
    -3.4916  -3.4909  -3.4608  -3.4605  -3.4422  -3.4417  -3.4183  -3.4174
    -3.3753  -3.3743  -3.3458  -3.3450  -3.1888  -3.1885  -2.9706  -2.9701
    -1.7482  -1.7478  -1.6513  -1.6513  -1.6103  -1.6102  -1.5261  -1.5260
    -1.4447  -1.4439  -1.4247  -1.4238  -1.3940  -1.3926  -1.3781  -1.3769
    -1.3379  -1.3378  -1.2308  -1.2303  -1.2204  -1.2202  -1.1289  -1.1283
    -1.1105  -1.1087  -1.1006  -1.0992  -1.0926  -1.0918  -1.0080  -1.0077
     0.2149   0.2178   0.3175   0.3272   0.3735   0.3944   0.4252   0.4401
     0.4615   0.4769   0.5049   0.5170   0.5501   0.5637   0.5919   0.6053
     0.6451   0.6501   0.6755   0.6837   0.7182   0.7284   0.8025   0.8109
     1.1435   1.1541   1.2312   1.2634   1.2802   1.2895   1.3111   1.3447
     1.4345   1.4957   1.5139   1.5208   1.5386   1.5453   1.5770   1.6076
     1.6097   1.6480   1.6858   1.7219   1.7334   1.7576   1.8012   1.8148
     1.8326   1.8618   1.8776   1.8909   1.9203   1.9366   1.9700   1.9878
     1.9989   2.0076   2.0317   2.0531   2.0746   2.0870   2.1027   2.1313
     2.1441   2.1722   2.1803   2.2006   2.2140   2.2382   2.2537   2.2675
     2.2795   2.3120   2.3254   2.3333   2.3534   2.3681   2.3795   2.3891
     2.4001   2.4131   2.4349   2.4446   2.4596   2.4703   2.4776   2.5029
     2.5181   2.5291   2.5373   2.5615   2.5830   2.6026   2.6172   2.6297
     2.6402   2.6566   2.6771   2.7089   2.7156   2.7356   2.7503   2.7566
     2.7932   2.8105   2.8346   2.8456   2.8594   2.8749   2.8987   2.9024
     2.9159   2.9321   2.9412   2.9711   2.9826   2.9911   3.0058   3.0307
     3.0408   3.0535   3.0714   3.0929   3.1097   3.1279   3.1516   3.1765
     3.1800   3.1997   3.2228   3.2426   3.2665   3.2867   3.3017   3.3481
     3.3663   3.4115   3.4680   3.4790   3.5092   3.5639   3.7366   3.7468
     5.0513   5.1161   5.4453   5.4667   5.5039   5.5353   5.7975   5.8906
     5.9923   6.0077   6.2768   6.3050   6.3942   6.4256   6.5014   6.5133
     6.5987   6.6458   6.7178   6.7364   6.7570   6.7871   6.9755   7.0439
     7.3541   7.3571   7.6818   7.7204   7.8790   7.8968   7.9574   7.9942
     8.0392   8.0763   8.1132   8.1378   8.1845   8.2039   8.2656   8.2745
     8.3000   8.3248   8.3443   8.3963   8.4272   8.4484   8.4753   8.5100
     8.5477   8.5665   8.5911   8.6136   8.6367   8.6581   8.6945   8.7169
     8.8008   8.8177   8.8453   8.8849

          k = 0.2500 0.0000-0.5000 ( 80264 PWs)   bands (ev):

   -41.9224 -41.9224 -41.8180 -41.8180 -41.6524 -41.6524 -41.6428 -41.6428
   -41.5389 -41.5389 -41.5310 -41.5310 -41.4510 -41.4510 -41.4479 -41.4479
   -41.4292 -41.4292 -41.4253 -41.4253 -41.4168 -41.4168 -41.4100 -41.4100
   -41.3846 -41.3846 -41.3703 -41.3703 -41.3443 -41.3443 -41.3405 -41.3405
   -41.3255 -41.3255 -41.3187 -41.3187 -41.3177 -41.3177 -41.3062 -41.3062
   -41.3047 -41.3047 -41.2789 -41.2789 -41.2672 -41.2672 -41.2530 -41.2530
   -41.2493 -41.2493 -41.2355 -41.2355 -41.2305 -41.2305 -41.2255 -41.2255
   -41.2019 -41.2019 -41.1854 -41.1854 -41.1662 -41.1662 -41.1642 -41.1642
   -41.1635 -41.1635 -41.1142 -41.1142 -41.1068 -41.1068 -41.0858 -41.0858
   -41.0849 -41.0849 -41.0628 -41.0628 -41.0449 -41.0449 -41.0421 -41.0421
   -40.9759 -40.9759 -40.9751 -40.9751 -40.9598 -40.9598 -40.9517 -40.9517
   -40.8759 -40.8759 -40.8558 -40.8558 -40.8486 -40.8486 -40.7370 -40.7370
   -40.2237 -40.2237 -40.1746 -40.1746 -40.0866 -40.0866 -39.9546 -39.9546
   -39.9448 -39.9448 -39.9001 -39.9001 -39.8910 -39.8910 -39.8054 -39.8054
   -39.7978 -39.7978 -39.7531 -39.7531 -39.7521 -39.7521 -39.7299 -39.7299
   -39.7294 -39.7294 -39.7178 -39.7178 -39.7110 -39.7110 -39.7003 -39.7003
   -39.6869 -39.6869 -39.6852 -39.6852 -39.6843 -39.6843 -39.6734 -39.6734
   -39.6713 -39.6713 -39.6700 -39.6700 -39.6613 -39.6613 -39.6308 -39.6308
   -39.6260 -39.6260 -39.6139 -39.6139 -39.6134 -39.6134 -39.6128 -39.6128
   -39.5887 -39.5887 -39.5875 -39.5875 -39.5814 -39.5814 -39.5811 -39.5811
   -39.5729 -39.5729 -39.5655 -39.5655 -39.5530 -39.5530 -39.5331 -39.5331
   -39.5326 -39.5326 -39.5312 -39.5312 -39.5291 -39.5291 -39.5141 -39.5141
   -39.5103 -39.5103 -39.5079 -39.5079 -39.5037 -39.5037 -39.4743 -39.4743
   -39.4708 -39.4708 -39.4686 -39.4686 -39.4663 -39.4663 -39.4580 -39.4580
   -39.4485 -39.4485 -39.4366 -39.4366 -39.4108 -39.4108 -39.4074 -39.4074
   -39.3876 -39.3876 -39.3825 -39.3825 -39.3706 -39.3706 -39.3644 -39.3644
   -39.3501 -39.3501 -39.3341 -39.3341 -39.3176 -39.3176 -39.3093 -39.3093
   -39.3067 -39.3067 -39.2597 -39.2597 -39.2531 -39.2531 -39.2489 -39.2489
   -39.2433 -39.2433 -39.2185 -39.2185 -39.2042 -39.2042 -39.1498 -39.1498
   -39.1497 -39.1497 -39.1271 -39.1271 -39.0976 -39.0976 -39.0036 -39.0036
   -16.9548 -16.9548 -16.7332 -16.7332 -16.4027 -16.4027 -16.3564 -16.3564
   -16.3176 -16.3176 -16.2905 -16.2905 -16.2351 -16.2351 -15.8719 -15.8719
   -14.3154 -14.3154 -14.3082 -14.3082 -14.2777 -14.2777 -14.2598 -14.2598
   -14.2058 -14.2058 -14.1939 -14.1939 -14.1913 -14.1913 -14.1710 -14.1710
   -14.0985 -14.0985 -14.0836 -14.0835 -14.0786 -14.0785 -14.0766 -14.0766
   -14.0641 -14.0641 -14.0540 -14.0540 -14.0033 -14.0033 -13.9893 -13.9893
   -11.7843 -11.7842 -11.7605 -11.7605 -11.7415 -11.7415 -11.7256 -11.7256
   -11.7188 -11.7188 -11.6831 -11.6831 -11.6740 -11.6740 -11.6571 -11.6570
   -11.6564 -11.6563 -11.6261 -11.6261 -11.6141 -11.6141 -11.5959 -11.5959
   -11.5724 -11.5722 -11.5538 -11.5536 -11.5469 -11.5469 -11.5417 -11.5414
   -11.5295 -11.5295 -11.5135 -11.5135 -11.5010 -11.5010 -11.4946 -11.4946
   -11.4744 -11.4744 -11.4657 -11.4657 -11.4501 -11.4501 -11.4109 -11.4109
    -9.3090  -9.3090  -9.2476  -9.2476  -9.2085  -9.2084  -9.1099  -9.1099
    -9.0888  -9.0887  -9.0702  -9.0702  -8.9983  -8.9983  -8.9835  -8.9835
    -8.6330  -8.6329  -8.4309  -8.4308  -8.3028  -8.3025  -8.1915  -8.1910
    -8.1564  -8.1558  -8.1168  -8.1154  -8.0441  -8.0424  -7.9980  -7.9976
    -7.9641  -7.9629  -7.9199  -7.9194  -7.8692  -7.8672  -7.8564  -7.8540
    -7.8182  -7.8164  -7.7942  -7.7913  -7.7446  -7.7444  -7.6805  -7.6797
    -7.6661  -7.6657  -7.6381  -7.6375  -7.6317  -7.6314  -7.5760  -7.5755
    -7.5029  -7.5029  -7.4260  -7.4258  -7.3957  -7.3956  -7.3055  -7.3054
    -6.6000  -6.6000  -6.4842  -6.4842  -6.2088  -6.2088  -6.1289  -6.1289
    -6.1162  -6.1162  -6.1024  -6.1024  -6.0023  -6.0023  -5.9909  -5.9909
    -5.8648  -5.8648  -5.7697  -5.7697  -5.7237  -5.7237  -5.5425  -5.5425
    -5.5275  -5.5275  -5.4628  -5.4628  -5.1529  -5.1529  -5.1255  -5.1254
    -4.2064  -4.2063  -4.1512  -4.1510  -3.8364  -3.8360  -3.7635  -3.7621
    -3.7449  -3.7438  -3.6948  -3.6931  -3.6501  -3.6490  -3.6312  -3.6295
    -3.5015  -3.5008  -3.4829  -3.4824  -3.4463  -3.4459  -3.4340  -3.4338
    -3.3604  -3.3600  -3.2452  -3.2444  -3.1794  -3.1791  -3.1317  -3.1316
    -1.7482  -1.7479  -1.6503  -1.6502  -1.6108  -1.6107  -1.5259  -1.5258
    -1.4440  -1.4440  -1.4253  -1.4251  -1.3935  -1.3922  -1.3781  -1.3768
    -1.3366  -1.3365  -1.2302  -1.2299  -1.2205  -1.2203  -1.1230  -1.1227
    -1.1098  -1.1092  -1.1028  -1.1017  -1.0903  -1.0897  -1.0123  -1.0122
     0.2222   0.2256   0.3521   0.3573   0.4296   0.4340   0.4427   0.4476
     0.4571   0.4607   0.5617   0.5685   0.5911   0.6028   0.6247   0.6428
     0.7794   0.7869   0.8749   0.8823   1.0760   1.0874   1.1179   1.1378
     1.1564   1.1645   1.1700   1.1948   1.2099   1.2358   1.2638   1.2916
     1.3150   1.3338   1.3887   1.4151   1.4739   1.4992   1.5156   1.5451
     1.5559   1.5740   1.6275   1.6475   1.6962   1.7257   1.7596   1.7877
     1.8018   1.8264   1.8435   1.8622   1.8763   1.8872   1.9088   1.9371
     1.9462   1.9779   1.9872   2.0076   2.0253   2.0456   2.0641   2.0920
     2.1155   2.1460   2.1572   2.1783   2.1940   2.2164   2.2442   2.2516
     2.2715   2.3013   2.3074   2.3310   2.3363   2.3503   2.3578   2.3698
     2.3895   2.4000   2.4118   2.4215   2.4364   2.4510   2.4550   2.4864
     2.4908   2.5109   2.5188   2.5386   2.5530   2.5699   2.5980   2.6250
     2.6378   2.6646   2.6934   2.7010   2.7076   2.7233   2.7549   2.7703
     2.7956   2.8057   2.8298   2.8492   2.8665   2.8767   2.9053   2.9095
     2.9179   2.9311   2.9509   2.9626   2.9782   2.9886   3.0004   3.0113
     3.0430   3.0514   3.0642   3.0916   3.1006   3.1134   3.1355   3.1561
     3.1658   3.1774   3.1938   3.2009   3.2410   3.2533   3.2911   3.3044
     3.3202   3.3287   3.3915   3.4077   3.4825   3.5283   3.6352   3.6579
     5.3015   5.3256   5.3387   5.3925   5.7329   5.7752   5.7884   5.8195
     6.2465   6.2652   6.3057   6.3513   6.5513   6.5748   6.5982   6.6374
     6.8859   6.9944   7.0438   7.0538   7.3214   7.3570   7.4154   7.4234
     7.5194   7.5529   7.5879   7.6048   7.6369   7.6702   7.7234   7.7499
     7.7828   7.8033   7.8332   7.8524   7.9871   7.9953   8.1259   8.1354
     8.1938   8.2138   8.2989   8.3316   8.3561   8.3630   8.4091   8.4448
     8.4892   8.5036   8.5386   8.5510   8.6363   8.6764   8.7061   8.7270
     8.7611   8.7814   8.8123   8.8335

          k = 0.2500 0.2485 0.2500 ( 80235 PWs)   bands (ev):

   -41.9224 -41.9224 -41.8180 -41.8180 -41.6524 -41.6524 -41.6428 -41.6428
   -41.5389 -41.5389 -41.5310 -41.5310 -41.4510 -41.4510 -41.4479 -41.4479
   -41.4292 -41.4292 -41.4253 -41.4253 -41.4168 -41.4168 -41.4100 -41.4100
   -41.3846 -41.3846 -41.3703 -41.3703 -41.3443 -41.3443 -41.3405 -41.3405
   -41.3255 -41.3255 -41.3187 -41.3187 -41.3177 -41.3177 -41.3062 -41.3062
   -41.3047 -41.3047 -41.2789 -41.2789 -41.2672 -41.2672 -41.2530 -41.2530
   -41.2493 -41.2493 -41.2355 -41.2355 -41.2305 -41.2305 -41.2255 -41.2255
   -41.2019 -41.2019 -41.1854 -41.1854 -41.1662 -41.1662 -41.1642 -41.1642
   -41.1635 -41.1635 -41.1142 -41.1142 -41.1068 -41.1068 -41.0858 -41.0858
   -41.0849 -41.0849 -41.0628 -41.0628 -41.0449 -41.0449 -41.0421 -41.0421
   -40.9759 -40.9759 -40.9750 -40.9750 -40.9598 -40.9598 -40.9517 -40.9517
   -40.8759 -40.8759 -40.8558 -40.8558 -40.8486 -40.8486 -40.7370 -40.7370
   -40.2237 -40.2237 -40.1746 -40.1746 -40.0866 -40.0866 -39.9546 -39.9546
   -39.9448 -39.9448 -39.9001 -39.9001 -39.8910 -39.8910 -39.8054 -39.8054
   -39.7978 -39.7978 -39.7531 -39.7531 -39.7521 -39.7521 -39.7299 -39.7299
   -39.7294 -39.7294 -39.7178 -39.7178 -39.7110 -39.7110 -39.7003 -39.7003
   -39.6869 -39.6869 -39.6852 -39.6852 -39.6843 -39.6843 -39.6734 -39.6734
   -39.6713 -39.6713 -39.6700 -39.6700 -39.6613 -39.6613 -39.6308 -39.6308
   -39.6260 -39.6260 -39.6139 -39.6139 -39.6134 -39.6134 -39.6128 -39.6128
   -39.5887 -39.5887 -39.5875 -39.5875 -39.5814 -39.5814 -39.5811 -39.5811
   -39.5729 -39.5729 -39.5655 -39.5655 -39.5530 -39.5530 -39.5331 -39.5331
   -39.5326 -39.5326 -39.5312 -39.5312 -39.5291 -39.5291 -39.5141 -39.5141
   -39.5103 -39.5103 -39.5079 -39.5079 -39.5037 -39.5037 -39.4743 -39.4743
   -39.4708 -39.4708 -39.4686 -39.4686 -39.4663 -39.4663 -39.4580 -39.4580
   -39.4485 -39.4485 -39.4366 -39.4366 -39.4108 -39.4108 -39.4074 -39.4074
   -39.3876 -39.3876 -39.3825 -39.3825 -39.3706 -39.3706 -39.3644 -39.3644
   -39.3501 -39.3501 -39.3341 -39.3341 -39.3176 -39.3176 -39.3093 -39.3093
   -39.3067 -39.3067 -39.2597 -39.2597 -39.2531 -39.2531 -39.2489 -39.2489
   -39.2433 -39.2433 -39.2185 -39.2185 -39.2042 -39.2042 -39.1498 -39.1498
   -39.1497 -39.1497 -39.1271 -39.1271 -39.0976 -39.0976 -39.0036 -39.0036
   -16.9548 -16.9548 -16.7331 -16.7331 -16.4027 -16.4027 -16.3564 -16.3564
   -16.3176 -16.3176 -16.2905 -16.2905 -16.2350 -16.2350 -15.8719 -15.8719
   -14.3154 -14.3154 -14.3082 -14.3082 -14.2777 -14.2777 -14.2598 -14.2598
   -14.2058 -14.2058 -14.1939 -14.1939 -14.1913 -14.1913 -14.1709 -14.1709
   -14.0985 -14.0985 -14.0835 -14.0835 -14.0786 -14.0786 -14.0766 -14.0766
   -14.0641 -14.0641 -14.0539 -14.0539 -14.0033 -14.0033 -13.9893 -13.9893
   -11.7843 -11.7842 -11.7606 -11.7606 -11.7414 -11.7413 -11.7256 -11.7256
   -11.7189 -11.7188 -11.6831 -11.6831 -11.6740 -11.6739 -11.6571 -11.6571
   -11.6563 -11.6563 -11.6261 -11.6260 -11.6141 -11.6140 -11.5959 -11.5959
   -11.5726 -11.5723 -11.5539 -11.5537 -11.5469 -11.5469 -11.5418 -11.5416
   -11.5294 -11.5293 -11.5133 -11.5131 -11.5010 -11.5010 -11.4945 -11.4945
   -11.4745 -11.4744 -11.4657 -11.4657 -11.4502 -11.4501 -11.4109 -11.4109
    -9.3092  -9.3092  -9.2475  -9.2475  -9.2080  -9.2080  -9.1091  -9.1091
    -9.0897  -9.0896  -9.0701  -9.0701  -8.9976  -8.9975  -8.9847  -8.9847
    -8.6327  -8.6325  -8.4227  -8.4226  -8.3242  -8.3237  -8.1954  -8.1945
    -8.1467  -8.1452  -8.0996  -8.0979  -8.0498  -8.0483  -7.9880  -7.9865
    -7.9676  -7.9652  -7.9205  -7.9197  -7.8950  -7.8917  -7.8403  -7.8387
    -7.8162  -7.8138  -7.8048  -7.8040  -7.7353  -7.7339  -7.6920  -7.6903
    -7.6667  -7.6648  -7.6346  -7.6316  -7.6223  -7.6196  -7.5806  -7.5799
    -7.5097  -7.5086  -7.4232  -7.4229  -7.3959  -7.3958  -7.3059  -7.3057
    -6.5998  -6.5998  -6.4840  -6.4840  -6.2083  -6.2083  -6.1291  -6.1291
    -6.1144  -6.1144  -6.1036  -6.1035  -6.0038  -6.0037  -5.9895  -5.9894
    -5.8654  -5.8654  -5.7702  -5.7702  -5.7236  -5.7236  -5.5426  -5.5426
    -5.5274  -5.5274  -5.4627  -5.4627  -5.1528  -5.1528  -5.1252  -5.1252
    -4.2944  -4.2939  -3.9772  -3.9764  -3.9074  -3.9067  -3.8496  -3.8487
    -3.8023  -3.8005  -3.6612  -3.6610  -3.5810  -3.5800  -3.5155  -3.5131
    -3.4939  -3.4934  -3.4741  -3.4731  -3.4503  -3.4480  -3.4432  -3.4424
    -3.4088  -3.4078  -3.3560  -3.3557  -3.1902  -3.1898  -3.0445  -3.0432
    -1.7473  -1.7469  -1.6506  -1.6506  -1.6099  -1.6097  -1.5267  -1.5266
    -1.4444  -1.4438  -1.4247  -1.4238  -1.3937  -1.3924  -1.3775  -1.3764
    -1.3375  -1.3374  -1.2297  -1.2291  -1.2212  -1.2209  -1.1283  -1.1281
    -1.1112  -1.1098  -1.1003  -1.0992  -1.0928  -1.0920  -1.0076  -1.0073
     0.3070   0.3221   0.3649   0.3728   0.4260   0.4399   0.4689   0.4820
     0.5088   0.5156   0.5710   0.5883   0.6110   0.6176   0.6357   0.6457
     0.6785   0.6863   0.7049   0.7113   0.8129   0.8198   0.8694   0.8922
     1.1360   1.1782   1.2288   1.2531   1.2713   1.2850   1.3071   1.3469
     1.4096   1.4318   1.4834   1.4977   1.5223   1.5395   1.5469   1.5922
     1.6027   1.6183   1.6571   1.6688   1.7130   1.7378   1.7814   1.8059
     1.8249   1.8455   1.8658   1.8818   1.9087   1.9310   1.9407   1.9678
     1.9826   2.0038   2.0161   2.0228   2.0485   2.0680   2.0830   2.0975
     2.1242   2.1528   2.1671   2.1775   2.1875   2.2161   2.2274   2.2403
     2.2587   2.2787   2.2995   2.3128   2.3264   2.3315   2.3502   2.3577
     2.3712   2.3895   2.3967   2.4074   2.4317   2.4460   2.4577   2.4770
     2.4850   2.5069   2.5175   2.5443   2.5673   2.5753   2.5980   2.6153
     2.6410   2.6531   2.6751   2.7039   2.7180   2.7283   2.7507   2.7710
     2.7960   2.8120   2.8217   2.8364   2.8457   2.8621   2.8751   2.9025
     2.9211   2.9315   2.9504   2.9648   2.9753   2.9962   2.9986   3.0076
     3.0304   3.0451   3.0590   3.0772   3.1054   3.1346   3.1437   3.1535
     3.1731   3.1780   3.2020   3.2216   3.2344   3.2629   3.2725   3.2939
     3.3363   3.3577   3.3679   3.4068   3.4379   3.4695   3.5620   3.5788
     5.3006   5.4016   5.6805   5.7430   5.7803   5.8446   5.8629   5.9152
     6.2582   6.2819   6.3477   6.3925   6.4314   6.4971   6.5559   6.6319
     6.6443   6.7517   6.8451   6.8652   6.9089   6.9615   6.9858   7.0395
     7.3844   7.4126   7.5792   7.5854   7.8362   7.8621   7.9166   7.9488
     8.0051   8.0424   8.0636   8.0924   8.1228   8.1501   8.1811   8.1942
     8.2641   8.2933   8.3121   8.3324   8.3763   8.4055   8.4238   8.4559
     8.4858   8.5127   8.5399   8.5604   8.5771   8.6037   8.6584   8.6914
     8.7139   8.7510   8.8036   8.8204

          k = 0.2500 0.2485-0.5000 ( 80230 PWs)   bands (ev):

   -41.9224 -41.9224 -41.8180 -41.8180 -41.6524 -41.6524 -41.6428 -41.6428
   -41.5389 -41.5389 -41.5310 -41.5310 -41.4510 -41.4510 -41.4479 -41.4479
   -41.4292 -41.4292 -41.4253 -41.4253 -41.4168 -41.4168 -41.4100 -41.4100
   -41.3846 -41.3846 -41.3703 -41.3703 -41.3443 -41.3443 -41.3405 -41.3405
   -41.3255 -41.3255 -41.3187 -41.3187 -41.3177 -41.3177 -41.3062 -41.3062
   -41.3047 -41.3047 -41.2789 -41.2789 -41.2672 -41.2672 -41.2530 -41.2530
   -41.2493 -41.2493 -41.2355 -41.2355 -41.2305 -41.2305 -41.2255 -41.2255
   -41.2019 -41.2019 -41.1854 -41.1854 -41.1662 -41.1662 -41.1642 -41.1642
   -41.1635 -41.1635 -41.1142 -41.1142 -41.1068 -41.1068 -41.0858 -41.0858
   -41.0849 -41.0849 -41.0628 -41.0628 -41.0449 -41.0449 -41.0421 -41.0421
   -40.9759 -40.9759 -40.9750 -40.9750 -40.9598 -40.9598 -40.9517 -40.9517
   -40.8759 -40.8759 -40.8558 -40.8558 -40.8486 -40.8486 -40.7370 -40.7370
   -40.2237 -40.2237 -40.1746 -40.1746 -40.0866 -40.0866 -39.9546 -39.9546
   -39.9448 -39.9448 -39.9001 -39.9001 -39.8910 -39.8910 -39.8054 -39.8054
   -39.7978 -39.7978 -39.7531 -39.7531 -39.7521 -39.7521 -39.7299 -39.7299
   -39.7294 -39.7294 -39.7178 -39.7178 -39.7110 -39.7110 -39.7003 -39.7003
   -39.6869 -39.6869 -39.6852 -39.6852 -39.6843 -39.6843 -39.6734 -39.6734
   -39.6713 -39.6713 -39.6700 -39.6700 -39.6613 -39.6613 -39.6308 -39.6308
   -39.6260 -39.6260 -39.6139 -39.6139 -39.6134 -39.6134 -39.6128 -39.6128
   -39.5887 -39.5887 -39.5875 -39.5875 -39.5814 -39.5814 -39.5811 -39.5811
   -39.5729 -39.5729 -39.5655 -39.5655 -39.5530 -39.5530 -39.5331 -39.5331
   -39.5326 -39.5326 -39.5311 -39.5311 -39.5291 -39.5291 -39.5141 -39.5141
   -39.5103 -39.5103 -39.5079 -39.5079 -39.5037 -39.5037 -39.4743 -39.4743
   -39.4708 -39.4708 -39.4686 -39.4686 -39.4663 -39.4663 -39.4580 -39.4580
   -39.4485 -39.4485 -39.4366 -39.4366 -39.4108 -39.4108 -39.4074 -39.4074
   -39.3876 -39.3876 -39.3825 -39.3825 -39.3706 -39.3706 -39.3644 -39.3644
   -39.3501 -39.3501 -39.3341 -39.3341 -39.3176 -39.3176 -39.3093 -39.3093
   -39.3067 -39.3067 -39.2597 -39.2597 -39.2531 -39.2531 -39.2489 -39.2489
   -39.2433 -39.2433 -39.2185 -39.2185 -39.2041 -39.2041 -39.1498 -39.1498
   -39.1497 -39.1497 -39.1271 -39.1271 -39.0976 -39.0976 -39.0036 -39.0036
   -16.9548 -16.9548 -16.7331 -16.7331 -16.4027 -16.4027 -16.3564 -16.3564
   -16.3176 -16.3176 -16.2905 -16.2905 -16.2350 -16.2350 -15.8719 -15.8719
   -14.3154 -14.3154 -14.3082 -14.3082 -14.2777 -14.2776 -14.2598 -14.2598
   -14.2058 -14.2058 -14.1939 -14.1939 -14.1913 -14.1913 -14.1709 -14.1709
   -14.0985 -14.0985 -14.0835 -14.0835 -14.0786 -14.0785 -14.0766 -14.0766
   -14.0641 -14.0641 -14.0539 -14.0539 -14.0033 -14.0033 -13.9893 -13.9893
   -11.7843 -11.7842 -11.7605 -11.7605 -11.7414 -11.7413 -11.7256 -11.7256
   -11.7188 -11.7188 -11.6831 -11.6831 -11.6741 -11.6741 -11.6572 -11.6571
   -11.6563 -11.6563 -11.6260 -11.6259 -11.6140 -11.6140 -11.5959 -11.5959
   -11.5726 -11.5723 -11.5539 -11.5537 -11.5469 -11.5469 -11.5417 -11.5414
   -11.5295 -11.5295 -11.5133 -11.5132 -11.5010 -11.5010 -11.4945 -11.4945
   -11.4745 -11.4744 -11.4658 -11.4657 -11.4503 -11.4502 -11.4109 -11.4109
    -9.3090  -9.3090  -9.2476  -9.2476  -9.2084  -9.2084  -9.1091  -9.1091
    -9.0895  -9.0895  -9.0701  -9.0701  -8.9975  -8.9974  -8.9844  -8.9844
    -8.6319  -8.6318  -8.4232  -8.4231  -8.3159  -8.3156  -8.1881  -8.1875
    -8.1646  -8.1644  -8.1092  -8.1077  -8.0512  -8.0494  -7.9984  -7.9982
    -7.9710  -7.9697  -7.9202  -7.9188  -7.8721  -7.8707  -7.8396  -7.8370
    -7.8158  -7.8128  -7.7998  -7.7984  -7.7459  -7.7449  -7.6895  -7.6880
    -7.6609  -7.6596  -7.6306  -7.6283  -7.6202  -7.6185  -7.5742  -7.5731
    -7.5118  -7.5108  -7.4263  -7.4262  -7.3968  -7.3966  -7.3091  -7.3089
    -6.5999  -6.5999  -6.4841  -6.4841  -6.2084  -6.2083  -6.1290  -6.1290
    -6.1145  -6.1144  -6.1035  -6.1035  -6.0024  -6.0023  -5.9906  -5.9906
    -5.8648  -5.8648  -5.7698  -5.7698  -5.7237  -5.7237  -5.5425  -5.5425
    -5.5274  -5.5274  -5.4628  -5.4627  -5.1530  -5.1529  -5.1254  -5.1254
    -4.1555  -4.1549  -4.1025  -4.1020  -3.8428  -3.8425  -3.7713  -3.7701
    -3.7520  -3.7501  -3.6921  -3.6905  -3.6632  -3.6626  -3.6358  -3.6338
    -3.5056  -3.5052  -3.4849  -3.4846  -3.4486  -3.4481  -3.4357  -3.4350
    -3.3635  -3.3626  -3.2952  -3.2948  -3.2371  -3.2361  -3.1649  -3.1644
    -1.7473  -1.7470  -1.6500  -1.6500  -1.6099  -1.6098  -1.5267  -1.5265
    -1.4441  -1.4439  -1.4248  -1.4246  -1.3935  -1.3922  -1.3776  -1.3764
    -1.3362  -1.3361  -1.2291  -1.2286  -1.2216  -1.2212  -1.1227  -1.1225
    -1.1104  -1.1098  -1.1027  -1.1015  -1.0903  -1.0897  -1.0117  -1.0116
     0.3461   0.3728   0.3928   0.4023   0.4527   0.4677   0.4751   0.4852
     0.5754   0.5774   0.5921   0.6054   0.6962   0.7100   0.7440   0.7486
     0.7897   0.8075   0.8877   0.9061   1.0739   1.0792   1.1244   1.1309
     1.1357   1.1597   1.1832   1.2021   1.2184   1.2484   1.2581   1.2801
     1.3017   1.3265   1.3791   1.3870   1.4349   1.4782   1.5195   1.5316
     1.5483   1.5759   1.5854   1.6237   1.6774   1.7072   1.7260   1.7722
     1.7842   1.8135   1.8211   1.8412   1.8698   1.8762   1.8976   1.9295
     1.9398   1.9613   1.9775   1.9973   2.0189   2.0362   2.0592   2.0707
     2.1046   2.1270   2.1398   2.1491   2.1786   2.1929   2.2121   2.2152
     2.2352   2.2614   2.2759   2.2942   2.3090   2.3205   2.3373   2.3504
     2.3546   2.3691   2.3830   2.3895   2.4017   2.4066   2.4351   2.4423
     2.4587   2.4785   2.4879   2.5187   2.5371   2.5559   2.5815   2.6029
     2.6381   2.6608   2.6782   2.6868   2.7184   2.7399   2.7600   2.7648
     2.7854   2.8026   2.8296   2.8424   2.8538   2.8732   2.8823   2.9085
     2.9136   2.9271   2.9386   2.9464   2.9589   2.9722   2.9881   3.0104
     3.0260   3.0417   3.0469   3.0862   3.0900   3.1106   3.1238   3.1451
     3.1547   3.1677   3.1789   3.1856   3.1969   3.2242   3.2524   3.2625
     3.2694   3.3026   3.3439   3.3744   3.3917   3.4075   3.4568   3.5004
     5.5929   5.6208   5.6572   5.7070   6.0146   6.0825   6.0943   6.1421
     6.2498   6.2743   6.3247   6.3914   6.7128   6.7395   6.7790   6.7897
     6.8945   6.9858   7.0280   7.0873   7.3059   7.3203   7.3622   7.4392
     7.5330   7.5580   7.5915   7.6291   7.6465   7.7047   7.7299   7.7662
     7.7893   7.8061   7.8341   7.8542   7.9832   7.9969   8.0534   8.1001
     8.1369   8.1570   8.1985   8.2211   8.2723   8.2985   8.3440   8.3868
     8.4078   8.4363   8.4661   8.5071   8.5404   8.5828   8.6217   8.6419
     8.6633   8.7097   8.7398   8.7717

          k = 0.2500-0.4969 0.2500 ( 80272 PWs)   bands (ev):

   -41.9224 -41.9224 -41.8180 -41.8180 -41.6524 -41.6524 -41.6428 -41.6428
   -41.5389 -41.5389 -41.5310 -41.5310 -41.4510 -41.4510 -41.4479 -41.4479
   -41.4292 -41.4292 -41.4254 -41.4254 -41.4168 -41.4168 -41.4100 -41.4100
   -41.3846 -41.3846 -41.3703 -41.3703 -41.3443 -41.3443 -41.3405 -41.3405
   -41.3255 -41.3255 -41.3187 -41.3187 -41.3177 -41.3177 -41.3062 -41.3062
   -41.3047 -41.3047 -41.2789 -41.2789 -41.2672 -41.2672 -41.2530 -41.2530
   -41.2493 -41.2493 -41.2355 -41.2355 -41.2305 -41.2305 -41.2255 -41.2255
   -41.2019 -41.2019 -41.1854 -41.1854 -41.1662 -41.1662 -41.1642 -41.1642
   -41.1635 -41.1635 -41.1142 -41.1142 -41.1068 -41.1068 -41.0858 -41.0858
   -41.0849 -41.0849 -41.0628 -41.0628 -41.0449 -41.0449 -41.0421 -41.0421
   -40.9759 -40.9759 -40.9751 -40.9751 -40.9598 -40.9598 -40.9517 -40.9517
   -40.8759 -40.8759 -40.8558 -40.8558 -40.8486 -40.8486 -40.7370 -40.7370
   -40.2237 -40.2237 -40.1746 -40.1746 -40.0866 -40.0866 -39.9546 -39.9546
   -39.9448 -39.9448 -39.9001 -39.9001 -39.8910 -39.8910 -39.8054 -39.8054
   -39.7978 -39.7978 -39.7532 -39.7532 -39.7521 -39.7521 -39.7299 -39.7299
   -39.7294 -39.7294 -39.7178 -39.7178 -39.7110 -39.7110 -39.7003 -39.7003
   -39.6869 -39.6869 -39.6852 -39.6852 -39.6843 -39.6843 -39.6734 -39.6734
   -39.6713 -39.6713 -39.6700 -39.6700 -39.6613 -39.6613 -39.6308 -39.6308
   -39.6260 -39.6260 -39.6139 -39.6139 -39.6134 -39.6134 -39.6128 -39.6128
   -39.5887 -39.5887 -39.5875 -39.5875 -39.5814 -39.5814 -39.5811 -39.5811
   -39.5729 -39.5729 -39.5655 -39.5655 -39.5530 -39.5530 -39.5331 -39.5331
   -39.5326 -39.5326 -39.5312 -39.5312 -39.5291 -39.5291 -39.5141 -39.5141
   -39.5103 -39.5103 -39.5079 -39.5079 -39.5037 -39.5037 -39.4743 -39.4743
   -39.4708 -39.4708 -39.4686 -39.4686 -39.4663 -39.4663 -39.4580 -39.4580
   -39.4485 -39.4485 -39.4366 -39.4366 -39.4108 -39.4108 -39.4074 -39.4074
   -39.3876 -39.3876 -39.3825 -39.3825 -39.3706 -39.3706 -39.3644 -39.3644
   -39.3501 -39.3501 -39.3341 -39.3341 -39.3176 -39.3176 -39.3093 -39.3093
   -39.3067 -39.3067 -39.2597 -39.2597 -39.2531 -39.2531 -39.2489 -39.2489
   -39.2433 -39.2433 -39.2185 -39.2185 -39.2042 -39.2042 -39.1498 -39.1498
   -39.1497 -39.1497 -39.1271 -39.1271 -39.0976 -39.0976 -39.0036 -39.0036
   -16.9548 -16.9548 -16.7331 -16.7331 -16.4027 -16.4027 -16.3564 -16.3564
   -16.3176 -16.3176 -16.2905 -16.2905 -16.2351 -16.2351 -15.8719 -15.8719
   -14.3154 -14.3154 -14.3083 -14.3082 -14.2777 -14.2777 -14.2598 -14.2598
   -14.2059 -14.2058 -14.1939 -14.1939 -14.1913 -14.1913 -14.1710 -14.1709
   -14.0986 -14.0985 -14.0836 -14.0835 -14.0786 -14.0786 -14.0766 -14.0766
   -14.0641 -14.0641 -14.0539 -14.0539 -14.0033 -14.0033 -13.9893 -13.9893
   -11.7843 -11.7842 -11.7606 -11.7606 -11.7412 -11.7412 -11.7256 -11.7256
   -11.7189 -11.7188 -11.6830 -11.6830 -11.6742 -11.6741 -11.6572 -11.6572
   -11.6563 -11.6563 -11.6260 -11.6259 -11.6141 -11.6141 -11.5959 -11.5959
   -11.5728 -11.5726 -11.5539 -11.5537 -11.5470 -11.5469 -11.5418 -11.5416
   -11.5294 -11.5293 -11.5130 -11.5130 -11.5010 -11.5010 -11.4946 -11.4946
   -11.4744 -11.4744 -11.4658 -11.4658 -11.4503 -11.4503 -11.4109 -11.4109
    -9.3092  -9.3092  -9.2476  -9.2476  -9.2080  -9.2080  -9.1081  -9.1081
    -9.0906  -9.0906  -9.0701  -9.0701  -8.9963  -8.9963  -8.9860  -8.9859
    -8.6311  -8.6310  -8.4149  -8.4147  -8.3379  -8.3375  -8.1916  -8.1898
    -8.1440  -8.1418  -8.0998  -8.0983  -8.0708  -8.0697  -7.9811  -7.9793
    -7.9693  -7.9674  -7.9197  -7.9190  -7.8940  -7.8912  -7.8402  -7.8388
    -7.8172  -7.8158  -7.7917  -7.7905  -7.7345  -7.7337  -7.7006  -7.6997
    -7.6695  -7.6675  -7.6320  -7.6297  -7.6113  -7.6094  -7.5611  -7.5602
    -7.5235  -7.5232  -7.4233  -7.4229  -7.3979  -7.3978  -7.3107  -7.3105
    -6.5998  -6.5998  -6.4839  -6.4839  -6.2078  -6.2078  -6.1291  -6.1291
    -6.1121  -6.1121  -6.1054  -6.1054  -6.0038  -6.0036  -5.9893  -5.9892
    -5.8655  -5.8654  -5.7703  -5.7703  -5.7238  -5.7238  -5.5426  -5.5426
    -5.5276  -5.5276  -5.4627  -5.4627  -5.1528  -5.1528  -5.1252  -5.1252
    -4.2029  -4.2027  -4.0264  -4.0263  -3.9013  -3.9008  -3.8300  -3.8295
    -3.7290  -3.7271  -3.6695  -3.6684  -3.6524  -3.6515  -3.5719  -3.5710
    -3.5044  -3.5037  -3.4871  -3.4867  -3.4479  -3.4474  -3.4330  -3.4317
    -3.4054  -3.4042  -3.3385  -3.3383  -3.1744  -3.1741  -3.1617  -3.1612
    -1.7464  -1.7461  -1.6501  -1.6499  -1.6095  -1.6094  -1.5275  -1.5273
    -1.4444  -1.4436  -1.4235  -1.4227  -1.3937  -1.3926  -1.3777  -1.3767
    -1.3375  -1.3374  -1.2290  -1.2284  -1.2217  -1.2214  -1.1288  -1.1283
    -1.1118  -1.1101  -1.1008  -1.0995  -1.0923  -1.0914  -1.0072  -1.0069
     0.3464   0.3650   0.4069   0.4156   0.4704   0.4781   0.5081   0.5181
     0.5343   0.5381   0.5848   0.6010   0.6473   0.6557   0.6912   0.7073
     0.7545   0.7668   0.9287   0.9442   1.0240   1.0408   1.0631   1.0721
     1.1488   1.1719   1.2218   1.2317   1.2500   1.2732   1.2825   1.3085
     1.3300   1.3542   1.3777   1.4266   1.4460   1.4717   1.5079   1.5225
     1.5647   1.5772   1.5948   1.6193   1.6268   1.6525   1.7480   1.7710
     1.7930   1.8220   1.8451   1.8579   1.8860   1.8934   1.9060   1.9331
     1.9437   1.9627   1.9825   2.0042   2.0116   2.0331   2.0558   2.0747
     2.0865   2.1138   2.1385   2.1467   2.1812   2.1847   2.2131   2.2300
     2.2425   2.2544   2.2641   2.2873   2.2930   2.3071   2.3305   2.3343
     2.3541   2.3612   2.3746   2.3889   2.4046   2.4242   2.4305   2.4421
     2.4801   2.4924   2.5181   2.5248   2.5459   2.5631   2.5703   2.5943
     2.6324   2.6565   2.6720   2.7038   2.7237   2.7301   2.7589   2.7780
     2.7949   2.8053   2.8230   2.8373   2.8559   2.8732   2.8818   2.9009
     2.9146   2.9232   2.9495   2.9635   2.9721   2.9858   3.0006   3.0179
     3.0331   3.0580   3.0665   3.0740   3.0937   3.1136   3.1315   3.1563
     3.1679   3.1807   3.1892   3.1949   3.2045   3.2136   3.2371   3.2519
     3.2939   3.3025   3.3332   3.3425   3.3798   3.4111   3.4858   3.5156
     5.4984   5.6467   5.7252   5.7772   5.9742   6.0316   6.0958   6.1376
     6.2385   6.3071   6.3800   6.4262   6.6182   6.7621   6.8049   6.8348
     6.9616   6.9912   7.0426   7.0819   7.1490   7.1914   7.3070   7.3522
     7.3987   7.4358   7.4833   7.5018   7.6335   7.6443   7.6780   7.6939
     7.8212   7.8456   7.8726   7.9403   8.0720   8.1060   8.1458   8.1684
     8.1720   8.1999   8.2187   8.2386   8.2841   8.3015   8.3493   8.3718
     8.4109   8.4428   8.4717   8.4924   8.5247   8.5529   8.5751   8.6179
     8.6763   8.6982   8.7456   8.7857

          k = 0.2500-0.4969-0.5000 ( 80232 PWs)   bands (ev):

   -41.9224 -41.9224 -41.8180 -41.8180 -41.6524 -41.6524 -41.6428 -41.6428
   -41.5389 -41.5389 -41.5310 -41.5310 -41.4510 -41.4510 -41.4479 -41.4479
   -41.4292 -41.4292 -41.4253 -41.4253 -41.4168 -41.4168 -41.4100 -41.4100
   -41.3846 -41.3846 -41.3703 -41.3703 -41.3443 -41.3443 -41.3405 -41.3405
   -41.3255 -41.3255 -41.3187 -41.3187 -41.3177 -41.3177 -41.3062 -41.3062
   -41.3047 -41.3047 -41.2788 -41.2788 -41.2672 -41.2672 -41.2530 -41.2530
   -41.2493 -41.2493 -41.2355 -41.2355 -41.2305 -41.2305 -41.2255 -41.2255
   -41.2019 -41.2019 -41.1854 -41.1854 -41.1662 -41.1662 -41.1642 -41.1642
   -41.1635 -41.1635 -41.1142 -41.1142 -41.1068 -41.1068 -41.0858 -41.0858
   -41.0849 -41.0849 -41.0628 -41.0628 -41.0449 -41.0449 -41.0421 -41.0421
   -40.9759 -40.9759 -40.9750 -40.9750 -40.9598 -40.9598 -40.9517 -40.9517
   -40.8759 -40.8759 -40.8558 -40.8558 -40.8486 -40.8486 -40.7370 -40.7370
   -40.2237 -40.2237 -40.1746 -40.1746 -40.0866 -40.0866 -39.9546 -39.9546
   -39.9447 -39.9447 -39.9001 -39.9001 -39.8910 -39.8910 -39.8054 -39.8054
   -39.7978 -39.7978 -39.7531 -39.7531 -39.7521 -39.7521 -39.7299 -39.7299
   -39.7294 -39.7294 -39.7178 -39.7178 -39.7110 -39.7110 -39.7003 -39.7003
   -39.6869 -39.6869 -39.6852 -39.6852 -39.6843 -39.6843 -39.6734 -39.6734
   -39.6713 -39.6713 -39.6700 -39.6700 -39.6613 -39.6613 -39.6308 -39.6308
   -39.6260 -39.6260 -39.6139 -39.6139 -39.6134 -39.6134 -39.6128 -39.6128
   -39.5887 -39.5887 -39.5875 -39.5875 -39.5814 -39.5814 -39.5811 -39.5811
   -39.5729 -39.5729 -39.5655 -39.5655 -39.5530 -39.5530 -39.5331 -39.5331
   -39.5326 -39.5326 -39.5311 -39.5311 -39.5291 -39.5291 -39.5141 -39.5141
   -39.5103 -39.5103 -39.5079 -39.5079 -39.5037 -39.5037 -39.4743 -39.4743
   -39.4708 -39.4708 -39.4686 -39.4686 -39.4663 -39.4663 -39.4580 -39.4580
   -39.4485 -39.4485 -39.4366 -39.4366 -39.4108 -39.4108 -39.4074 -39.4074
   -39.3876 -39.3876 -39.3825 -39.3825 -39.3706 -39.3706 -39.3644 -39.3644
   -39.3501 -39.3501 -39.3341 -39.3341 -39.3176 -39.3176 -39.3093 -39.3093
   -39.3067 -39.3067 -39.2597 -39.2597 -39.2531 -39.2531 -39.2489 -39.2489
   -39.2433 -39.2433 -39.2185 -39.2185 -39.2041 -39.2041 -39.1498 -39.1498
   -39.1497 -39.1497 -39.1271 -39.1271 -39.0976 -39.0976 -39.0036 -39.0036
   -16.9548 -16.9548 -16.7331 -16.7331 -16.4027 -16.4027 -16.3564 -16.3564
   -16.3176 -16.3176 -16.2905 -16.2905 -16.2351 -16.2351 -15.8719 -15.8719
   -14.3154 -14.3154 -14.3082 -14.3082 -14.2776 -14.2776 -14.2598 -14.2598
   -14.2058 -14.2058 -14.1939 -14.1939 -14.1913 -14.1913 -14.1709 -14.1709
   -14.0985 -14.0985 -14.0835 -14.0835 -14.0786 -14.0785 -14.0766 -14.0766
   -14.0641 -14.0641 -14.0539 -14.0539 -14.0032 -14.0032 -13.9893 -13.9893
   -11.7843 -11.7842 -11.7604 -11.7604 -11.7412 -11.7412 -11.7256 -11.7256
   -11.7188 -11.7188 -11.6830 -11.6830 -11.6743 -11.6743 -11.6572 -11.6572
   -11.6563 -11.6562 -11.6258 -11.6258 -11.6141 -11.6140 -11.5959 -11.5959
   -11.5727 -11.5726 -11.5539 -11.5537 -11.5470 -11.5470 -11.5417 -11.5414
   -11.5295 -11.5295 -11.5130 -11.5130 -11.5010 -11.5010 -11.4946 -11.4945
   -11.4744 -11.4744 -11.4658 -11.4658 -11.4504 -11.4504 -11.4109 -11.4109
    -9.3090  -9.3090  -9.2476  -9.2476  -9.2084  -9.2084  -9.1082  -9.1082
    -9.0904  -9.0904  -9.0701  -9.0701  -8.9963  -8.9963  -8.9854  -8.9854
    -8.6307  -8.6307  -8.4142  -8.4140  -8.3304  -8.3301  -8.1846  -8.1841
    -8.1656  -8.1647  -8.1089  -8.1079  -8.0647  -8.0629  -7.9923  -7.9917
    -7.9752  -7.9742  -7.9194  -7.9191  -7.8693  -7.8678  -7.8333  -7.8327
    -7.8169  -7.8153  -7.8002  -7.7989  -7.7392  -7.7383  -7.7017  -7.7010
    -7.6582  -7.6579  -7.6185  -7.6181  -7.6092  -7.6087  -7.5687  -7.5684
    -7.5224  -7.5223  -7.4264  -7.4261  -7.3982  -7.3980  -7.3126  -7.3126
    -6.5998  -6.5998  -6.4841  -6.4840  -6.2079  -6.2079  -6.1290  -6.1290
    -6.1121  -6.1121  -6.1053  -6.1053  -6.0024  -6.0024  -5.9903  -5.9903
    -5.8649  -5.8649  -5.7699  -5.7699  -5.7238  -5.7238  -5.5426  -5.5426
    -5.5274  -5.5274  -5.4628  -5.4628  -5.1529  -5.1529  -5.1254  -5.1254
    -4.0774  -4.0772  -4.0153  -4.0148  -3.9115  -3.9107  -3.8228  -3.8227
    -3.8027  -3.8021  -3.6767  -3.6765  -3.6066  -3.6057  -3.5800  -3.5791
    -3.5207  -3.5198  -3.4805  -3.4794  -3.4584  -3.4578  -3.4523  -3.4519
    -3.3723  -3.3713  -3.3546  -3.3539  -3.3265  -3.3257  -3.1777  -3.1775
    -1.7464  -1.7461  -1.6499  -1.6499  -1.6090  -1.6089  -1.5274  -1.5272
    -1.4440  -1.4439  -1.4236  -1.4236  -1.3933  -1.3922  -1.3779  -1.3768
    -1.3361  -1.3360  -1.2279  -1.2275  -1.2224  -1.2222  -1.1230  -1.1227
    -1.1105  -1.1101  -1.1025  -1.1015  -1.0900  -1.0893  -1.0113  -1.0112
     0.4169   0.4232   0.4454   0.4538   0.4732   0.4815   0.5242   0.5435
     0.5913   0.6168   0.7528   0.7566   0.8301   0.8377   0.8910   0.8967
     0.9678   0.9799   0.9984   1.0035   1.0330   1.0458   1.1066   1.1278
     1.1423   1.1535   1.1595   1.1860   1.2142   1.2301   1.2649   1.2750
     1.3060   1.3233   1.3443   1.3601   1.4116   1.4441   1.4596   1.4850
     1.4966   1.5223   1.5390   1.5561   1.6014   1.6446   1.6696   1.7194
     1.7478   1.7683   1.8047   1.8233   1.8402   1.8617   1.8776   1.8893
     1.9006   1.9219   1.9502   1.9805   1.9897   2.0108   2.0294   2.0552
     2.0707   2.0888   2.1144   2.1441   2.1498   2.1558   2.1923   2.1969
     2.2111   2.2225   2.2418   2.2642   2.2789   2.2878   2.3026   2.3142
     2.3243   2.3313   2.3481   2.3583   2.3723   2.3895   2.4042   2.4163
     2.4329   2.4573   2.4752   2.4956   2.5232   2.5370   2.5573   2.5862
     2.6306   2.6525   2.6757   2.7012   2.7154   2.7356   2.7602   2.7716
     2.7881   2.8053   2.8226   2.8334   2.8441   2.8691   2.8780   2.8980
     2.9157   2.9278   2.9370   2.9418   2.9535   2.9689   2.9832   2.9999
     3.0126   3.0307   3.0519   3.0600   3.0871   3.1042   3.1186   3.1364
     3.1426   3.1558   3.1662   3.1698   3.1897   3.1944   3.2106   3.2211
     3.2536   3.2749   3.3034   3.3161   3.3354   3.3648   3.4087   3.4440
     5.8618   5.9121   5.9390   5.9923   6.0692   6.0890   6.1629   6.1735
     6.4776   6.5600   6.6685   6.7079   6.8178   6.8752   6.9490   6.9923
     7.1251   7.1407   7.1972   7.2391   7.2499   7.3118   7.3845   7.4060
     7.4952   7.5294   7.5550   7.6027   7.6838   7.7105   7.7315   7.7579
     7.7742   7.7896   7.8140   7.8460   7.8757   7.9073   7.9879   8.0091
     8.0472   8.0614   8.1336   8.1384   8.1604   8.1800   8.2231   8.2314
     8.2576   8.2873   8.3399   8.3606   8.4125   8.4398   8.4730   8.4992
     8.6080   8.6436   8.6784   8.7217

          k =-0.5000 0.0000-0.5000 ( 80252 PWs)   bands (ev):

   -41.9224 -41.9224 -41.8180 -41.8180 -41.6524 -41.6524 -41.6428 -41.6428
   -41.5389 -41.5389 -41.5310 -41.5310 -41.4510 -41.4510 -41.4479 -41.4479
   -41.4292 -41.4292 -41.4253 -41.4253 -41.4168 -41.4168 -41.4100 -41.4100
   -41.3846 -41.3846 -41.3703 -41.3703 -41.3443 -41.3443 -41.3405 -41.3405
   -41.3255 -41.3255 -41.3187 -41.3187 -41.3177 -41.3177 -41.3062 -41.3062
   -41.3047 -41.3047 -41.2789 -41.2789 -41.2672 -41.2672 -41.2530 -41.2530
   -41.2493 -41.2493 -41.2355 -41.2355 -41.2305 -41.2305 -41.2255 -41.2255
   -41.2019 -41.2019 -41.1854 -41.1854 -41.1662 -41.1662 -41.1642 -41.1642
   -41.1635 -41.1635 -41.1142 -41.1142 -41.1068 -41.1068 -41.0858 -41.0858
   -41.0849 -41.0849 -41.0628 -41.0628 -41.0449 -41.0449 -41.0421 -41.0421
   -40.9759 -40.9759 -40.9750 -40.9750 -40.9598 -40.9598 -40.9517 -40.9517
   -40.8759 -40.8759 -40.8558 -40.8558 -40.8486 -40.8486 -40.7370 -40.7370
   -40.2237 -40.2237 -40.1746 -40.1746 -40.0866 -40.0866 -39.9546 -39.9546
   -39.9448 -39.9448 -39.9001 -39.9001 -39.8910 -39.8910 -39.8054 -39.8054
   -39.7978 -39.7978 -39.7531 -39.7531 -39.7521 -39.7521 -39.7299 -39.7299
   -39.7294 -39.7294 -39.7178 -39.7178 -39.7110 -39.7110 -39.7003 -39.7003
   -39.6869 -39.6869 -39.6852 -39.6852 -39.6843 -39.6843 -39.6734 -39.6734
   -39.6713 -39.6713 -39.6700 -39.6700 -39.6613 -39.6613 -39.6308 -39.6308
   -39.6260 -39.6260 -39.6139 -39.6139 -39.6134 -39.6134 -39.6128 -39.6128
   -39.5887 -39.5887 -39.5875 -39.5875 -39.5814 -39.5814 -39.5811 -39.5811
   -39.5729 -39.5729 -39.5655 -39.5655 -39.5530 -39.5530 -39.5331 -39.5331
   -39.5326 -39.5326 -39.5312 -39.5312 -39.5291 -39.5291 -39.5141 -39.5141
   -39.5103 -39.5103 -39.5079 -39.5079 -39.5037 -39.5037 -39.4743 -39.4743
   -39.4708 -39.4708 -39.4686 -39.4686 -39.4663 -39.4663 -39.4580 -39.4580
   -39.4485 -39.4485 -39.4366 -39.4366 -39.4108 -39.4108 -39.4074 -39.4074
   -39.3876 -39.3876 -39.3825 -39.3825 -39.3706 -39.3706 -39.3644 -39.3644
   -39.3501 -39.3501 -39.3341 -39.3341 -39.3176 -39.3176 -39.3093 -39.3093
   -39.3067 -39.3067 -39.2597 -39.2597 -39.2531 -39.2531 -39.2489 -39.2489
   -39.2433 -39.2433 -39.2185 -39.2185 -39.2042 -39.2042 -39.1498 -39.1498
   -39.1497 -39.1497 -39.1271 -39.1271 -39.0976 -39.0976 -39.0036 -39.0036
   -16.9548 -16.9548 -16.7331 -16.7331 -16.4027 -16.4027 -16.3564 -16.3564
   -16.3176 -16.3176 -16.2905 -16.2905 -16.2351 -16.2351 -15.8719 -15.8719
   -14.3154 -14.3154 -14.3082 -14.3082 -14.2777 -14.2777 -14.2598 -14.2598
   -14.2058 -14.2058 -14.1939 -14.1939 -14.1913 -14.1913 -14.1709 -14.1709
   -14.0985 -14.0985 -14.0835 -14.0835 -14.0785 -14.0785 -14.0767 -14.0767
   -14.0641 -14.0641 -14.0540 -14.0540 -14.0033 -14.0033 -13.9893 -13.9893
   -11.7841 -11.7841 -11.7605 -11.7605 -11.7415 -11.7415 -11.7256 -11.7256
   -11.7187 -11.7187 -11.6831 -11.6831 -11.6740 -11.6740 -11.6569 -11.6569
   -11.6565 -11.6565 -11.6261 -11.6261 -11.6141 -11.6141 -11.5959 -11.5959
   -11.5719 -11.5719 -11.5535 -11.5535 -11.5469 -11.5469 -11.5423 -11.5423
   -11.5296 -11.5296 -11.5135 -11.5135 -11.5010 -11.5010 -11.4946 -11.4946
   -11.4744 -11.4744 -11.4658 -11.4658 -11.4501 -11.4501 -11.4109 -11.4109
    -9.3091  -9.3091  -9.2475  -9.2475  -9.2076  -9.2076  -9.1097  -9.1097
    -9.0883  -9.0883  -9.0707  -9.0707  -8.9995  -8.9995  -8.9845  -8.9845
    -8.6286  -8.6286  -8.4229  -8.4229  -8.2989  -8.2989  -8.2155  -8.2155
    -8.1537  -8.1537  -8.1128  -8.1128  -8.0567  -8.0567  -8.0113  -8.0113
    -7.9713  -7.9713  -7.9234  -7.9234  -7.8620  -7.8620  -7.8565  -7.8565
    -7.7910  -7.7910  -7.7699  -7.7699  -7.7378  -7.7378  -7.6811  -7.6811
    -7.6651  -7.6651  -7.6471  -7.6471  -7.6341  -7.6341  -7.5751  -7.5751
    -7.5028  -7.5028  -7.4291  -7.4291  -7.3973  -7.3973  -7.3066  -7.3066
    -6.5999  -6.5999  -6.4841  -6.4841  -6.2090  -6.2090  -6.1289  -6.1289
    -6.1162  -6.1162  -6.1024  -6.1024  -6.0022  -6.0022  -5.9912  -5.9912
    -5.8652  -5.8652  -5.7697  -5.7697  -5.7238  -5.7238  -5.5425  -5.5425
    -5.5273  -5.5273  -5.4628  -5.4628  -5.1524  -5.1524  -5.1253  -5.1253
    -4.1047  -4.1047  -4.0501  -4.0501  -3.8892  -3.8892  -3.8726  -3.8726
    -3.8164  -3.8164  -3.6781  -3.6781  -3.6280  -3.6280  -3.5645  -3.5645
    -3.4962  -3.4962  -3.4652  -3.4652  -3.4485  -3.4485  -3.4085  -3.4085
    -3.3718  -3.3718  -3.3150  -3.3150  -3.2908  -3.2908  -3.1680  -3.1680
    -1.7468  -1.7468  -1.6498  -1.6498  -1.6106  -1.6106  -1.5258  -1.5258
    -1.4441  -1.4441  -1.4252  -1.4252  -1.3888  -1.3888  -1.3800  -1.3800
    -1.3365  -1.3365  -1.2298  -1.2298  -1.2205  -1.2205  -1.1227  -1.1227
    -1.1092  -1.1092  -1.1002  -1.1002  -1.0922  -1.0922  -1.0109  -1.0109
     0.2342   0.2342   0.3930   0.3930   0.4460   0.4460   0.5458   0.5458
     0.6847   0.6847   0.7289   0.7289   0.7878   0.7878   0.8195   0.8195
     0.8509   0.8509   0.9959   0.9959   1.0578   1.0578   1.1194   1.1194
     1.1658   1.1658   1.1914   1.1914   1.2327   1.2327   1.2599   1.2599
     1.2982   1.2982   1.3495   1.3495   1.4053   1.4053   1.4513   1.4513
     1.4716   1.4716   1.5573   1.5573   1.6165   1.6165   1.6779   1.6779
     1.7553   1.7553   1.8194   1.8194   1.8501   1.8501   1.8833   1.8833
     1.9401   1.9401   1.9590   1.9590   2.0067   2.0067   2.0544   2.0544
     2.0923   2.0923   2.1300   2.1300   2.1773   2.1773   2.1988   2.1988
     2.2573   2.2573   2.2856   2.2856   2.3117   2.3117   2.3425   2.3425
     2.3696   2.3696   2.3967   2.3967   2.4112   2.4112   2.4443   2.4443
     2.4890   2.4890   2.5373   2.5373   2.5511   2.5511   2.5864   2.5864
     2.6418   2.6418   2.6854   2.6854   2.7063   2.7063   2.7664   2.7664
     2.8055   2.8055   2.8425   2.8425   2.8824   2.8824   2.9040   2.9040
     2.9318   2.9318   2.9628   2.9628   2.9876   2.9876   3.0093   3.0093
     3.0429   3.0429   3.0785   3.0785   3.1072   3.1072   3.1301   3.1301
     3.1523   3.1523   3.1752   3.1752   3.2135   3.2135   3.2719   3.2719
     3.3083   3.3083   3.3603   3.3603   3.4125   3.4125   3.5799   3.5799
     5.5073   5.5073   5.5388   5.5388   5.6942   5.6942   5.7545   5.7545
     6.6394   6.6394   6.7266   6.7266   6.8815   6.8815   7.0483   7.0483
     7.1247   7.1247   7.2000   7.2000   7.2986   7.2986   7.4403   7.4403
     7.5615   7.5615   7.6599   7.6599   7.6911   7.6911   7.7460   7.7460
     7.8114   7.8114   7.8739   7.8739   7.9438   7.9438   8.0069   8.0069
     8.1029   8.1029   8.1380   8.1380   8.2106   8.2106   8.2543   8.2543
     8.3356   8.3356   8.3847   8.3847   8.4616   8.4616   8.5087   8.5087
     8.6161   8.6161   8.7830   8.7830

          k =-0.5000 0.2485-0.5000 ( 80184 PWs)   bands (ev):

   -41.9224 -41.9224 -41.8180 -41.8180 -41.6524 -41.6524 -41.6427 -41.6427
   -41.5389 -41.5389 -41.5310 -41.5310 -41.4510 -41.4510 -41.4479 -41.4479
   -41.4292 -41.4292 -41.4253 -41.4253 -41.4168 -41.4168 -41.4100 -41.4100
   -41.3846 -41.3846 -41.3703 -41.3703 -41.3443 -41.3443 -41.3405 -41.3405
   -41.3255 -41.3255 -41.3187 -41.3187 -41.3176 -41.3176 -41.3062 -41.3062
   -41.3047 -41.3047 -41.2788 -41.2788 -41.2672 -41.2672 -41.2530 -41.2530
   -41.2492 -41.2492 -41.2355 -41.2355 -41.2304 -41.2304 -41.2255 -41.2255
   -41.2019 -41.2019 -41.1854 -41.1854 -41.1662 -41.1662 -41.1642 -41.1642
   -41.1635 -41.1635 -41.1142 -41.1142 -41.1068 -41.1068 -41.0857 -41.0857
   -41.0849 -41.0849 -41.0628 -41.0628 -41.0449 -41.0449 -41.0421 -41.0421
   -40.9758 -40.9758 -40.9750 -40.9750 -40.9598 -40.9598 -40.9517 -40.9517
   -40.8759 -40.8759 -40.8558 -40.8558 -40.8486 -40.8486 -40.7370 -40.7370
   -40.2237 -40.2237 -40.1746 -40.1746 -40.0866 -40.0866 -39.9546 -39.9546
   -39.9447 -39.9447 -39.9001 -39.9001 -39.8910 -39.8910 -39.8054 -39.8054
   -39.7978 -39.7978 -39.7531 -39.7531 -39.7521 -39.7521 -39.7299 -39.7299
   -39.7294 -39.7294 -39.7177 -39.7177 -39.7110 -39.7110 -39.7003 -39.7003
   -39.6869 -39.6869 -39.6851 -39.6851 -39.6843 -39.6843 -39.6734 -39.6734
   -39.6713 -39.6713 -39.6700 -39.6700 -39.6613 -39.6613 -39.6307 -39.6307
   -39.6260 -39.6260 -39.6139 -39.6139 -39.6134 -39.6134 -39.6128 -39.6128
   -39.5886 -39.5886 -39.5875 -39.5875 -39.5814 -39.5814 -39.5811 -39.5811
   -39.5729 -39.5729 -39.5655 -39.5655 -39.5530 -39.5530 -39.5330 -39.5330
   -39.5326 -39.5326 -39.5311 -39.5311 -39.5291 -39.5291 -39.5140 -39.5140
   -39.5103 -39.5103 -39.5079 -39.5079 -39.5037 -39.5037 -39.4743 -39.4743
   -39.4708 -39.4708 -39.4686 -39.4686 -39.4663 -39.4663 -39.4580 -39.4580
   -39.4485 -39.4485 -39.4366 -39.4366 -39.4108 -39.4108 -39.4074 -39.4074
   -39.3876 -39.3876 -39.3824 -39.3824 -39.3706 -39.3706 -39.3644 -39.3644
   -39.3501 -39.3501 -39.3341 -39.3341 -39.3176 -39.3176 -39.3093 -39.3093
   -39.3067 -39.3067 -39.2597 -39.2597 -39.2531 -39.2531 -39.2489 -39.2489
   -39.2432 -39.2432 -39.2185 -39.2185 -39.2041 -39.2041 -39.1498 -39.1498
   -39.1497 -39.1497 -39.1271 -39.1271 -39.0976 -39.0976 -39.0036 -39.0036
   -16.9548 -16.9548 -16.7331 -16.7331 -16.4027 -16.4027 -16.3564 -16.3564
   -16.3176 -16.3176 -16.2905 -16.2905 -16.2350 -16.2350 -15.8719 -15.8719
   -14.3154 -14.3154 -14.3082 -14.3082 -14.2776 -14.2776 -14.2597 -14.2597
   -14.2058 -14.2058 -14.1939 -14.1939 -14.1913 -14.1913 -14.1709 -14.1709
   -14.0985 -14.0985 -14.0835 -14.0835 -14.0785 -14.0785 -14.0766 -14.0766
   -14.0641 -14.0641 -14.0539 -14.0539 -14.0032 -14.0032 -13.9893 -13.9893
   -11.7841 -11.7841 -11.7605 -11.7605 -11.7414 -11.7413 -11.7256 -11.7256
   -11.7187 -11.7187 -11.6831 -11.6830 -11.6741 -11.6741 -11.6570 -11.6570
   -11.6565 -11.6564 -11.6260 -11.6259 -11.6140 -11.6140 -11.5959 -11.5958
   -11.5721 -11.5720 -11.5535 -11.5535 -11.5469 -11.5469 -11.5423 -11.5423
   -11.5296 -11.5296 -11.5133 -11.5132 -11.5010 -11.5010 -11.4945 -11.4945
   -11.4744 -11.4744 -11.4659 -11.4658 -11.4503 -11.4502 -11.4109 -11.4109
    -9.3091  -9.3091  -9.2475  -9.2475  -9.2076  -9.2076  -9.1089  -9.1089
    -9.0891  -9.0891  -9.0707  -9.0707  -8.9983  -8.9983  -8.9856  -8.9856
    -8.6276  -8.6276  -8.4164  -8.4163  -8.3108  -8.3107  -8.2095  -8.2087
    -8.1567  -8.1562  -8.1163  -8.1158  -8.0603  -8.0590  -8.0190  -8.0180
    -7.9744  -7.9740  -7.9248  -7.9234  -7.8674  -7.8664  -7.8359  -7.8331
    -7.7917  -7.7906  -7.7708  -7.7698  -7.7419  -7.7414  -7.6895  -7.6885
    -7.6691  -7.6671  -7.6361  -7.6333  -7.6210  -7.6189  -7.5737  -7.5727
    -7.5114  -7.5104  -7.4290  -7.4289  -7.3986  -7.3985  -7.3097  -7.3095
    -6.5998  -6.5998  -6.4840  -6.4840  -6.2084  -6.2084  -6.1290  -6.1290
    -6.1145  -6.1144  -6.1035  -6.1035  -6.0022  -6.0021  -5.9909  -5.9908
    -5.8652  -5.8652  -5.7698  -5.7698  -5.7238  -5.7238  -5.5426  -5.5426
    -5.5272  -5.5271  -5.4627  -5.4627  -5.1524  -5.1523  -5.1252  -5.1252
    -4.0598  -4.0592  -4.0049  -4.0041  -3.8645  -3.8637  -3.8290  -3.8283
    -3.7985  -3.7981  -3.7003  -3.6994  -3.6481  -3.6474  -3.6138  -3.6127
    -3.4996  -3.4988  -3.4866  -3.4861  -3.4552  -3.4549  -3.4219  -3.4214
    -3.4053  -3.4042  -3.3702  -3.3693  -3.3290  -3.3285  -3.1748  -3.1747
    -1.7460  -1.7459  -1.6497  -1.6496  -1.6097  -1.6096  -1.5263  -1.5262
    -1.4440  -1.4438  -1.4242  -1.4241  -1.3886  -1.3886  -1.3801  -1.3800
    -1.3363  -1.3362  -1.2290  -1.2286  -1.2213  -1.2211  -1.1227  -1.1224
    -1.1096  -1.1094  -1.1000  -1.0998  -1.0920  -1.0919  -1.0104  -1.0103
     0.3609   0.3861   0.5006   0.5041   0.5832   0.5903   0.6745   0.6976
     0.7053   0.7210   0.7510   0.7637   0.7969   0.8090   0.8328   0.8425
     0.8560   0.8805   0.9814   0.9895   1.0501   1.0705   1.1099   1.1277
     1.1382   1.1654   1.1893   1.1988   1.2226   1.2261   1.2438   1.2624
     1.2829   1.3029   1.3278   1.3531   1.3804   1.3908   1.4380   1.4507
     1.4596   1.4921   1.5238   1.5501   1.5915   1.6114   1.6527   1.6658
     1.7370   1.7675   1.7984   1.8079   1.8332   1.8540   1.8704   1.8915
     1.9146   1.9434   1.9630   1.9770   1.9934   2.0154   2.0259   2.0570
     2.0638   2.0839   2.1045   2.1198   2.1457   2.1609   2.1816   2.1986
     2.2033   2.2115   2.2343   2.2395   2.2706   2.2855   2.2991   2.3064
     2.3209   2.3290   2.3516   2.3585   2.3789   2.3869   2.4070   2.4244
     2.4406   2.4539   2.4794   2.4960   2.5174   2.5455   2.5575   2.5738
     2.6291   2.6551   2.6680   2.6961   2.7057   2.7443   2.7526   2.7729
     2.7895   2.8057   2.8279   2.8524   2.8612   2.8753   2.8928   2.9098
     2.9208   2.9269   2.9450   2.9553   2.9643   2.9836   2.9872   3.0043
     3.0140   3.0408   3.0543   3.0635   3.0781   3.0923   3.1056   3.1150
     3.1317   3.1511   3.1598   3.1726   3.1782   3.2007   3.2162   3.2371
     3.2512   3.2595   3.2890   3.3048   3.3355   3.3708   3.4189   3.4636
     5.8067   5.8260   5.8595   5.9247   5.9978   6.0838   6.1139   6.2322
     6.5924   6.6233   6.6753   6.7380   6.8259   6.8876   6.9817   7.0672
     7.1452   7.1829   7.2313   7.2743   7.3165   7.3546   7.4712   7.5424
     7.5765   7.5997   7.6455   7.6755   7.6975   7.7248   7.7566   7.7702
     7.8108   7.8319   7.8737   7.8994   7.9314   7.9493   7.9965   8.0132
     8.0573   8.0861   8.1187   8.1383   8.1563   8.1828   8.2012   8.2295
     8.2757   8.2927   8.3064   8.3268   8.3539   8.3895   8.4162   8.4355
     8.5135   8.5448   8.5786   8.6125

          k =-0.5000-0.4969-0.5000 ( 80272 PWs)   bands (ev):

   -41.9224 -41.9224 -41.8180 -41.8180 -41.6524 -41.6524 -41.6428 -41.6428
   -41.5389 -41.5389 -41.5310 -41.5310 -41.4510 -41.4510 -41.4479 -41.4479
   -41.4292 -41.4292 -41.4254 -41.4254 -41.4168 -41.4168 -41.4100 -41.4100
   -41.3846 -41.3846 -41.3703 -41.3703 -41.3443 -41.3443 -41.3405 -41.3405
   -41.3255 -41.3255 -41.3187 -41.3187 -41.3177 -41.3177 -41.3062 -41.3062
   -41.3047 -41.3047 -41.2789 -41.2789 -41.2672 -41.2672 -41.2530 -41.2530
   -41.2493 -41.2493 -41.2355 -41.2355 -41.2305 -41.2305 -41.2255 -41.2255
   -41.2019 -41.2019 -41.1854 -41.1854 -41.1662 -41.1662 -41.1642 -41.1642
   -41.1635 -41.1635 -41.1142 -41.1142 -41.1068 -41.1068 -41.0858 -41.0858
   -41.0849 -41.0849 -41.0628 -41.0628 -41.0449 -41.0449 -41.0421 -41.0421
   -40.9759 -40.9759 -40.9751 -40.9751 -40.9598 -40.9598 -40.9517 -40.9517
   -40.8759 -40.8759 -40.8558 -40.8558 -40.8486 -40.8486 -40.7370 -40.7370
   -40.2237 -40.2237 -40.1746 -40.1746 -40.0866 -40.0866 -39.9546 -39.9546
   -39.9448 -39.9448 -39.9001 -39.9001 -39.8910 -39.8910 -39.8054 -39.8054
   -39.7978 -39.7978 -39.7531 -39.7531 -39.7521 -39.7521 -39.7299 -39.7299
   -39.7294 -39.7294 -39.7178 -39.7178 -39.7110 -39.7110 -39.7003 -39.7003
   -39.6869 -39.6869 -39.6852 -39.6852 -39.6843 -39.6843 -39.6734 -39.6734
   -39.6713 -39.6713 -39.6700 -39.6700 -39.6613 -39.6613 -39.6308 -39.6308
   -39.6260 -39.6260 -39.6139 -39.6139 -39.6134 -39.6134 -39.6128 -39.6128
   -39.5887 -39.5887 -39.5875 -39.5875 -39.5814 -39.5814 -39.5811 -39.5811
   -39.5729 -39.5729 -39.5655 -39.5655 -39.5530 -39.5530 -39.5331 -39.5331
   -39.5326 -39.5326 -39.5312 -39.5312 -39.5291 -39.5291 -39.5141 -39.5141
   -39.5103 -39.5103 -39.5079 -39.5079 -39.5037 -39.5037 -39.4743 -39.4743
   -39.4708 -39.4708 -39.4686 -39.4686 -39.4663 -39.4663 -39.4580 -39.4580
   -39.4485 -39.4485 -39.4366 -39.4366 -39.4108 -39.4108 -39.4074 -39.4074
   -39.3876 -39.3876 -39.3825 -39.3825 -39.3706 -39.3706 -39.3644 -39.3644
   -39.3501 -39.3501 -39.3341 -39.3341 -39.3176 -39.3176 -39.3093 -39.3093
   -39.3067 -39.3067 -39.2597 -39.2597 -39.2531 -39.2531 -39.2489 -39.2489
   -39.2433 -39.2433 -39.2185 -39.2185 -39.2042 -39.2042 -39.1498 -39.1498
   -39.1497 -39.1497 -39.1271 -39.1271 -39.0976 -39.0976 -39.0036 -39.0036
   -16.9548 -16.9548 -16.7331 -16.7331 -16.4027 -16.4027 -16.3564 -16.3564
   -16.3176 -16.3176 -16.2905 -16.2905 -16.2351 -16.2351 -15.8719 -15.8719
   -14.3154 -14.3154 -14.3082 -14.3082 -14.2777 -14.2777 -14.2598 -14.2598
   -14.2059 -14.2059 -14.1939 -14.1939 -14.1913 -14.1913 -14.1709 -14.1709
   -14.0985 -14.0985 -14.0836 -14.0836 -14.0785 -14.0785 -14.0767 -14.0767
   -14.0641 -14.0641 -14.0539 -14.0539 -14.0033 -14.0033 -13.9893 -13.9893
   -11.7841 -11.7841 -11.7605 -11.7605 -11.7412 -11.7412 -11.7256 -11.7256
   -11.7187 -11.7187 -11.6830 -11.6830 -11.6743 -11.6743 -11.6571 -11.6571
   -11.6564 -11.6564 -11.6258 -11.6258 -11.6141 -11.6141 -11.5959 -11.5959
   -11.5723 -11.5723 -11.5536 -11.5536 -11.5469 -11.5469 -11.5423 -11.5423
   -11.5296 -11.5296 -11.5131 -11.5131 -11.5010 -11.5010 -11.4946 -11.4946
   -11.4744 -11.4744 -11.4660 -11.4660 -11.4504 -11.4504 -11.4109 -11.4109
    -9.3092  -9.3092  -9.2475  -9.2475  -9.2076  -9.2076  -9.1081  -9.1081
    -9.0900  -9.0900  -9.0706  -9.0706  -8.9969  -8.9969  -8.9869  -8.9869
    -8.6266  -8.6266  -8.4083  -8.4083  -8.3239  -8.3239  -8.2013  -8.2013
    -8.1618  -8.1618  -8.1148  -8.1148  -8.0664  -8.0664  -8.0277  -8.0277
    -7.9745  -7.9745  -7.9228  -7.9228  -7.8684  -7.8684  -7.8192  -7.8192
    -7.7886  -7.7886  -7.7699  -7.7699  -7.7447  -7.7447  -7.6994  -7.6994
    -7.6701  -7.6701  -7.6211  -7.6211  -7.6088  -7.6088  -7.5695  -7.5695
    -7.5212  -7.5212  -7.4288  -7.4288  -7.3999  -7.3999  -7.3127  -7.3127
    -6.5997  -6.5997  -6.4839  -6.4839  -6.2080  -6.2080  -6.1291  -6.1291
    -6.1122  -6.1122  -6.1052  -6.1052  -6.0022  -6.0022  -5.9905  -5.9905
    -5.8653  -5.8653  -5.7699  -5.7699  -5.7239  -5.7239  -5.5427  -5.5427
    -5.5271  -5.5271  -5.4627  -5.4627  -5.1523  -5.1523  -5.1252  -5.1252
    -3.9912  -3.9912  -3.9291  -3.9291  -3.8851  -3.8851  -3.7819  -3.7819
    -3.7471  -3.7471  -3.7223  -3.7223  -3.6757  -3.6757  -3.6367  -3.6367
    -3.5664  -3.5664  -3.5182  -3.5182  -3.4752  -3.4752  -3.4604  -3.4604
    -3.4254  -3.4254  -3.4030  -3.4030  -3.3459  -3.3459  -3.1789  -3.1789
    -1.7453  -1.7453  -1.6497  -1.6497  -1.6090  -1.6090  -1.5268  -1.5268
    -1.4440  -1.4440  -1.4233  -1.4233  -1.3885  -1.3885  -1.3803  -1.3803
    -1.3362  -1.3362  -1.2275  -1.2275  -1.2224  -1.2224  -1.1225  -1.1225
    -1.1100  -1.1100  -1.0997  -1.0997  -1.0918  -1.0918  -1.0099  -1.0099
     0.5300   0.5300   0.5907   0.5907   0.7030   0.7030   0.7440   0.7440
     0.8027   0.8027   0.8381   0.8381   0.8777   0.8777   0.9393   0.9393
     0.9677   0.9677   0.9982   0.9982   1.0310   1.0310   1.0912   1.0912
     1.1356   1.1356   1.1708   1.1708   1.2125   1.2125   1.2319   1.2319
     1.2598   1.2598   1.3528   1.3528   1.3932   1.3932   1.4372   1.4372
     1.4678   1.4678   1.4950   1.4950   1.5479   1.5479   1.6085   1.6085
     1.7277   1.7277   1.7755   1.7755   1.8274   1.8274   1.8681   1.8681
     1.9154   1.9154   1.9433   1.9433   1.9800   1.9800   2.0188   2.0188
     2.0358   2.0358   2.0891   2.0891   2.1296   2.1296   2.1516   2.1516
     2.1723   2.1723   2.1846   2.1846   2.2316   2.2316   2.2469   2.2469
     2.2865   2.2865   2.3163   2.3163   2.3540   2.3540   2.3676   2.3676
     2.4313   2.4313   2.4601   2.4601   2.4980   2.4980   2.5446   2.5446
     2.6421   2.6421   2.6846   2.6846   2.7343   2.7343   2.7681   2.7681
     2.7953   2.7953   2.8157   2.8157   2.8643   2.8643   2.8934   2.8934
     2.9091   2.9091   2.9418   2.9418   2.9622   2.9622   2.9759   2.9759
     3.0120   3.0120   3.0286   3.0286   3.0731   3.0731   3.1000   3.1000
     3.1319   3.1319   3.1627   3.1627   3.1855   3.1855   3.2094   3.2094
     3.2393   3.2393   3.2625   3.2625   3.2993   3.2993   3.4158   3.4158
     6.1848   6.1848   6.2669   6.2669   6.3767   6.3767   6.5290   6.5290
     6.5900   6.5900   6.7217   6.7217   6.8111   6.8111   6.9256   6.9256
     7.2325   7.2325   7.3899   7.3899   7.4933   7.4933   7.5977   7.5977
     7.6385   7.6385   7.7071   7.7071   7.7530   7.7530   7.7740   7.7740
     7.8353   7.8353   7.8649   7.8649   7.9015   7.9015   7.9397   7.9397
     7.9972   7.9972   8.0541   8.0541   8.1397   8.1397   8.1772   8.1772
     8.2155   8.2155   8.2306   8.2306   8.2570   8.2570   8.3131   8.3131
     8.3379   8.3379   8.3934   8.3934

          k = 0.2500 0.0000 0.0000 ( 80189 PWs)   bands (ev):

   -41.9224 -41.9224 -41.8180 -41.8180 -41.6524 -41.6524 -41.6428 -41.6428
   -41.5389 -41.5389 -41.5310 -41.5310 -41.4510 -41.4510 -41.4479 -41.4479
   -41.4292 -41.4292 -41.4253 -41.4253 -41.4168 -41.4168 -41.4100 -41.4100
   -41.3846 -41.3846 -41.3703 -41.3703 -41.3443 -41.3443 -41.3405 -41.3405
   -41.3255 -41.3255 -41.3187 -41.3187 -41.3177 -41.3177 -41.3062 -41.3062
   -41.3047 -41.3047 -41.2788 -41.2788 -41.2672 -41.2672 -41.2530 -41.2530
   -41.2493 -41.2493 -41.2355 -41.2355 -41.2305 -41.2305 -41.2255 -41.2255
   -41.2019 -41.2019 -41.1854 -41.1854 -41.1662 -41.1662 -41.1642 -41.1642
   -41.1635 -41.1635 -41.1142 -41.1142 -41.1068 -41.1068 -41.0858 -41.0858
   -41.0849 -41.0849 -41.0628 -41.0628 -41.0449 -41.0449 -41.0421 -41.0421
   -40.9759 -40.9759 -40.9750 -40.9750 -40.9598 -40.9598 -40.9517 -40.9517
   -40.8759 -40.8759 -40.8558 -40.8558 -40.8486 -40.8486 -40.7370 -40.7370
   -40.2237 -40.2237 -40.1746 -40.1746 -40.0866 -40.0866 -39.9546 -39.9546
   -39.9447 -39.9447 -39.9001 -39.9001 -39.8910 -39.8910 -39.8054 -39.8054
   -39.7978 -39.7978 -39.7531 -39.7531 -39.7521 -39.7521 -39.7299 -39.7299
   -39.7294 -39.7294 -39.7178 -39.7178 -39.7110 -39.7110 -39.7003 -39.7003
   -39.6869 -39.6869 -39.6851 -39.6851 -39.6843 -39.6843 -39.6734 -39.6734
   -39.6713 -39.6713 -39.6700 -39.6700 -39.6613 -39.6613 -39.6308 -39.6308
   -39.6260 -39.6260 -39.6139 -39.6139 -39.6134 -39.6134 -39.6128 -39.6128
   -39.5887 -39.5887 -39.5875 -39.5875 -39.5814 -39.5814 -39.5811 -39.5811
   -39.5729 -39.5729 -39.5655 -39.5655 -39.5530 -39.5530 -39.5331 -39.5331
   -39.5326 -39.5326 -39.5311 -39.5311 -39.5291 -39.5291 -39.5141 -39.5141
   -39.5103 -39.5103 -39.5079 -39.5079 -39.5037 -39.5037 -39.4743 -39.4743
   -39.4708 -39.4708 -39.4686 -39.4686 -39.4663 -39.4663 -39.4580 -39.4580
   -39.4485 -39.4485 -39.4366 -39.4366 -39.4108 -39.4108 -39.4074 -39.4074
   -39.3876 -39.3876 -39.3824 -39.3824 -39.3706 -39.3706 -39.3644 -39.3644
   -39.3501 -39.3501 -39.3341 -39.3341 -39.3176 -39.3176 -39.3093 -39.3093
   -39.3067 -39.3067 -39.2597 -39.2597 -39.2531 -39.2531 -39.2489 -39.2489
   -39.2433 -39.2433 -39.2185 -39.2185 -39.2041 -39.2041 -39.1498 -39.1498
   -39.1497 -39.1497 -39.1271 -39.1271 -39.0976 -39.0976 -39.0036 -39.0036
   -16.9548 -16.9548 -16.7331 -16.7331 -16.4027 -16.4027 -16.3564 -16.3564
   -16.3176 -16.3176 -16.2905 -16.2905 -16.2350 -16.2350 -15.8719 -15.8719
   -14.3154 -14.3154 -14.3082 -14.3082 -14.2777 -14.2777 -14.2598 -14.2598
   -14.2058 -14.2058 -14.1939 -14.1939 -14.1913 -14.1913 -14.1709 -14.1709
   -14.0985 -14.0985 -14.0835 -14.0835 -14.0786 -14.0786 -14.0766 -14.0766
   -14.0641 -14.0641 -14.0539 -14.0539 -14.0032 -14.0032 -13.9893 -13.9893
   -11.7843 -11.7843 -11.7607 -11.7607 -11.7416 -11.7416 -11.7256 -11.7256
   -11.7189 -11.7189 -11.6831 -11.6831 -11.6737 -11.6737 -11.6570 -11.6570
   -11.6564 -11.6563 -11.6264 -11.6264 -11.6140 -11.6140 -11.5959 -11.5959
   -11.5724 -11.5722 -11.5539 -11.5537 -11.5468 -11.5468 -11.5419 -11.5417
   -11.5293 -11.5292 -11.5134 -11.5133 -11.5010 -11.5010 -11.4945 -11.4945
   -11.4744 -11.4744 -11.4656 -11.4656 -11.4498 -11.4498 -11.4109 -11.4109
    -9.3095  -9.3095  -9.2475  -9.2475  -9.2077  -9.2077  -9.1096  -9.1096
    -9.0890  -9.0890  -9.0700  -9.0700  -8.9985  -8.9985  -8.9839  -8.9839
    -8.6356  -8.6356  -8.4306  -8.4305  -8.3155  -8.3152  -8.2041  -8.2034
    -8.1258  -8.1241  -8.0999  -8.0984  -8.0196  -8.0184  -7.9773  -7.9754
    -7.9629  -7.9605  -7.9451  -7.9443  -7.8993  -7.8984  -7.8510  -7.8494
    -7.8248  -7.8235  -7.7951  -7.7947  -7.7383  -7.7362  -7.6957  -7.6942
    -7.6639  -7.6638  -7.6476  -7.6471  -7.6301  -7.6294  -7.5903  -7.5898
    -7.5019  -7.5017  -7.4210  -7.4208  -7.3920  -7.3918  -7.2967  -7.2967
    -6.5998  -6.5998  -6.4839  -6.4838  -6.2086  -6.2086  -6.1291  -6.1291
    -6.1164  -6.1164  -6.1019  -6.1019  -6.0047  -6.0047  -5.9888  -5.9888
    -5.8658  -5.8658  -5.7705  -5.7705  -5.7232  -5.7232  -5.5426  -5.5426
    -5.5274  -5.5274  -5.4628  -5.4628  -5.1528  -5.1527  -5.1250  -5.1250
    -4.4126  -4.4124  -4.0297  -4.0292  -3.9055  -3.9049  -3.8461  -3.8450
    -3.8098  -3.8084  -3.6597  -3.6596  -3.5305  -3.5291  -3.4983  -3.4976
    -3.4796  -3.4782  -3.4619  -3.4607  -3.4408  -3.4401  -3.4220  -3.4217
    -3.3684  -3.3681  -3.3162  -3.3153  -3.1901  -3.1897  -2.8785  -2.8777
    -1.7482  -1.7478  -1.6523  -1.6522  -1.6099  -1.6098  -1.5264  -1.5263
    -1.4447  -1.4447  -1.4233  -1.4232  -1.3942  -1.3929  -1.3778  -1.3765
    -1.3393  -1.3392  -1.2312  -1.2308  -1.2202  -1.2200  -1.1326  -1.1324
    -1.1099  -1.1094  -1.1001  -1.0995  -1.0926  -1.0918  -1.0059  -1.0058
     0.2029   0.2073   0.2476   0.2558   0.3312   0.3496   0.3756   0.3846
     0.4259   0.4287   0.4475   0.4573   0.4849   0.4953   0.5253   0.5308
     0.5555   0.5625   0.5962   0.6021   0.6227   0.6292   0.7141   0.7320
     1.1441   1.1597   1.2397   1.2678   1.2897   1.3010   1.3114   1.3397
     1.4952   1.5146   1.5352   1.5465   1.5706   1.5849   1.6016   1.6274
     1.6784   1.7007   1.7222   1.7378   1.7635   1.7895   1.8107   1.8297
     1.8416   1.8571   1.8866   1.9117   1.9462   1.9723   1.9955   2.0214
     2.0331   2.0438   2.0559   2.0791   2.1051   2.1167   2.1289   2.1439
     2.1662   2.1758   2.1972   2.2097   2.2302   2.2528   2.2740   2.2780
     2.3162   2.3352   2.3480   2.3602   2.3709   2.3851   2.4060   2.4139
     2.4293   2.4385   2.4546   2.4711   2.4780   2.4977   2.5151   2.5296
     2.5427   2.5505   2.5638   2.5777   2.5903   2.6109   2.6191   2.6451
     2.6607   2.6785   2.6904   2.7094   2.7222   2.7420   2.7546   2.7637
     2.7773   2.7949   2.8247   2.8423   2.8605   2.8673   2.8910   2.9061
     2.9141   2.9282   2.9352   2.9477   2.9889   3.0089   3.0266   3.0498
     3.0559   3.0787   3.0826   3.1081   3.1367   3.1553   3.1667   3.1843
     3.2138   3.2353   3.2616   3.2805   3.2975   3.3051   3.3724   3.3898
     3.4750   3.5123   3.5401   3.5788   3.6019   3.6365   3.9449   3.9568
     4.8053   4.8707   5.2116   5.2493   5.4516   5.5103   5.5794   5.6337
     5.9349   5.9738   6.0231   6.0476   6.1167   6.1460   6.3867   6.4064
     6.4390   6.4566   6.6022   6.6360   6.7318   6.7809   6.8221   6.8509
     7.2842   7.2870   7.7669   7.8166   7.8477   7.8698   8.0242   8.0367
     8.0985   8.1216   8.1589   8.1780   8.2488   8.2845   8.3275   8.3555
     8.3890   8.4211   8.4394   8.4660   8.4851   8.4945   8.5505   8.5640
     8.6023   8.6310   8.6634   8.6755   8.6829   8.7151   8.7458   8.7754
     8.8247   8.8702   8.9037   8.9100

          k =-0.5000 0.0000 0.0000 ( 80218 PWs)   bands (ev):

   -41.9224 -41.9224 -41.8180 -41.8180 -41.6524 -41.6524 -41.6428 -41.6428
   -41.5389 -41.5389 -41.5310 -41.5310 -41.4510 -41.4510 -41.4479 -41.4479
   -41.4292 -41.4292 -41.4253 -41.4253 -41.4168 -41.4168 -41.4100 -41.4100
   -41.3846 -41.3846 -41.3703 -41.3703 -41.3443 -41.3443 -41.3405 -41.3405
   -41.3255 -41.3255 -41.3187 -41.3187 -41.3177 -41.3177 -41.3062 -41.3062
   -41.3047 -41.3047 -41.2788 -41.2788 -41.2672 -41.2672 -41.2530 -41.2530
   -41.2493 -41.2493 -41.2355 -41.2355 -41.2305 -41.2305 -41.2255 -41.2255
   -41.2019 -41.2019 -41.1854 -41.1854 -41.1662 -41.1662 -41.1642 -41.1642
   -41.1635 -41.1635 -41.1142 -41.1142 -41.1068 -41.1068 -41.0858 -41.0858
   -41.0849 -41.0849 -41.0628 -41.0628 -41.0449 -41.0449 -41.0421 -41.0421
   -40.9759 -40.9759 -40.9750 -40.9750 -40.9598 -40.9598 -40.9517 -40.9517
   -40.8759 -40.8759 -40.8558 -40.8558 -40.8486 -40.8486 -40.7370 -40.7370
   -40.2237 -40.2237 -40.1746 -40.1746 -40.0866 -40.0866 -39.9546 -39.9546
   -39.9448 -39.9448 -39.9001 -39.9001 -39.8910 -39.8910 -39.8054 -39.8054
   -39.7978 -39.7978 -39.7531 -39.7531 -39.7521 -39.7521 -39.7299 -39.7299
   -39.7294 -39.7294 -39.7178 -39.7178 -39.7110 -39.7110 -39.7003 -39.7003
   -39.6869 -39.6869 -39.6852 -39.6852 -39.6843 -39.6843 -39.6734 -39.6734
   -39.6713 -39.6713 -39.6700 -39.6700 -39.6613 -39.6613 -39.6308 -39.6308
   -39.6260 -39.6260 -39.6139 -39.6139 -39.6134 -39.6134 -39.6128 -39.6128
   -39.5887 -39.5887 -39.5875 -39.5875 -39.5814 -39.5814 -39.5811 -39.5811
   -39.5729 -39.5729 -39.5655 -39.5655 -39.5530 -39.5530 -39.5331 -39.5331
   -39.5326 -39.5326 -39.5311 -39.5311 -39.5291 -39.5291 -39.5141 -39.5141
   -39.5103 -39.5103 -39.5079 -39.5079 -39.5037 -39.5037 -39.4743 -39.4743
   -39.4708 -39.4708 -39.4686 -39.4686 -39.4663 -39.4663 -39.4580 -39.4580
   -39.4485 -39.4485 -39.4366 -39.4366 -39.4108 -39.4108 -39.4074 -39.4074
   -39.3876 -39.3876 -39.3825 -39.3825 -39.3706 -39.3706 -39.3644 -39.3644
   -39.3501 -39.3501 -39.3341 -39.3341 -39.3176 -39.3176 -39.3093 -39.3093
   -39.3067 -39.3067 -39.2597 -39.2597 -39.2531 -39.2531 -39.2489 -39.2489
   -39.2433 -39.2433 -39.2185 -39.2185 -39.2041 -39.2041 -39.1498 -39.1498
   -39.1497 -39.1497 -39.1271 -39.1271 -39.0976 -39.0976 -39.0036 -39.0036
   -16.9548 -16.9548 -16.7331 -16.7331 -16.4027 -16.4027 -16.3564 -16.3564
   -16.3176 -16.3176 -16.2905 -16.2905 -16.2350 -16.2350 -15.8719 -15.8719
   -14.3154 -14.3154 -14.3082 -14.3082 -14.2777 -14.2777 -14.2598 -14.2598
   -14.2058 -14.2058 -14.1939 -14.1939 -14.1913 -14.1913 -14.1709 -14.1709
   -14.0985 -14.0985 -14.0835 -14.0835 -14.0785 -14.0785 -14.0766 -14.0766
   -14.0641 -14.0641 -14.0539 -14.0539 -14.0032 -14.0032 -13.9893 -13.9893
   -11.7842 -11.7842 -11.7607 -11.7607 -11.7416 -11.7416 -11.7256 -11.7256
   -11.7188 -11.7188 -11.6831 -11.6831 -11.6737 -11.6737 -11.6569 -11.6569
   -11.6565 -11.6565 -11.6264 -11.6264 -11.6140 -11.6140 -11.5959 -11.5959
   -11.5719 -11.5719 -11.5535 -11.5535 -11.5468 -11.5468 -11.5425 -11.5425
   -11.5294 -11.5294 -11.5134 -11.5134 -11.5010 -11.5010 -11.4945 -11.4945
   -11.4744 -11.4744 -11.4657 -11.4657 -11.4498 -11.4498 -11.4109 -11.4109
    -9.3096  -9.3096  -9.2474  -9.2474  -9.2068  -9.2068  -9.1095  -9.1095
    -9.0885  -9.0885  -9.0705  -9.0705  -9.0002  -9.0002  -8.9850  -8.9850
    -8.6289  -8.6289  -8.4254  -8.4254  -8.3082  -8.3082  -8.2305  -8.2305
    -8.1294  -8.1294  -8.1048  -8.1048  -8.0210  -8.0210  -7.9776  -7.9776
    -7.9709  -7.9709  -7.9483  -7.9483  -7.8986  -7.8986  -7.8534  -7.8534
    -7.8072  -7.8072  -7.7662  -7.7662  -7.7250  -7.7250  -7.6812  -7.6812
    -7.6682  -7.6682  -7.6602  -7.6602  -7.6363  -7.6363  -7.5901  -7.5901
    -7.4999  -7.4999  -7.4288  -7.4288  -7.3935  -7.3935  -7.2974  -7.2974
    -6.5997  -6.5997  -6.4838  -6.4838  -6.2088  -6.2088  -6.1291  -6.1291
    -6.1165  -6.1165  -6.1019  -6.1019  -6.0047  -6.0047  -5.9890  -5.9890
    -5.8663  -5.8663  -5.7705  -5.7705  -5.7234  -5.7234  -5.5427  -5.5427
    -5.5272  -5.5272  -5.4627  -5.4627  -5.1524  -5.1524  -5.1249  -5.1249
    -4.2623  -4.2623  -4.1897  -4.1897  -3.8357  -3.8357  -3.7886  -3.7886
    -3.7391  -3.7391  -3.6627  -3.6627  -3.6080  -3.6080  -3.5980  -3.5980
    -3.5201  -3.5201  -3.4872  -3.4872  -3.4475  -3.4475  -3.4310  -3.4310
    -3.3603  -3.3603  -3.2392  -3.2392  -3.1869  -3.1869  -3.0042  -3.0042
    -1.7467  -1.7467  -1.6519  -1.6519  -1.6098  -1.6098  -1.5264  -1.5264
    -1.4448  -1.4448  -1.4232  -1.4232  -1.3898  -1.3898  -1.3802  -1.3802
    -1.3391  -1.3391  -1.2309  -1.2309  -1.2200  -1.2200  -1.1306  -1.1306
    -1.1091  -1.1091  -1.1007  -1.1007  -1.0917  -1.0917  -1.0069  -1.0069
     0.2199   0.2199   0.2687   0.2687   0.3475   0.3475   0.4212   0.4212
     0.4454   0.4454   0.4720   0.4720   0.5145   0.5145   0.5996   0.5996
     0.8169   0.8169   0.8708   0.8708   0.9032   0.9032   1.0554   1.0554
     1.1386   1.1386   1.1670   1.1670   1.1807   1.1807   1.2487   1.2487
     1.3226   1.3226   1.4545   1.4545   1.5190   1.5190   1.5457   1.5457
     1.5956   1.5956   1.6257   1.6257   1.7009   1.7009   1.7899   1.7899
     1.8157   1.8157   1.8594   1.8594   1.9257   1.9257   1.9692   1.9692
     1.9938   1.9938   2.0265   2.0265   2.0492   2.0492   2.0992   2.0992
     2.1461   2.1461   2.1912   2.1912   2.2267   2.2267   2.2561   2.2561
     2.3241   2.3241   2.3387   2.3387   2.3638   2.3638   2.4010   2.4010
     2.4208   2.4208   2.4344   2.4344   2.4734   2.4734   2.5024   2.5024
     2.5369   2.5369   2.5603   2.5603   2.5871   2.5871   2.6469   2.6469
     2.6654   2.6654   2.7042   2.7042   2.7368   2.7368   2.7618   2.7618
     2.7954   2.7954   2.8309   2.8309   2.8744   2.8744   2.8949   2.8949
     2.9213   2.9213   2.9571   2.9571   2.9852   2.9852   3.0252   3.0252
     3.0524   3.0524   3.0995   3.0995   3.1368   3.1368   3.1564   3.1564
     3.1935   3.1935   3.2283   3.2283   3.3102   3.3102   3.3569   3.3569
     3.4213   3.4213   3.4630   3.4630   3.5665   3.5665   3.9022   3.9022
     5.0392   5.0392   5.1329   5.1329   5.6558   5.6558   5.8373   5.8373
     5.8665   5.8665   6.0093   6.0093   6.1928   6.1928   6.3208   6.3208
     7.1271   7.1271   7.2079   7.2079   7.3176   7.3176   7.4110   7.4110
     7.5042   7.5042   7.6363   7.6363   7.6655   7.6655   7.7059   7.7059
     7.7688   7.7688   7.8247   7.8247   7.9466   7.9466   8.2138   8.2138
     8.3226   8.3226   8.3926   8.3926   8.4508   8.4508   8.5461   8.5461
     8.5909   8.5909   8.6429   8.6429   8.7103   8.7103   8.7372   8.7372
     8.8021   8.8021   8.8740   8.8741

          k = 0.0000-0.2485 0.2500 ( 80251 PWs)   bands (ev):

   -41.9224 -41.9224 -41.8180 -41.8180 -41.6524 -41.6524 -41.6428 -41.6428
   -41.5389 -41.5389 -41.5310 -41.5310 -41.4510 -41.4510 -41.4479 -41.4479
   -41.4292 -41.4292 -41.4253 -41.4253 -41.4168 -41.4168 -41.4100 -41.4100
   -41.3846 -41.3846 -41.3703 -41.3703 -41.3443 -41.3443 -41.3405 -41.3405
   -41.3255 -41.3255 -41.3187 -41.3187 -41.3177 -41.3177 -41.3062 -41.3062
   -41.3047 -41.3047 -41.2789 -41.2789 -41.2672 -41.2672 -41.2530 -41.2530
   -41.2493 -41.2493 -41.2355 -41.2355 -41.2305 -41.2305 -41.2255 -41.2255
   -41.2019 -41.2019 -41.1854 -41.1854 -41.1662 -41.1662 -41.1642 -41.1642
   -41.1635 -41.1635 -41.1142 -41.1142 -41.1068 -41.1068 -41.0858 -41.0858
   -41.0849 -41.0849 -41.0628 -41.0628 -41.0449 -41.0449 -41.0421 -41.0421
   -40.9759 -40.9759 -40.9751 -40.9751 -40.9598 -40.9598 -40.9517 -40.9517
   -40.8759 -40.8759 -40.8558 -40.8558 -40.8486 -40.8486 -40.7370 -40.7370
   -40.2237 -40.2237 -40.1746 -40.1746 -40.0866 -40.0866 -39.9546 -39.9546
   -39.9448 -39.9448 -39.9001 -39.9001 -39.8910 -39.8910 -39.8054 -39.8054
   -39.7978 -39.7978 -39.7531 -39.7531 -39.7521 -39.7521 -39.7299 -39.7299
   -39.7294 -39.7294 -39.7178 -39.7178 -39.7110 -39.7110 -39.7003 -39.7003
   -39.6869 -39.6869 -39.6852 -39.6852 -39.6843 -39.6843 -39.6734 -39.6734
   -39.6713 -39.6713 -39.6700 -39.6700 -39.6613 -39.6613 -39.6308 -39.6308
   -39.6260 -39.6260 -39.6139 -39.6139 -39.6134 -39.6134 -39.6128 -39.6128
   -39.5887 -39.5887 -39.5875 -39.5875 -39.5814 -39.5814 -39.5811 -39.5811
   -39.5729 -39.5729 -39.5655 -39.5655 -39.5530 -39.5530 -39.5331 -39.5331
   -39.5326 -39.5326 -39.5312 -39.5312 -39.5291 -39.5291 -39.5141 -39.5141
   -39.5103 -39.5103 -39.5079 -39.5079 -39.5037 -39.5037 -39.4743 -39.4743
   -39.4708 -39.4708 -39.4686 -39.4686 -39.4663 -39.4663 -39.4580 -39.4580
   -39.4485 -39.4485 -39.4366 -39.4366 -39.4108 -39.4108 -39.4074 -39.4074
   -39.3876 -39.3876 -39.3825 -39.3825 -39.3706 -39.3706 -39.3644 -39.3644
   -39.3501 -39.3501 -39.3341 -39.3341 -39.3176 -39.3176 -39.3093 -39.3093
   -39.3067 -39.3067 -39.2597 -39.2597 -39.2531 -39.2531 -39.2489 -39.2489
   -39.2433 -39.2433 -39.2185 -39.2185 -39.2042 -39.2042 -39.1498 -39.1498
   -39.1497 -39.1497 -39.1271 -39.1271 -39.0976 -39.0976 -39.0036 -39.0036
   -16.9548 -16.9548 -16.7331 -16.7331 -16.4027 -16.4027 -16.3564 -16.3564
   -16.3176 -16.3176 -16.2905 -16.2905 -16.2351 -16.2351 -15.8719 -15.8719
   -14.3154 -14.3154 -14.3083 -14.3083 -14.2777 -14.2777 -14.2598 -14.2598
   -14.2058 -14.2058 -14.1939 -14.1939 -14.1913 -14.1913 -14.1709 -14.1709
   -14.0986 -14.0986 -14.0835 -14.0835 -14.0786 -14.0786 -14.0765 -14.0765
   -14.0641 -14.0641 -14.0539 -14.0539 -14.0033 -14.0033 -13.9893 -13.9893
   -11.7844 -11.7844 -11.7606 -11.7606 -11.7414 -11.7413 -11.7256 -11.7256
   -11.7189 -11.7189 -11.6831 -11.6831 -11.6740 -11.6740 -11.6573 -11.6572
   -11.6562 -11.6562 -11.6261 -11.6261 -11.6141 -11.6140 -11.5959 -11.5959
   -11.5729 -11.5728 -11.5540 -11.5540 -11.5469 -11.5469 -11.5410 -11.5410
   -11.5292 -11.5292 -11.5132 -11.5131 -11.5010 -11.5010 -11.4945 -11.4945
   -11.4745 -11.4744 -11.4657 -11.4656 -11.4502 -11.4501 -11.4109 -11.4109
    -9.3091  -9.3091  -9.2476  -9.2476  -9.2089  -9.2089  -9.1090  -9.1090
    -9.0902  -9.0902  -9.0696  -9.0696  -8.9965  -8.9964  -8.9833  -8.9833
    -8.6379  -8.6379  -8.4302  -8.4300  -8.3268  -8.3268  -8.1762  -8.1743
    -8.1343  -8.1331  -8.1009  -8.0996  -8.0522  -8.0504  -7.9796  -7.9784
    -7.9419  -7.9409  -7.9141  -7.9125  -7.8840  -7.8831  -7.8715  -7.8709
    -7.8415  -7.8390  -7.8166  -7.8148  -7.7475  -7.7473  -7.6969  -7.6957
    -7.6644  -7.6623  -7.6304  -7.6286  -7.6164  -7.6150  -7.5754  -7.5733
    -7.5124  -7.5119  -7.4188  -7.4184  -7.3943  -7.3942  -7.3053  -7.3049
    -6.5999  -6.5999  -6.4841  -6.4841  -6.2082  -6.2082  -6.1290  -6.1290
    -6.1147  -6.1146  -6.1034  -6.1033  -6.0037  -6.0036  -5.9894  -5.9893
    -5.8649  -5.8649  -5.7701  -5.7701  -5.7235  -5.7235  -5.5426  -5.5425
    -5.5278  -5.5277  -5.4628  -5.4628  -5.1533  -5.1533  -5.1254  -5.1253
    -4.3585  -4.3581  -4.0168  -4.0159  -3.9554  -3.9548  -3.8211  -3.8201
    -3.7625  -3.7619  -3.6607  -3.6604  -3.6109  -3.6094  -3.5083  -3.5072
    -3.4941  -3.4935  -3.4532  -3.4526  -3.4404  -3.4394  -3.4000  -3.3996
    -3.3649  -3.3628  -3.3323  -3.3319  -3.1841  -3.1839  -2.9668  -2.9660
    -1.7484  -1.7484  -1.6511  -1.6509  -1.6100  -1.6099  -1.5272  -1.5270
    -1.4446  -1.4437  -1.4240  -1.4233  -1.3963  -1.3961  -1.3755  -1.3752
    -1.3377  -1.3376  -1.2303  -1.2298  -1.2209  -1.2205  -1.1295  -1.1287
    -1.1123  -1.1092  -1.1030  -1.1007  -1.0903  -1.0895  -1.0087  -1.0085
     0.1991   0.2138   0.2727   0.2769   0.3238   0.3283   0.3447   0.3577
     0.4052   0.4335   0.4573   0.4820   0.5444   0.5623   0.6006   0.6087
     0.6673   0.6760   0.7109   0.7290   0.7844   0.7955   0.8519   0.8656
     1.1429   1.1956   1.2299   1.2640   1.2818   1.2983   1.3147   1.3300
     1.4066   1.4538   1.4800   1.5251   1.5449   1.5571   1.5966   1.6126
     1.6314   1.6603   1.6935   1.7309   1.7434   1.7897   1.8072   1.8300
     1.8426   1.8627   1.8841   1.9068   1.9263   1.9409   1.9614   1.9788
     1.9985   2.0123   2.0288   2.0553   2.0720   2.0881   2.1007   2.1228
     2.1498   2.1702   2.1839   2.2134   2.2192   2.2426   2.2674   2.2795
     2.2932   2.3085   2.3256   2.3428   2.3571   2.3684   2.3817   2.3930
     2.4017   2.4167   2.4337   2.4504   2.4676   2.4833   2.4946   2.5131
     2.5254   2.5369   2.5473   2.5679   2.5891   2.6053   2.6092   2.6244
     2.6533   2.6602   2.6696   2.6887   2.7103   2.7242   2.7370   2.7555
     2.7967   2.8060   2.8221   2.8401   2.8569   2.8763   2.8914   2.8982
     2.9167   2.9285   2.9445   2.9575   2.9875   3.0018   3.0244   3.0414
     3.0571   3.0734   3.0856   3.0970   3.1239   3.1395   3.1552   3.1760
     3.1839   3.2040   3.2220   3.2287   3.2499   3.2701   3.2875   3.3145
     3.4061   3.4319   3.4824   3.4936   3.5407   3.5782   3.6767   3.7182
     5.0448   5.1446   5.4418   5.4871   5.5689   5.5957   5.7612   5.7852
     6.0367   6.0896   6.2754   6.2989   6.3499   6.4045   6.4532   6.4625
     6.5216   6.5665   6.6808   6.7460   6.7703   6.7902   6.8795   7.0461
     7.3840   7.3868   7.6170   7.6378   7.8008   7.8442   7.9615   7.9843
     8.0133   8.0368   8.0530   8.0890   8.1087   8.1881   8.2017   8.2611
     8.2943   8.3194   8.3309   8.3558   8.4181   8.4412   8.4841   8.4928
     8.5459   8.5779   8.5970   8.6237   8.6596   8.7015   8.7461   8.7746
     8.8220   8.8586   8.8666   8.8910

          k = 0.2500-0.2485 0.0000 ( 80251 PWs)   bands (ev):

   -41.9224 -41.9224 -41.8180 -41.8180 -41.6524 -41.6524 -41.6428 -41.6428
   -41.5389 -41.5389 -41.5310 -41.5310 -41.4510 -41.4510 -41.4479 -41.4479
   -41.4292 -41.4292 -41.4254 -41.4254 -41.4168 -41.4168 -41.4100 -41.4100
   -41.3846 -41.3846 -41.3703 -41.3703 -41.3443 -41.3443 -41.3405 -41.3405
   -41.3255 -41.3255 -41.3187 -41.3187 -41.3177 -41.3177 -41.3062 -41.3062
   -41.3047 -41.3047 -41.2789 -41.2789 -41.2672 -41.2672 -41.2530 -41.2530
   -41.2493 -41.2493 -41.2355 -41.2355 -41.2305 -41.2305 -41.2255 -41.2255
   -41.2019 -41.2019 -41.1854 -41.1854 -41.1662 -41.1662 -41.1642 -41.1642
   -41.1635 -41.1635 -41.1142 -41.1142 -41.1068 -41.1068 -41.0858 -41.0858
   -41.0849 -41.0849 -41.0628 -41.0628 -41.0449 -41.0449 -41.0421 -41.0421
   -40.9759 -40.9759 -40.9751 -40.9751 -40.9598 -40.9598 -40.9517 -40.9517
   -40.8759 -40.8759 -40.8558 -40.8558 -40.8486 -40.8486 -40.7370 -40.7370
   -40.2237 -40.2237 -40.1746 -40.1746 -40.0866 -40.0866 -39.9546 -39.9546
   -39.9448 -39.9448 -39.9001 -39.9001 -39.8910 -39.8910 -39.8054 -39.8054
   -39.7978 -39.7978 -39.7532 -39.7532 -39.7521 -39.7521 -39.7299 -39.7299
   -39.7294 -39.7294 -39.7178 -39.7178 -39.7110 -39.7110 -39.7003 -39.7003
   -39.6869 -39.6869 -39.6852 -39.6852 -39.6843 -39.6843 -39.6734 -39.6734
   -39.6713 -39.6713 -39.6700 -39.6700 -39.6613 -39.6613 -39.6308 -39.6308
   -39.6260 -39.6260 -39.6139 -39.6139 -39.6134 -39.6134 -39.6128 -39.6128
   -39.5887 -39.5887 -39.5875 -39.5875 -39.5814 -39.5814 -39.5811 -39.5811
   -39.5729 -39.5729 -39.5655 -39.5655 -39.5530 -39.5530 -39.5331 -39.5331
   -39.5326 -39.5326 -39.5312 -39.5311 -39.5291 -39.5291 -39.5141 -39.5141
   -39.5103 -39.5103 -39.5079 -39.5079 -39.5037 -39.5037 -39.4743 -39.4743
   -39.4708 -39.4708 -39.4686 -39.4686 -39.4663 -39.4663 -39.4580 -39.4580
   -39.4485 -39.4485 -39.4366 -39.4366 -39.4108 -39.4108 -39.4074 -39.4074
   -39.3876 -39.3876 -39.3825 -39.3825 -39.3706 -39.3706 -39.3644 -39.3644
   -39.3501 -39.3501 -39.3341 -39.3341 -39.3176 -39.3176 -39.3093 -39.3093
   -39.3067 -39.3067 -39.2597 -39.2597 -39.2531 -39.2531 -39.2489 -39.2489
   -39.2433 -39.2433 -39.2185 -39.2185 -39.2042 -39.2042 -39.1498 -39.1498
   -39.1497 -39.1497 -39.1271 -39.1271 -39.0976 -39.0976 -39.0036 -39.0036
   -16.9548 -16.9548 -16.7331 -16.7331 -16.4027 -16.4027 -16.3564 -16.3564
   -16.3176 -16.3176 -16.2905 -16.2905 -16.2351 -16.2351 -15.8719 -15.8719
   -14.3154 -14.3154 -14.3082 -14.3082 -14.2777 -14.2777 -14.2598 -14.2598
   -14.2058 -14.2058 -14.1939 -14.1939 -14.1913 -14.1913 -14.1710 -14.1710
   -14.0985 -14.0985 -14.0835 -14.0835 -14.0786 -14.0786 -14.0766 -14.0766
   -14.0641 -14.0641 -14.0539 -14.0539 -14.0033 -14.0033 -13.9893 -13.9893
   -11.7843 -11.7843 -11.7607 -11.7607 -11.7414 -11.7414 -11.7256 -11.7256
   -11.7189 -11.7189 -11.6831 -11.6831 -11.6739 -11.6738 -11.6571 -11.6571
   -11.6564 -11.6563 -11.6263 -11.6262 -11.6141 -11.6140 -11.5959 -11.5959
   -11.5725 -11.5724 -11.5539 -11.5537 -11.5469 -11.5469 -11.5419 -11.5417
   -11.5293 -11.5292 -11.5132 -11.5131 -11.5010 -11.5010 -11.4946 -11.4945
   -11.4745 -11.4744 -11.4657 -11.4656 -11.4500 -11.4499 -11.4109 -11.4109
    -9.3096  -9.3096  -9.2475  -9.2475  -9.2077  -9.2077  -9.1087  -9.1087
    -9.0899  -9.0899  -9.0700  -9.0700  -8.9974  -8.9974  -8.9850  -8.9850
    -8.6341  -8.6340  -8.4241  -8.4239  -8.3283  -8.3281  -8.1976  -8.1962
    -8.1342  -8.1324  -8.0966  -8.0956  -8.0343  -8.0330  -7.9744  -7.9726
    -7.9631  -7.9604  -7.9451  -7.9445  -7.8993  -7.8969  -7.8485  -7.8459
    -7.8201  -7.8187  -7.7905  -7.7889  -7.7404  -7.7380  -7.7010  -7.7006
    -7.6619  -7.6613  -7.6476  -7.6471  -7.6231  -7.6219  -7.5753  -7.5740
    -7.5097  -7.5091  -7.4215  -7.4213  -7.3937  -7.3936  -7.3028  -7.3025
    -6.5998  -6.5997  -6.4838  -6.4838  -6.2082  -6.2082  -6.1291  -6.1291
    -6.1146  -6.1146  -6.1034  -6.1033  -6.0048  -6.0048  -5.9886  -5.9886
    -5.8659  -5.8659  -5.7706  -5.7706  -5.7235  -5.7235  -5.5427  -5.5427
    -5.5275  -5.5275  -5.4628  -5.4628  -5.1527  -5.1527  -5.1251  -5.1250
    -4.3551  -4.3546  -3.9903  -3.9894  -3.9649  -3.9643  -3.8299  -3.8288
    -3.7833  -3.7815  -3.6596  -3.6595  -3.5727  -3.5707  -3.5205  -3.5198
    -3.4905  -3.4901  -3.4578  -3.4572  -3.4326  -3.4319  -3.4153  -3.4141
    -3.3934  -3.3924  -3.3308  -3.3303  -3.1862  -3.1860  -2.9601  -2.9585
    -1.7474  -1.7470  -1.6513  -1.6510  -1.6100  -1.6098  -1.5270  -1.5268
    -1.4445  -1.4443  -1.4227  -1.4225  -1.3939  -1.3930  -1.3779  -1.3768
    -1.3393  -1.3392  -1.2307  -1.2302  -1.2204  -1.2202  -1.1330  -1.1326
    -1.1103  -1.1100  -1.0999  -1.0994  -1.0928  -1.0920  -1.0057  -1.0055
     0.2389   0.2559   0.3165   0.3336   0.3636   0.3790   0.3945   0.4160
     0.4559   0.4699   0.4882   0.4931   0.5170   0.5293   0.5505   0.5660
     0.6217   0.6257   0.6496   0.6638   0.7779   0.7954   0.8133   0.8344
     1.1505   1.1861   1.2301   1.2618   1.2790   1.3048   1.3150   1.3394
     1.4099   1.4590   1.5129   1.5217   1.5465   1.5708   1.5892   1.6017
     1.6350   1.6614   1.6815   1.7075   1.7374   1.7765   1.7980   1.8116
     1.8312   1.8400   1.8785   1.9166   1.9250   1.9349   1.9758   1.9840
     2.0084   2.0145   2.0352   2.0566   2.0677   2.0850   2.1064   2.1232
     2.1397   2.1602   2.1750   2.2000   2.2042   2.2417   2.2526   2.2656
     2.2906   2.2962   2.3188   2.3281   2.3494   2.3536   2.3796   2.3927
     2.4049   2.4142   2.4360   2.4506   2.4667   2.4744   2.4916   2.5025
     2.5155   2.5372   2.5421   2.5548   2.5647   2.5890   2.6096   2.6213
     2.6376   2.6624   2.6838   2.7063   2.7122   2.7304   2.7461   2.7705
     2.7839   2.8042   2.8300   2.8498   2.8576   2.8661   2.8864   2.8992
     2.9184   2.9300   2.9457   2.9541   2.9956   3.0118   3.0316   3.0413
     3.0518   3.0691   3.0820   3.0921   3.1227   3.1404   3.1658   3.1771
     3.1974   3.2133   3.2200   3.2373   3.2566   3.2888   3.3174   3.3456
     3.3890   3.4137   3.4613   3.4871   3.5408   3.5851   3.7471   3.8143
     4.9962   5.1422   5.4010   5.4626   5.5292   5.5685   5.7531   5.8603
     5.9674   6.0515   6.2199   6.3278   6.3776   6.4070   6.4746   6.5233
     6.5905   6.6059   6.6918   6.7297   6.7666   6.8253   6.9111   7.0465
     7.3643   7.3697   7.6075   7.6794   7.8025   7.8270   7.9378   7.9663
     8.0432   8.0557   8.0632   8.0870   8.2006   8.2377   8.2562   8.2828
     8.3120   8.3607   8.3874   8.3977   8.4251   8.4633   8.4923   8.5231
     8.5373   8.5601   8.5750   8.6028   8.6674   8.6905   8.7116   8.7318
     8.7754   8.8157   8.8760   8.8970

          k =-0.2500-0.2485 0.0000 ( 80251 PWs)   bands (ev):

   -41.9224 -41.9224 -41.8180 -41.8180 -41.6524 -41.6524 -41.6428 -41.6428
   -41.5389 -41.5389 -41.5310 -41.5310 -41.4510 -41.4510 -41.4479 -41.4479
   -41.4292 -41.4292 -41.4254 -41.4254 -41.4168 -41.4168 -41.4100 -41.4100
   -41.3846 -41.3846 -41.3703 -41.3703 -41.3443 -41.3443 -41.3405 -41.3405
   -41.3255 -41.3255 -41.3187 -41.3187 -41.3177 -41.3177 -41.3062 -41.3062
   -41.3047 -41.3047 -41.2789 -41.2789 -41.2672 -41.2672 -41.2530 -41.2530
   -41.2493 -41.2493 -41.2355 -41.2355 -41.2305 -41.2305 -41.2255 -41.2255
   -41.2019 -41.2019 -41.1854 -41.1854 -41.1662 -41.1662 -41.1642 -41.1642
   -41.1635 -41.1635 -41.1142 -41.1142 -41.1068 -41.1068 -41.0858 -41.0858
   -41.0849 -41.0849 -41.0628 -41.0628 -41.0449 -41.0449 -41.0421 -41.0421
   -40.9759 -40.9759 -40.9751 -40.9751 -40.9598 -40.9598 -40.9517 -40.9517
   -40.8759 -40.8759 -40.8558 -40.8558 -40.8486 -40.8486 -40.7370 -40.7370
   -40.2237 -40.2237 -40.1746 -40.1746 -40.0866 -40.0866 -39.9546 -39.9546
   -39.9448 -39.9448 -39.9001 -39.9001 -39.8910 -39.8910 -39.8054 -39.8054
   -39.7978 -39.7978 -39.7532 -39.7532 -39.7521 -39.7521 -39.7299 -39.7299
   -39.7294 -39.7294 -39.7178 -39.7178 -39.7110 -39.7110 -39.7003 -39.7003
   -39.6869 -39.6869 -39.6852 -39.6852 -39.6843 -39.6843 -39.6734 -39.6734
   -39.6713 -39.6713 -39.6700 -39.6700 -39.6613 -39.6613 -39.6308 -39.6308
   -39.6260 -39.6260 -39.6139 -39.6139 -39.6134 -39.6134 -39.6128 -39.6128
   -39.5887 -39.5887 -39.5875 -39.5875 -39.5814 -39.5814 -39.5811 -39.5811
   -39.5729 -39.5729 -39.5655 -39.5655 -39.5530 -39.5530 -39.5331 -39.5331
   -39.5326 -39.5326 -39.5312 -39.5312 -39.5291 -39.5291 -39.5141 -39.5141
   -39.5103 -39.5103 -39.5079 -39.5079 -39.5037 -39.5037 -39.4743 -39.4743
   -39.4708 -39.4708 -39.4686 -39.4686 -39.4663 -39.4663 -39.4580 -39.4580
   -39.4485 -39.4485 -39.4366 -39.4366 -39.4108 -39.4108 -39.4074 -39.4074
   -39.3876 -39.3876 -39.3825 -39.3825 -39.3706 -39.3706 -39.3644 -39.3644
   -39.3501 -39.3501 -39.3341 -39.3341 -39.3176 -39.3176 -39.3093 -39.3093
   -39.3067 -39.3067 -39.2597 -39.2597 -39.2531 -39.2531 -39.2489 -39.2489
   -39.2433 -39.2433 -39.2185 -39.2185 -39.2042 -39.2042 -39.1498 -39.1498
   -39.1497 -39.1497 -39.1271 -39.1271 -39.0976 -39.0976 -39.0036 -39.0036
   -16.9548 -16.9548 -16.7331 -16.7331 -16.4027 -16.4027 -16.3564 -16.3564
   -16.3176 -16.3176 -16.2905 -16.2905 -16.2351 -16.2351 -15.8719 -15.8719
   -14.3154 -14.3154 -14.3082 -14.3082 -14.2777 -14.2777 -14.2598 -14.2598
   -14.2058 -14.2058 -14.1939 -14.1939 -14.1913 -14.1913 -14.1710 -14.1710
   -14.0985 -14.0985 -14.0835 -14.0835 -14.0786 -14.0786 -14.0766 -14.0766
   -14.0641 -14.0641 -14.0539 -14.0539 -14.0033 -14.0032 -13.9893 -13.9893
   -11.7843 -11.7843 -11.7607 -11.7607 -11.7414 -11.7414 -11.7256 -11.7256
   -11.7189 -11.7189 -11.6831 -11.6831 -11.6739 -11.6738 -11.6571 -11.6570
   -11.6564 -11.6563 -11.6263 -11.6262 -11.6141 -11.6140 -11.5959 -11.5959
   -11.5726 -11.5723 -11.5539 -11.5537 -11.5469 -11.5469 -11.5419 -11.5417
   -11.5293 -11.5292 -11.5132 -11.5131 -11.5010 -11.5010 -11.4945 -11.4945
   -11.4745 -11.4744 -11.4657 -11.4656 -11.4500 -11.4499 -11.4109 -11.4109
    -9.3095  -9.3095  -9.2475  -9.2475  -9.2077  -9.2076  -9.1088  -9.1088
    -9.0898  -9.0898  -9.0701  -9.0700  -8.9976  -8.9975  -8.9849  -8.9849
    -8.6339  -8.6338  -8.4242  -8.4241  -8.3279  -8.3276  -8.2016  -8.2012
    -8.1314  -8.1302  -8.0951  -8.0935  -8.0282  -8.0268  -7.9767  -7.9750
    -7.9676  -7.9648  -7.9457  -7.9441  -7.9029  -7.9001  -7.8374  -7.8359
    -7.8184  -7.8153  -7.8058  -7.8048  -7.7381  -7.7362  -7.6929  -7.6913
    -7.6657  -7.6654  -7.6464  -7.6457  -7.6235  -7.6224  -7.5771  -7.5757
    -7.5090  -7.5084  -7.4212  -7.4210  -7.3942  -7.3940  -7.3028  -7.3026
    -6.5998  -6.5998  -6.4838  -6.4838  -6.2083  -6.2083  -6.1291  -6.1291
    -6.1146  -6.1146  -6.1033  -6.1033  -6.0048  -6.0048  -5.9887  -5.9886
    -5.8659  -5.8659  -5.7706  -5.7706  -5.7235  -5.7234  -5.5427  -5.5426
    -5.5275  -5.5275  -5.4627  -5.4627  -5.1528  -5.1527  -5.1250  -5.1250
    -4.3561  -4.3558  -3.9925  -3.9914  -3.9546  -3.9539  -3.8378  -3.8365
    -3.7833  -3.7815  -3.6611  -3.6609  -3.5710  -3.5691  -3.5206  -3.5194
    -3.4879  -3.4870  -3.4550  -3.4544  -3.4385  -3.4375  -3.4249  -3.4240
    -3.3643  -3.3636  -3.3515  -3.3512  -3.1860  -3.1859  -2.9579  -2.9569
    -1.7473  -1.7469  -1.6513  -1.6511  -1.6101  -1.6099  -1.5271  -1.5269
    -1.4446  -1.4444  -1.4234  -1.4232  -1.3937  -1.3926  -1.3774  -1.3762
    -1.3391  -1.3389  -1.2306  -1.2301  -1.2206  -1.2202  -1.1325  -1.1322
    -1.1112  -1.1103  -1.1005  -1.1000  -1.0922  -1.0917  -1.0055  -1.0054
     0.2413   0.2512   0.3421   0.3509   0.3690   0.3795   0.3934   0.4022
     0.4353   0.4423   0.4858   0.4983   0.5155   0.5329   0.5534   0.5613
     0.6281   0.6323   0.6484   0.6517   0.7778   0.7982   0.8230   0.8293
     1.1418   1.1866   1.2285   1.2524   1.2843   1.2969   1.3180   1.3393
     1.4104   1.4744   1.5224   1.5299   1.5478   1.5694   1.5767   1.6198
     1.6376   1.6673   1.6837   1.7006   1.7345   1.7667   1.7960   1.8103
     1.8346   1.8588   1.8763   1.9029   1.9244   1.9548   1.9654   1.9928
     2.0013   2.0270   2.0491   2.0609   2.0697   2.0963   2.1072   2.1182
     2.1340   2.1466   2.1678   2.1928   2.2080   2.2333   2.2462   2.2738
     2.2863   2.3027   2.3161   2.3287   2.3486   2.3628   2.3708   2.3894
     2.3971   2.4193   2.4241   2.4360   2.4471   2.4752   2.4872   2.4988
     2.5131   2.5415   2.5514   2.5587   2.5814   2.5957   2.6072   2.6318
     2.6517   2.6602   2.6710   2.6970   2.7309   2.7475   2.7510   2.7613
     2.7856   2.8000   2.8261   2.8434   2.8512   2.8641   2.8744   2.8940
     2.9158   2.9293   2.9511   2.9581   2.9835   3.0039   3.0161   3.0304
     3.0566   3.0658   3.0828   3.1059   3.1307   3.1438   3.1535   3.1783
     3.2008   3.2242   3.2289   3.2515   3.2744   3.2791   3.3087   3.3495
     3.3793   3.4199   3.4437   3.4911   3.5375   3.5908   3.7505   3.8102
     5.0099   5.1385   5.3936   5.4623   5.5223   5.5754   5.7932   5.8418
     5.9793   6.0263   6.2413   6.3254   6.3607   6.4065   6.4757   6.5262
     6.5834   6.6207   6.6874   6.7254   6.7652   6.7990   6.9577   7.0073
     7.3527   7.3604   7.6363   7.6564   7.8388   7.8636   7.9322   7.9535
     8.0003   8.0214   8.0946   8.1129   8.1871   8.2307   8.2698   8.2892
     8.3329   8.3608   8.3777   8.3983   8.4327   8.4430   8.4951   8.5188
     8.5368   8.5695   8.5930   8.6038   8.6487   8.6793   8.7073   8.7515
     8.7963   8.8303   8.8810   8.9179

          k =-0.5000-0.2485 0.0000 ( 80228 PWs)   bands (ev):

   -41.9224 -41.9224 -41.8180 -41.8180 -41.6524 -41.6524 -41.6428 -41.6428
   -41.5389 -41.5389 -41.5310 -41.5310 -41.4510 -41.4510 -41.4479 -41.4479
   -41.4292 -41.4292 -41.4253 -41.4253 -41.4168 -41.4168 -41.4100 -41.4100
   -41.3846 -41.3846 -41.3703 -41.3703 -41.3443 -41.3443 -41.3405 -41.3405
   -41.3255 -41.3255 -41.3187 -41.3187 -41.3177 -41.3177 -41.3062 -41.3062
   -41.3047 -41.3047 -41.2788 -41.2788 -41.2672 -41.2672 -41.2530 -41.2530
   -41.2493 -41.2493 -41.2355 -41.2355 -41.2305 -41.2305 -41.2255 -41.2255
   -41.2019 -41.2019 -41.1854 -41.1854 -41.1662 -41.1662 -41.1642 -41.1642
   -41.1635 -41.1635 -41.1142 -41.1142 -41.1068 -41.1068 -41.0858 -41.0858
   -41.0849 -41.0849 -41.0628 -41.0628 -41.0449 -41.0449 -41.0421 -41.0421
   -40.9759 -40.9759 -40.9750 -40.9750 -40.9598 -40.9598 -40.9517 -40.9517
   -40.8759 -40.8759 -40.8558 -40.8558 -40.8486 -40.8486 -40.7370 -40.7370
   -40.2237 -40.2237 -40.1746 -40.1746 -40.0866 -40.0866 -39.9546 -39.9546
   -39.9447 -39.9447 -39.9001 -39.9001 -39.8910 -39.8910 -39.8054 -39.8054
   -39.7978 -39.7978 -39.7531 -39.7531 -39.7521 -39.7521 -39.7299 -39.7299
   -39.7294 -39.7294 -39.7178 -39.7178 -39.7110 -39.7110 -39.7003 -39.7003
   -39.6869 -39.6869 -39.6851 -39.6851 -39.6843 -39.6843 -39.6734 -39.6734
   -39.6713 -39.6713 -39.6700 -39.6700 -39.6613 -39.6613 -39.6308 -39.6308
   -39.6260 -39.6260 -39.6139 -39.6139 -39.6134 -39.6134 -39.6128 -39.6128
   -39.5886 -39.5886 -39.5875 -39.5875 -39.5814 -39.5814 -39.5811 -39.5811
   -39.5729 -39.5729 -39.5655 -39.5655 -39.5530 -39.5530 -39.5331 -39.5331
   -39.5326 -39.5326 -39.5311 -39.5311 -39.5291 -39.5291 -39.5141 -39.5141
   -39.5103 -39.5103 -39.5079 -39.5079 -39.5037 -39.5037 -39.4743 -39.4743
   -39.4708 -39.4708 -39.4686 -39.4686 -39.4663 -39.4663 -39.4580 -39.4580
   -39.4485 -39.4485 -39.4366 -39.4366 -39.4108 -39.4108 -39.4074 -39.4074
   -39.3876 -39.3876 -39.3824 -39.3824 -39.3706 -39.3706 -39.3644 -39.3644
   -39.3501 -39.3501 -39.3341 -39.3341 -39.3176 -39.3176 -39.3093 -39.3093
   -39.3067 -39.3067 -39.2597 -39.2597 -39.2531 -39.2531 -39.2489 -39.2489
   -39.2433 -39.2433 -39.2185 -39.2185 -39.2041 -39.2041 -39.1498 -39.1498
   -39.1497 -39.1497 -39.1271 -39.1271 -39.0976 -39.0976 -39.0036 -39.0036
   -16.9548 -16.9548 -16.7331 -16.7331 -16.4027 -16.4027 -16.3564 -16.3564
   -16.3176 -16.3176 -16.2905 -16.2905 -16.2351 -16.2351 -15.8719 -15.8719
   -14.3154 -14.3154 -14.3082 -14.3082 -14.2777 -14.2777 -14.2598 -14.2598
   -14.2058 -14.2058 -14.1939 -14.1939 -14.1913 -14.1913 -14.1709 -14.1709
   -14.0985 -14.0985 -14.0835 -14.0835 -14.0785 -14.0785 -14.0766 -14.0766
   -14.0641 -14.0641 -14.0539 -14.0539 -14.0032 -14.0032 -13.9893 -13.9893
   -11.7842 -11.7842 -11.7607 -11.7607 -11.7414 -11.7413 -11.7256 -11.7256
   -11.7188 -11.7188 -11.6831 -11.6831 -11.6739 -11.6738 -11.6570 -11.6569
   -11.6565 -11.6565 -11.6263 -11.6262 -11.6140 -11.6140 -11.5959 -11.5959
   -11.5721 -11.5720 -11.5535 -11.5535 -11.5468 -11.5468 -11.5425 -11.5425
   -11.5294 -11.5294 -11.5132 -11.5131 -11.5010 -11.5010 -11.4945 -11.4945
   -11.4744 -11.4744 -11.4658 -11.4657 -11.4500 -11.4499 -11.4109 -11.4109
    -9.3096  -9.3096  -9.2474  -9.2474  -9.2068  -9.2068  -9.1087  -9.1087
    -9.0894  -9.0894  -9.0705  -9.0705  -8.9988  -8.9988  -8.9863  -8.9863
    -8.6277  -8.6276  -8.4191  -8.4190  -8.3199  -8.3199  -8.2249  -8.2244
    -8.1398  -8.1394  -8.1019  -8.1015  -8.0299  -8.0288  -7.9806  -7.9784
    -7.9701  -7.9695  -7.9500  -7.9497  -7.9026  -7.9001  -7.8421  -7.8401
    -7.8030  -7.8008  -7.7662  -7.7655  -7.7259  -7.7254  -7.6882  -7.6878
    -7.6773  -7.6766  -7.6528  -7.6513  -7.6302  -7.6284  -7.5751  -7.5739
    -7.5066  -7.5060  -7.4295  -7.4294  -7.3946  -7.3946  -7.3032  -7.3029
    -6.5997  -6.5997  -6.4837  -6.4837  -6.2083  -6.2083  -6.1291  -6.1291
    -6.1146  -6.1146  -6.1033  -6.1032  -6.0047  -6.0047  -5.9888  -5.9888
    -5.8664  -5.8664  -5.7707  -5.7706  -5.7236  -5.7236  -5.5427  -5.5427
    -5.5273  -5.5273  -5.4627  -5.4627  -5.1523  -5.1523  -5.1249  -5.1249
    -4.2097  -4.2093  -4.1356  -4.1350  -3.8685  -3.8680  -3.8234  -3.8228
    -3.7230  -3.7211  -3.6770  -3.6749  -3.6501  -3.6493  -3.5521  -3.5500
    -3.5271  -3.5265  -3.4835  -3.4828  -3.4478  -3.4477  -3.4329  -3.4327
    -3.3617  -3.3613  -3.2915  -3.2913  -3.1942  -3.1937  -3.0792  -3.0783
    -1.7459  -1.7459  -1.6509  -1.6506  -1.6100  -1.6098  -1.5267  -1.5265
    -1.4446  -1.4444  -1.4228  -1.4227  -1.3893  -1.3892  -1.3805  -1.3804
    -1.3391  -1.3391  -1.2304  -1.2301  -1.2204  -1.2201  -1.1308  -1.1306
    -1.1099  -1.1096  -1.1009  -1.1006  -1.0917  -1.0915  -1.0066  -1.0065
     0.2633   0.2681   0.3563   0.3711   0.3831   0.3930   0.4165   0.4263
     0.4945   0.5060   0.5428   0.5505   0.6109   0.6249   0.7660   0.7731
     0.8382   0.8433   0.8918   0.9160   0.9312   0.9437   1.0517   1.0650
     1.1311   1.1332   1.1459   1.1706   1.1862   1.1982   1.2274   1.2719
     1.2950   1.3284   1.4208   1.4510   1.4775   1.4989   1.5279   1.5337
     1.5555   1.5815   1.6050   1.6268   1.6561   1.6829   1.7444   1.7697
     1.7947   1.8093   1.8455   1.8595   1.8879   1.9187   1.9331   1.9409
     1.9720   1.9862   2.0051   2.0153   2.0311   2.0515   2.0736   2.0949
     2.1002   2.1241   2.1551   2.1645   2.1839   2.2091   2.2219   2.2544
     2.2755   2.2856   2.2928   2.3049   2.3251   2.3425   2.3474   2.3608
     2.3814   2.3978   2.4205   2.4253   2.4455   2.4559   2.4769   2.4966
     2.4989   2.5214   2.5319   2.5403   2.5644   2.5831   2.6139   2.6283
     2.6397   2.6585   2.6665   2.6999   2.7201   2.7363   2.7406   2.7541
     2.7923   2.8124   2.8347   2.8449   2.8602   2.8757   2.8861   2.9004
     2.9199   2.9327   2.9530   2.9704   2.9887   3.0001   3.0102   3.0313
     3.0431   3.0576   3.0725   3.1015   3.1213   3.1310   3.1429   3.1613
     3.1763   3.1897   3.2120   3.2272   3.2579   3.2749   3.2827   3.2929
     3.3348   3.3702   3.4025   3.4222   3.4712   3.4927   3.6931   3.7717
     5.2373   5.2502   5.3236   5.4978   5.6961   5.7117   5.8225   5.8919
     6.1132   6.1503   6.2890   6.3664   6.4089   6.4460   6.5163   6.7169
     7.0689   7.1314   7.1677   7.2129   7.2864   7.3442   7.4488   7.4613
     7.5052   7.5174   7.5639   7.5969   7.6132   7.6292   7.7156   7.7723
     7.7896   7.8085   7.8586   7.8640   7.9686   7.9806   8.0859   8.1189
     8.1862   8.2003   8.2581   8.2807   8.3547   8.3771   8.4257   8.4461
     8.4759   8.5472   8.5580   8.5787   8.6062   8.6321   8.6676   8.6818
     8.7406   8.7939   8.8141   8.8265

          k = 0.2500 0.4969 0.0000 ( 80262 PWs)   bands (ev):

   -41.9224 -41.9224 -41.8180 -41.8180 -41.6524 -41.6524 -41.6428 -41.6428
   -41.5389 -41.5389 -41.5310 -41.5310 -41.4510 -41.4510 -41.4479 -41.4479
   -41.4292 -41.4292 -41.4253 -41.4253 -41.4168 -41.4168 -41.4100 -41.4100
   -41.3846 -41.3846 -41.3703 -41.3703 -41.3443 -41.3443 -41.3405 -41.3405
   -41.3255 -41.3255 -41.3187 -41.3187 -41.3177 -41.3177 -41.3062 -41.3062
   -41.3047 -41.3047 -41.2789 -41.2789 -41.2672 -41.2672 -41.2530 -41.2530
   -41.2493 -41.2493 -41.2355 -41.2355 -41.2305 -41.2305 -41.2255 -41.2255
   -41.2019 -41.2019 -41.1854 -41.1854 -41.1662 -41.1662 -41.1642 -41.1642
   -41.1635 -41.1635 -41.1142 -41.1142 -41.1068 -41.1068 -41.0858 -41.0858
   -41.0849 -41.0849 -41.0628 -41.0628 -41.0449 -41.0449 -41.0421 -41.0421
   -40.9759 -40.9759 -40.9751 -40.9751 -40.9598 -40.9598 -40.9517 -40.9517
   -40.8759 -40.8759 -40.8558 -40.8558 -40.8486 -40.8486 -40.7370 -40.7370
   -40.2237 -40.2237 -40.1746 -40.1746 -40.0866 -40.0866 -39.9546 -39.9546
   -39.9448 -39.9448 -39.9001 -39.9001 -39.8910 -39.8910 -39.8054 -39.8054
   -39.7978 -39.7978 -39.7532 -39.7532 -39.7521 -39.7521 -39.7299 -39.7299
   -39.7294 -39.7294 -39.7178 -39.7178 -39.7110 -39.7110 -39.7003 -39.7003
   -39.6869 -39.6869 -39.6852 -39.6852 -39.6843 -39.6843 -39.6734 -39.6734
   -39.6713 -39.6713 -39.6700 -39.6700 -39.6613 -39.6613 -39.6308 -39.6308
   -39.6260 -39.6260 -39.6139 -39.6139 -39.6134 -39.6134 -39.6128 -39.6128
   -39.5887 -39.5887 -39.5875 -39.5875 -39.5814 -39.5814 -39.5811 -39.5811
   -39.5729 -39.5729 -39.5655 -39.5655 -39.5530 -39.5530 -39.5331 -39.5331
   -39.5326 -39.5326 -39.5312 -39.5311 -39.5291 -39.5291 -39.5141 -39.5141
   -39.5103 -39.5103 -39.5079 -39.5079 -39.5037 -39.5037 -39.4743 -39.4743
   -39.4708 -39.4708 -39.4686 -39.4686 -39.4663 -39.4663 -39.4580 -39.4580
   -39.4485 -39.4485 -39.4366 -39.4366 -39.4108 -39.4108 -39.4074 -39.4074
   -39.3876 -39.3876 -39.3825 -39.3825 -39.3706 -39.3706 -39.3644 -39.3644
   -39.3501 -39.3501 -39.3341 -39.3341 -39.3176 -39.3176 -39.3093 -39.3093
   -39.3067 -39.3067 -39.2597 -39.2597 -39.2531 -39.2531 -39.2489 -39.2489
   -39.2433 -39.2433 -39.2185 -39.2185 -39.2042 -39.2042 -39.1498 -39.1498
   -39.1497 -39.1497 -39.1271 -39.1271 -39.0976 -39.0976 -39.0036 -39.0036
   -16.9548 -16.9548 -16.7331 -16.7331 -16.4027 -16.4027 -16.3564 -16.3564
   -16.3176 -16.3176 -16.2905 -16.2905 -16.2351 -16.2351 -15.8719 -15.8719
   -14.3154 -14.3154 -14.3082 -14.3082 -14.2777 -14.2777 -14.2598 -14.2598
   -14.2058 -14.2058 -14.1939 -14.1939 -14.1913 -14.1913 -14.1710 -14.1710
   -14.0986 -14.0985 -14.0836 -14.0835 -14.0786 -14.0786 -14.0766 -14.0766
   -14.0641 -14.0641 -14.0539 -14.0539 -14.0033 -14.0033 -13.9893 -13.9893
   -11.7843 -11.7843 -11.7607 -11.7607 -11.7412 -11.7412 -11.7256 -11.7256
   -11.7189 -11.7189 -11.6830 -11.6830 -11.6740 -11.6740 -11.6572 -11.6571
   -11.6563 -11.6563 -11.6261 -11.6261 -11.6141 -11.6140 -11.5959 -11.5959
   -11.5728 -11.5726 -11.5540 -11.5537 -11.5469 -11.5469 -11.5420 -11.5417
   -11.5293 -11.5292 -11.5129 -11.5129 -11.5010 -11.5010 -11.4946 -11.4945
   -11.4744 -11.4744 -11.4658 -11.4657 -11.4501 -11.4501 -11.4109 -11.4109
    -9.3095  -9.3095  -9.2475  -9.2475  -9.2077  -9.2077  -9.1078  -9.1078
    -9.0907  -9.0907  -9.0700  -9.0700  -8.9962  -8.9962  -8.9862  -8.9862
    -8.6323  -8.6322  -8.4159  -8.4157  -8.3423  -8.3420  -8.1950  -8.1943
    -8.1386  -8.1374  -8.0906  -8.0896  -8.0453  -8.0440  -7.9747  -7.9726
    -7.9679  -7.9650  -7.9439  -7.9430  -7.9006  -7.8999  -7.8401  -7.8390
    -7.8129  -7.8116  -7.7927  -7.7919  -7.7400  -7.7379  -7.7009  -7.7007
    -7.6656  -7.6651  -7.6461  -7.6458  -7.6159  -7.6158  -7.5513  -7.5510
    -7.5240  -7.5238  -7.4218  -7.4217  -7.3960  -7.3959  -7.3090  -7.3090
    -6.5997  -6.5997  -6.4838  -6.4837  -6.2078  -6.2078  -6.1291  -6.1291
    -6.1120  -6.1120  -6.1054  -6.1054  -6.0048  -6.0048  -5.9884  -5.9884
    -5.8660  -5.8660  -5.7707  -5.7707  -5.7236  -5.7236  -5.5427  -5.5427
    -5.5276  -5.5276  -5.4627  -5.4627  -5.1527  -5.1527  -5.1250  -5.1250
    -4.2617  -4.2615  -4.0825  -4.0822  -3.9034  -3.9032  -3.8277  -3.8272
    -3.7093  -3.7087  -3.6667  -3.6663  -3.6507  -3.6502  -3.5722  -3.5708
    -3.4952  -3.4943  -3.4735  -3.4729  -3.4426  -3.4423  -3.4297  -3.4291
    -3.3666  -3.3660  -3.3119  -3.3111  -3.1632  -3.1629  -3.0726  -3.0722
    -1.7465  -1.7461  -1.6500  -1.6500  -1.6101  -1.6101  -1.5277  -1.5275
    -1.4442  -1.4441  -1.4227  -1.4226  -1.3934  -1.3926  -1.3774  -1.3764
    -1.3390  -1.3389  -1.2299  -1.2296  -1.2208  -1.2207  -1.1326  -1.1324
    -1.1115  -1.1109  -1.1003  -1.0999  -1.0925  -1.0919  -1.0053  -1.0052
     0.2598   0.2739   0.3447   0.3557   0.3880   0.3927   0.4359   0.4520
     0.4719   0.4824   0.4990   0.5070   0.5469   0.5588   0.5784   0.5913
     0.7015   0.7224   0.9307   0.9395   1.0207   1.0334   1.0790   1.0829
     1.1332   1.1484   1.2235   1.2441   1.2707   1.2883   1.2967   1.3177
     1.3241   1.3518   1.3925   1.4170   1.4552   1.4755   1.5313   1.5489
     1.5980   1.6187   1.6369   1.6393   1.6603   1.6847   1.7763   1.7888
     1.8122   1.8339   1.8613   1.8774   1.8894   1.9074   1.9255   1.9530
     1.9760   1.9844   2.0020   2.0226   2.0392   2.0505   2.0764   2.0885
     2.1105   2.1195   2.1372   2.1721   2.1902   2.2082   2.2223   2.2439
     2.2651   2.2801   2.2936   2.3039   2.3215   2.3312   2.3495   2.3560
     2.3784   2.4007   2.4125   2.4283   2.4380   2.4544   2.4708   2.4843
     2.5004   2.5157   2.5260   2.5494   2.5655   2.5824   2.5950   2.6145
     2.6422   2.6671   2.6768   2.7081   2.7155   2.7358   2.7585   2.7608
     2.7984   2.8076   2.8288   2.8458   2.8497   2.8654   2.8860   2.8951
     2.9140   2.9293   2.9582   2.9739   2.9981   3.0097   3.0176   3.0277
     3.0541   3.0660   3.0901   3.1130   3.1210   3.1379   3.1564   3.1732
     3.1805   3.1879   3.1988   3.2091   3.2225   3.2415   3.2966   3.3114
     3.3378   3.3550   3.3829   3.4051   3.5206   3.5849   3.6768   3.6987
     5.1891   5.3384   5.4072   5.4461   5.6434   5.7015   5.8444   5.8593
     6.1703   6.2502   6.3387   6.3983   6.4708   6.5699   6.6182   6.6635
     6.9561   6.9873   7.0302   7.0549   7.1365   7.1898   7.2973   7.3300
     7.4046   7.4326   7.4652   7.5030   7.5923   7.5983   7.6638   7.6762
     7.8020   7.8244   7.8999   7.9236   8.0826   8.0921   8.1454   8.1562
     8.1876   8.2047   8.2978   8.3108   8.3865   8.4070   8.4210   8.4641
     8.4920   8.5150   8.5615   8.5939   8.6207   8.6544   8.6847   8.7272
     8.7824   8.7924   8.8066   8.8425

          k =-0.5000 0.4969 0.0000 ( 80284 PWs)   bands (ev):

   -41.9224 -41.9224 -41.8180 -41.8180 -41.6524 -41.6524 -41.6428 -41.6428
   -41.5389 -41.5389 -41.5310 -41.5310 -41.4510 -41.4510 -41.4479 -41.4479
   -41.4292 -41.4292 -41.4254 -41.4254 -41.4168 -41.4168 -41.4100 -41.4100
   -41.3846 -41.3846 -41.3703 -41.3703 -41.3443 -41.3443 -41.3405 -41.3405
   -41.3255 -41.3255 -41.3187 -41.3187 -41.3177 -41.3177 -41.3062 -41.3062
   -41.3047 -41.3047 -41.2789 -41.2789 -41.2672 -41.2672 -41.2530 -41.2530
   -41.2493 -41.2493 -41.2355 -41.2355 -41.2305 -41.2305 -41.2255 -41.2255
   -41.2019 -41.2019 -41.1854 -41.1854 -41.1662 -41.1662 -41.1642 -41.1642
   -41.1635 -41.1635 -41.1142 -41.1142 -41.1068 -41.1068 -41.0858 -41.0858
   -41.0849 -41.0849 -41.0628 -41.0628 -41.0449 -41.0449 -41.0421 -41.0421
   -40.9759 -40.9759 -40.9751 -40.9751 -40.9598 -40.9598 -40.9517 -40.9517
   -40.8759 -40.8759 -40.8558 -40.8558 -40.8486 -40.8486 -40.7370 -40.7370
   -40.2237 -40.2237 -40.1746 -40.1746 -40.0866 -40.0866 -39.9546 -39.9546
   -39.9448 -39.9448 -39.9001 -39.9001 -39.8910 -39.8910 -39.8054 -39.8054
   -39.7978 -39.7978 -39.7532 -39.7532 -39.7521 -39.7521 -39.7299 -39.7299
   -39.7294 -39.7294 -39.7178 -39.7178 -39.7110 -39.7110 -39.7003 -39.7003
   -39.6869 -39.6869 -39.6852 -39.6852 -39.6843 -39.6843 -39.6734 -39.6734
   -39.6713 -39.6713 -39.6700 -39.6700 -39.6613 -39.6613 -39.6308 -39.6308
   -39.6260 -39.6260 -39.6139 -39.6139 -39.6134 -39.6134 -39.6128 -39.6128
   -39.5887 -39.5887 -39.5875 -39.5875 -39.5814 -39.5814 -39.5811 -39.5811
   -39.5729 -39.5729 -39.5655 -39.5655 -39.5530 -39.5530 -39.5331 -39.5331
   -39.5326 -39.5326 -39.5312 -39.5312 -39.5291 -39.5291 -39.5141 -39.5141
   -39.5103 -39.5103 -39.5079 -39.5079 -39.5037 -39.5037 -39.4743 -39.4743
   -39.4708 -39.4708 -39.4686 -39.4686 -39.4663 -39.4663 -39.4580 -39.4580
   -39.4485 -39.4485 -39.4366 -39.4366 -39.4108 -39.4108 -39.4074 -39.4074
   -39.3876 -39.3876 -39.3824 -39.3824 -39.3706 -39.3706 -39.3644 -39.3644
   -39.3501 -39.3501 -39.3341 -39.3341 -39.3176 -39.3176 -39.3093 -39.3093
   -39.3067 -39.3067 -39.2597 -39.2597 -39.2531 -39.2531 -39.2489 -39.2489
   -39.2433 -39.2433 -39.2185 -39.2185 -39.2042 -39.2042 -39.1498 -39.1498
   -39.1498 -39.1498 -39.1271 -39.1271 -39.0976 -39.0976 -39.0036 -39.0036
   -16.9548 -16.9548 -16.7331 -16.7331 -16.4027 -16.4027 -16.3564 -16.3564
   -16.3176 -16.3176 -16.2905 -16.2905 -16.2351 -16.2351 -15.8719 -15.8719
   -14.3154 -14.3154 -14.3082 -14.3082 -14.2777 -14.2777 -14.2598 -14.2598
   -14.2059 -14.2059 -14.1939 -14.1939 -14.1913 -14.1913 -14.1710 -14.1710
   -14.0985 -14.0985 -14.0836 -14.0836 -14.0786 -14.0786 -14.0767 -14.0767
   -14.0641 -14.0641 -14.0539 -14.0539 -14.0033 -14.0033 -13.9893 -13.9893
   -11.7842 -11.7842 -11.7607 -11.7607 -11.7412 -11.7412 -11.7256 -11.7256
   -11.7188 -11.7188 -11.6830 -11.6830 -11.6740 -11.6740 -11.6570 -11.6570
   -11.6565 -11.6565 -11.6261 -11.6261 -11.6141 -11.6141 -11.5959 -11.5959
   -11.5723 -11.5723 -11.5536 -11.5536 -11.5469 -11.5469 -11.5426 -11.5426
   -11.5294 -11.5294 -11.5129 -11.5129 -11.5010 -11.5010 -11.4946 -11.4946
   -11.4744 -11.4744 -11.4658 -11.4658 -11.4502 -11.4502 -11.4109 -11.4109
    -9.3096  -9.3096  -9.2475  -9.2475  -9.2069  -9.2069  -9.1078  -9.1078
    -9.0903  -9.0903  -9.0705  -9.0705  -8.9971  -8.9971  -8.9880  -8.9880
    -8.6264  -8.6264  -8.4111  -8.4111  -8.3327  -8.3327  -8.2180  -8.2180
    -8.1505  -8.1505  -8.0972  -8.0972  -8.0398  -8.0398  -7.9814  -7.9814
    -7.9692  -7.9692  -7.9503  -7.9503  -7.9023  -7.9023  -7.8339  -7.8339
    -7.7915  -7.7915  -7.7651  -7.7651  -7.7261  -7.7261  -7.6954  -7.6954
    -7.6828  -7.6828  -7.6501  -7.6501  -7.6229  -7.6229  -7.5506  -7.5506
    -7.5190  -7.5190  -7.4302  -7.4302  -7.3957  -7.3957  -7.3091  -7.3091
    -6.5996  -6.5996  -6.4837  -6.4837  -6.2079  -6.2079  -6.1292  -6.1292
    -6.1119  -6.1119  -6.1054  -6.1054  -6.0047  -6.0047  -5.9886  -5.9886
    -5.8665  -5.8665  -5.7708  -5.7708  -5.7238  -5.7238  -5.5427  -5.5427
    -5.5273  -5.5273  -5.4626  -5.4626  -5.1522  -5.1522  -5.1249  -5.1249
    -4.1208  -4.1208  -4.0542  -4.0542  -3.9643  -3.9643  -3.8298  -3.8298
    -3.8031  -3.8031  -3.6715  -3.6715  -3.6004  -3.6004  -3.5580  -3.5580
    -3.5063  -3.5063  -3.4643  -3.4643  -3.4451  -3.4451  -3.4331  -3.4331
    -3.3708  -3.3708  -3.3498  -3.3498  -3.1952  -3.1952  -3.1722  -3.1722
    -1.7453  -1.7453  -1.6497  -1.6497  -1.6102  -1.6102  -1.5269  -1.5269
    -1.4442  -1.4442  -1.4224  -1.4224  -1.3887  -1.3887  -1.3807  -1.3807
    -1.3391  -1.3391  -1.2296  -1.2296  -1.2206  -1.2206  -1.1308  -1.1308
    -1.1103  -1.1103  -1.1008  -1.1008  -1.0916  -1.0916  -1.0062  -1.0062
     0.2844   0.2844   0.3766   0.3766   0.3997   0.3997   0.4905   0.4905
     0.5793   0.5793   0.6377   0.6377   0.8104   0.8104   0.8804   0.8804
     0.9400   0.9400   1.0028   1.0028   1.0141   1.0141   1.1023   1.1023
     1.1549   1.1549   1.1879   1.1879   1.2233   1.2233   1.2634   1.2634
     1.2901   1.2901   1.3554   1.3554   1.3934   1.3934   1.4546   1.4546
     1.5076   1.5076   1.5623   1.5623   1.6199   1.6199   1.7116   1.7116
     1.7509   1.7509   1.8248   1.8248   1.8625   1.8625   1.8996   1.8996
     1.9543   1.9543   1.9793   1.9793   2.0024   2.0024   2.0569   2.0569
     2.0830   2.0830   2.1282   2.1282   2.1573   2.1573   2.1849   2.1849
     2.2440   2.2440   2.2662   2.2662   2.3036   2.3036   2.3247   2.3247
     2.3693   2.3693   2.3955   2.3955   2.4306   2.4306   2.4705   2.4705
     2.4954   2.4954   2.5145   2.5145   2.5597   2.5597   2.6176   2.6176
     2.6349   2.6349   2.6948   2.6948   2.7264   2.7264   2.7425   2.7425
     2.7920   2.7920   2.8354   2.8354   2.8719   2.8719   2.8999   2.8999
     2.9258   2.9258   2.9692   2.9692   2.9847   2.9847   3.0288   3.0288
     3.0566   3.0566   3.1027   3.1027   3.1285   3.1285   3.1507   3.1507
     3.1668   3.1668   3.1943   3.1943   3.2183   3.2183   3.2576   3.2576
     3.3094   3.3094   3.3431   3.3431   3.4820   3.4820   3.6279   3.6279
     5.4400   5.4400   5.5870   5.5870   5.6456   5.6456   5.8063   5.8063
     6.6384   6.6384   6.7276   6.7276   6.8461   6.8461   6.9502   6.9502
     7.0658   7.0658   7.1816   7.1816   7.2337   7.2337   7.4061   7.4061
     7.5086   7.5086   7.6077   7.6077   7.6896   7.6896   7.7472   7.7472
     7.8125   7.8125   7.8738   7.8738   7.9483   7.9483   7.9877   7.9877
     8.0753   8.0753   8.1108   8.1108   8.1611   8.1611   8.2146   8.2146
     8.3431   8.3431   8.3919   8.3919   8.4955   8.4955   8.5519   8.5519
     8.6957   8.6957   8.8026   8.8026

          k =-0.2500 0.0000 0.2500 ( 80236 PWs)   bands (ev):

   -41.9224 -41.9224 -41.8180 -41.8180 -41.6524 -41.6524 -41.6428 -41.6428
   -41.5389 -41.5389 -41.5310 -41.5310 -41.4510 -41.4510 -41.4479 -41.4479
   -41.4292 -41.4292 -41.4253 -41.4253 -41.4168 -41.4168 -41.4100 -41.4100
   -41.3846 -41.3846 -41.3703 -41.3703 -41.3443 -41.3443 -41.3405 -41.3405
   -41.3255 -41.3255 -41.3187 -41.3187 -41.3177 -41.3177 -41.3062 -41.3062
   -41.3047 -41.3047 -41.2789 -41.2789 -41.2672 -41.2672 -41.2530 -41.2530
   -41.2493 -41.2493 -41.2355 -41.2355 -41.2305 -41.2305 -41.2255 -41.2255
   -41.2019 -41.2019 -41.1854 -41.1854 -41.1662 -41.1662 -41.1642 -41.1642
   -41.1635 -41.1635 -41.1142 -41.1142 -41.1068 -41.1068 -41.0858 -41.0858
   -41.0849 -41.0849 -41.0628 -41.0628 -41.0449 -41.0449 -41.0421 -41.0421
   -40.9759 -40.9759 -40.9751 -40.9751 -40.9598 -40.9598 -40.9517 -40.9517
   -40.8759 -40.8759 -40.8558 -40.8558 -40.8486 -40.8486 -40.7370 -40.7370
   -40.2237 -40.2237 -40.1746 -40.1746 -40.0866 -40.0866 -39.9546 -39.9546
   -39.9448 -39.9448 -39.9001 -39.9001 -39.8910 -39.8910 -39.8054 -39.8054
   -39.7978 -39.7978 -39.7531 -39.7531 -39.7521 -39.7521 -39.7299 -39.7299
   -39.7294 -39.7294 -39.7178 -39.7178 -39.7110 -39.7110 -39.7003 -39.7003
   -39.6869 -39.6869 -39.6852 -39.6852 -39.6843 -39.6843 -39.6734 -39.6734
   -39.6713 -39.6713 -39.6700 -39.6700 -39.6613 -39.6613 -39.6308 -39.6308
   -39.6260 -39.6260 -39.6139 -39.6139 -39.6134 -39.6134 -39.6128 -39.6128
   -39.5887 -39.5887 -39.5875 -39.5875 -39.5814 -39.5814 -39.5811 -39.5811
   -39.5729 -39.5729 -39.5655 -39.5655 -39.5530 -39.5530 -39.5331 -39.5331
   -39.5326 -39.5326 -39.5312 -39.5312 -39.5291 -39.5291 -39.5141 -39.5141
   -39.5103 -39.5103 -39.5079 -39.5079 -39.5037 -39.5037 -39.4743 -39.4743
   -39.4708 -39.4708 -39.4686 -39.4686 -39.4663 -39.4663 -39.4580 -39.4580
   -39.4485 -39.4485 -39.4366 -39.4366 -39.4108 -39.4108 -39.4074 -39.4074
   -39.3876 -39.3876 -39.3825 -39.3825 -39.3706 -39.3706 -39.3644 -39.3644
   -39.3501 -39.3501 -39.3341 -39.3341 -39.3176 -39.3176 -39.3093 -39.3093
   -39.3067 -39.3067 -39.2597 -39.2597 -39.2531 -39.2531 -39.2489 -39.2489
   -39.2433 -39.2433 -39.2185 -39.2185 -39.2042 -39.2042 -39.1498 -39.1498
   -39.1497 -39.1497 -39.1271 -39.1271 -39.0976 -39.0976 -39.0036 -39.0036
   -16.9548 -16.9548 -16.7331 -16.7331 -16.4027 -16.4027 -16.3564 -16.3564
   -16.3176 -16.3176 -16.2905 -16.2905 -16.2351 -16.2351 -15.8719 -15.8719
   -14.3154 -14.3154 -14.3082 -14.3082 -14.2777 -14.2777 -14.2598 -14.2598
   -14.2058 -14.2058 -14.1939 -14.1939 -14.1913 -14.1913 -14.1709 -14.1709
   -14.0985 -14.0985 -14.0835 -14.0835 -14.0786 -14.0786 -14.0766 -14.0766
   -14.0641 -14.0641 -14.0539 -14.0539 -14.0033 -14.0033 -13.9893 -13.9893
   -11.7843 -11.7843 -11.7606 -11.7606 -11.7415 -11.7415 -11.7256 -11.7256
   -11.7189 -11.7189 -11.6831 -11.6831 -11.6738 -11.6738 -11.6571 -11.6570
   -11.6564 -11.6563 -11.6263 -11.6262 -11.6141 -11.6140 -11.5959 -11.5959
   -11.5724 -11.5722 -11.5539 -11.5537 -11.5469 -11.5469 -11.5418 -11.5415
   -11.5294 -11.5294 -11.5134 -11.5134 -11.5010 -11.5010 -11.4946 -11.4945
   -11.4744 -11.4744 -11.4657 -11.4656 -11.4500 -11.4499 -11.4109 -11.4109
    -9.3093  -9.3093  -9.2475  -9.2475  -9.2081  -9.2081  -9.1097  -9.1097
    -9.0888  -9.0888  -9.0701  -9.0701  -8.9984  -8.9984  -8.9836  -8.9836
    -8.6347  -8.6346  -8.4312  -8.4311  -8.3085  -8.3082  -8.1991  -8.1980
    -8.1397  -8.1386  -8.1106  -8.1093  -8.0246  -8.0221  -8.0006  -8.0000
    -7.9617  -7.9608  -7.9232  -7.9213  -7.8866  -7.8839  -7.8566  -7.8546
    -7.8207  -7.8195  -7.7933  -7.7915  -7.7448  -7.7430  -7.6895  -7.6883
    -7.6653  -7.6636  -7.6409  -7.6392  -7.6322  -7.6315  -7.5820  -7.5808
    -7.5027  -7.5023  -7.4236  -7.4233  -7.3936  -7.3934  -7.3012  -7.3010
    -6.5999  -6.5999  -6.4840  -6.4840  -6.2088  -6.2088  -6.1290  -6.1290
    -6.1164  -6.1164  -6.1021  -6.1021  -6.0036  -6.0035  -5.9898  -5.9897
    -5.8653  -5.8653  -5.7701  -5.7701  -5.7234  -5.7234  -5.5426  -5.5426
    -5.5274  -5.5274  -5.4628  -5.4628  -5.1528  -5.1528  -5.1252  -5.1252
    -4.3454  -4.3451  -4.0376  -4.0368  -3.8871  -3.8861  -3.8263  -3.8246
    -3.8010  -3.8004  -3.6613  -3.6611  -3.5658  -3.5640  -3.5431  -3.5418
    -3.5009  -3.4999  -3.4744  -3.4734  -3.4455  -3.4452  -3.4164  -3.4163
    -3.3730  -3.3719  -3.3083  -3.3074  -3.1930  -3.1924  -2.9787  -2.9779
    -1.7482  -1.7479  -1.6513  -1.6512  -1.6104  -1.6103  -1.5262  -1.5260
    -1.4448  -1.4441  -1.4246  -1.4238  -1.3937  -1.3926  -1.3779  -1.3765
    -1.3380  -1.3378  -1.2307  -1.2301  -1.2205  -1.2201  -1.1269  -1.1266
    -1.1108  -1.1086  -1.1024  -1.1007  -1.0906  -1.0898  -1.0102  -1.0098
     0.2150   0.2183   0.3419   0.3573   0.3834   0.3958   0.4337   0.4471
     0.4611   0.4717   0.4891   0.5061   0.5524   0.5670   0.5851   0.5914
     0.6132   0.6231   0.6564   0.6627   0.7188   0.7252   0.8241   0.8335
     1.1372   1.1591   1.2348   1.2549   1.2856   1.2939   1.3089   1.3384
     1.4418   1.4699   1.4984   1.5237   1.5429   1.5764   1.5885   1.6040
     1.6432   1.6705   1.6974   1.7197   1.7381   1.7600   1.7972   1.8152
     1.8312   1.8470   1.8656   1.9079   1.9203   1.9321   1.9527   1.9765
     2.0053   2.0121   2.0344   2.0465   2.0693   2.0941   2.1084   2.1169
     2.1365   2.1590   2.1870   2.1905   2.2119   2.2377   2.2560   2.2752
     2.2903   2.3086   2.3355   2.3452   2.3600   2.3746   2.3796   2.3883
     2.4049   2.4148   2.4334   2.4420   2.4560   2.4665   2.4796   2.5009
     2.5083   2.5262   2.5460   2.5541   2.5742   2.5841   2.6217   2.6352
     2.6536   2.6630   2.6830   2.6946   2.7199   2.7283   2.7339   2.7677
     2.7815   2.8049   2.8274   2.8464   2.8528   2.8758   2.8873   2.9020
     2.9154   2.9345   2.9421   2.9608   2.9814   2.9863   2.9973   3.0376
     3.0474   3.0602   3.0741   3.0925   3.1247   3.1366   3.1506   3.1737
     3.1859   3.2103   3.2305   3.2425   3.2798   3.2869   3.3104   3.3262
     3.3751   3.4180   3.4441   3.4680   3.5361   3.5569   3.7332   3.7415
     5.0652   5.1134   5.4266   5.4620   5.5231   5.5415   5.8101   5.8585
     6.0006   6.0178   6.2631   6.3229   6.3753   6.4294   6.4785   6.5221
     6.6140   6.6601   6.6864   6.7309   6.7810   6.7978   6.9891   7.0050
     7.3907   7.3946   7.6803   7.7073   7.8545   7.8692   7.9350   7.9449
     8.0222   8.0444   8.0580   8.0863   8.1546   8.1766   8.2756   8.2972
     8.3059   8.3695   8.3868   8.4123   8.4429   8.4600   8.5102   8.5278
     8.5571   8.5836   8.6060   8.6389   8.6639   8.6863   8.7163   8.7367
     8.7924   8.8276   8.8496   8.8809

          k =-0.5000 0.0000 0.2500 ( 80264 PWs)   bands (ev):

   -41.9224 -41.9224 -41.8180 -41.8180 -41.6524 -41.6524 -41.6428 -41.6428
   -41.5389 -41.5389 -41.5310 -41.5310 -41.4510 -41.4510 -41.4479 -41.4479
   -41.4292 -41.4292 -41.4253 -41.4253 -41.4168 -41.4168 -41.4100 -41.4100
   -41.3846 -41.3846 -41.3703 -41.3703 -41.3443 -41.3443 -41.3405 -41.3405
   -41.3255 -41.3255 -41.3187 -41.3187 -41.3177 -41.3177 -41.3062 -41.3062
   -41.3047 -41.3047 -41.2789 -41.2789 -41.2672 -41.2672 -41.2530 -41.2530
   -41.2493 -41.2493 -41.2355 -41.2355 -41.2305 -41.2305 -41.2255 -41.2255
   -41.2019 -41.2019 -41.1854 -41.1854 -41.1662 -41.1662 -41.1642 -41.1642
   -41.1635 -41.1635 -41.1142 -41.1142 -41.1068 -41.1068 -41.0858 -41.0858
   -41.0849 -41.0849 -41.0628 -41.0628 -41.0449 -41.0449 -41.0421 -41.0421
   -40.9759 -40.9759 -40.9751 -40.9751 -40.9598 -40.9598 -40.9517 -40.9517
   -40.8759 -40.8759 -40.8558 -40.8558 -40.8486 -40.8486 -40.7370 -40.7370
   -40.2237 -40.2237 -40.1746 -40.1746 -40.0866 -40.0866 -39.9546 -39.9546
   -39.9448 -39.9448 -39.9001 -39.9001 -39.8910 -39.8910 -39.8054 -39.8054
   -39.7978 -39.7978 -39.7531 -39.7531 -39.7521 -39.7521 -39.7299 -39.7299
   -39.7294 -39.7294 -39.7178 -39.7178 -39.7110 -39.7110 -39.7003 -39.7003
   -39.6869 -39.6869 -39.6852 -39.6852 -39.6843 -39.6843 -39.6734 -39.6734
   -39.6713 -39.6713 -39.6700 -39.6700 -39.6613 -39.6613 -39.6308 -39.6308
   -39.6260 -39.6260 -39.6139 -39.6139 -39.6134 -39.6134 -39.6128 -39.6128
   -39.5887 -39.5887 -39.5875 -39.5875 -39.5814 -39.5814 -39.5811 -39.5811
   -39.5729 -39.5729 -39.5655 -39.5655 -39.5530 -39.5530 -39.5331 -39.5331
   -39.5326 -39.5326 -39.5312 -39.5312 -39.5291 -39.5291 -39.5141 -39.5141
   -39.5103 -39.5103 -39.5079 -39.5079 -39.5037 -39.5037 -39.4743 -39.4743
   -39.4708 -39.4708 -39.4686 -39.4686 -39.4663 -39.4663 -39.4580 -39.4580
   -39.4485 -39.4485 -39.4366 -39.4366 -39.4108 -39.4108 -39.4074 -39.4074
   -39.3876 -39.3876 -39.3825 -39.3825 -39.3706 -39.3706 -39.3644 -39.3644
   -39.3501 -39.3501 -39.3341 -39.3341 -39.3176 -39.3176 -39.3093 -39.3093
   -39.3067 -39.3067 -39.2597 -39.2597 -39.2531 -39.2531 -39.2489 -39.2489
   -39.2433 -39.2433 -39.2185 -39.2185 -39.2042 -39.2042 -39.1498 -39.1498
   -39.1497 -39.1497 -39.1271 -39.1271 -39.0976 -39.0976 -39.0036 -39.0036
   -16.9548 -16.9548 -16.7331 -16.7331 -16.4027 -16.4027 -16.3564 -16.3564
   -16.3176 -16.3176 -16.2905 -16.2905 -16.2351 -16.2351 -15.8719 -15.8719
   -14.3154 -14.3154 -14.3082 -14.3082 -14.2777 -14.2777 -14.2598 -14.2598
   -14.2058 -14.2058 -14.1939 -14.1939 -14.1913 -14.1913 -14.1710 -14.1710
   -14.0985 -14.0985 -14.0835 -14.0835 -14.0785 -14.0785 -14.0767 -14.0767
   -14.0641 -14.0641 -14.0540 -14.0540 -14.0033 -14.0033 -13.9893 -13.9893
   -11.7841 -11.7841 -11.7606 -11.7606 -11.7415 -11.7415 -11.7256 -11.7256
   -11.7188 -11.7188 -11.6831 -11.6831 -11.6738 -11.6738 -11.6569 -11.6569
   -11.6565 -11.6565 -11.6263 -11.6262 -11.6141 -11.6141 -11.5959 -11.5959
   -11.5719 -11.5719 -11.5535 -11.5535 -11.5468 -11.5468 -11.5424 -11.5424
   -11.5295 -11.5295 -11.5135 -11.5134 -11.5010 -11.5010 -11.4946 -11.4946
   -11.4744 -11.4744 -11.4657 -11.4657 -11.4500 -11.4499 -11.4109 -11.4109
    -9.3094  -9.3094  -9.2475  -9.2474  -9.2072  -9.2072  -9.1096  -9.1096
    -9.0884  -9.0884  -9.0706  -9.0706  -8.9998  -8.9998  -8.9848  -8.9848
    -8.6287  -8.6287  -8.4242  -8.4242  -8.3039  -8.3037  -8.2248  -8.2240
    -8.1384  -8.1377  -8.1105  -8.1100  -8.0384  -8.0370  -8.0119  -8.0095
    -7.9634  -7.9619  -7.9242  -7.9224  -7.8887  -7.8856  -7.8576  -7.8560
    -7.7994  -7.7978  -7.7671  -7.7655  -7.7324  -7.7312  -7.6815  -7.6809
    -7.6685  -7.6657  -7.6481  -7.6465  -7.6407  -7.6395  -7.5837  -7.5827
    -7.5014  -7.5010  -7.4291  -7.4288  -7.3955  -7.3953  -7.3020  -7.3018
    -6.5998  -6.5998  -6.4839  -6.4839  -6.2089  -6.2089  -6.1290  -6.1290
    -6.1164  -6.1164  -6.1021  -6.1021  -6.0036  -6.0035  -5.9901  -5.9900
    -5.8658  -5.8658  -5.7701  -5.7701  -5.7236  -5.7236  -5.5426  -5.5426
    -5.5273  -5.5273  -5.4627  -5.4627  -5.1524  -5.1524  -5.1251  -5.1251
    -4.2052  -4.2050  -4.1295  -4.1292  -3.8534  -3.8515  -3.8130  -3.8106
    -3.7272  -3.7270  -3.6904  -3.6895  -3.6571  -3.6566  -3.5682  -3.5672
    -3.5171  -3.5162  -3.4842  -3.4840  -3.4481  -3.4476  -3.4263  -3.4254
    -3.3655  -3.3653  -3.2920  -3.2916  -3.2012  -3.2005  -3.0934  -3.0932
    -1.7469  -1.7467  -1.6509  -1.6509  -1.6102  -1.6101  -1.5262  -1.5260
    -1.4449  -1.4441  -1.4246  -1.4238  -1.3893  -1.3892  -1.3802  -1.3801
    -1.3379  -1.3378  -1.2305  -1.2302  -1.2204  -1.2203  -1.1268  -1.1264
    -1.1098  -1.1086  -1.1007  -1.0997  -1.0925  -1.0916  -1.0091  -1.0087
     0.2275   0.2288   0.3731   0.3843   0.4189   0.4287   0.4609   0.4696
     0.5210   0.5359   0.5889   0.5922   0.6178   0.6314   0.6906   0.7164
     0.8469   0.8545   0.8840   0.8975   0.9135   0.9311   1.0335   1.0525
     1.1327   1.1413   1.1600   1.1768   1.1853   1.1927   1.2473   1.2567
     1.3089   1.3426   1.4076   1.4218   1.4855   1.4979   1.5337   1.5414
     1.5702   1.5902   1.6093   1.6181   1.6620   1.6826   1.7173   1.7612
     1.7959   1.8133   1.8397   1.8646   1.8865   1.9016   1.9280   1.9425
     1.9549   1.9821   2.0049   2.0125   2.0387   2.0487   2.0619   2.0880
     2.1125   2.1294   2.1512   2.1812   2.1941   2.2164   2.2348   2.2524
     2.2773   2.2878   2.3109   2.3174   2.3303   2.3390   2.3571   2.3706
     2.3845   2.3944   2.4127   2.4296   2.4441   2.4533   2.4586   2.4848
     2.4920   2.5167   2.5367   2.5458   2.5656   2.5794   2.6048   2.6122
     2.6479   2.6617   2.6704   2.7012   2.7175   2.7446   2.7484   2.7560
     2.7797   2.8081   2.8369   2.8510   2.8746   2.8840   2.8911   2.9106
     2.9224   2.9333   2.9399   2.9574   2.9846   3.0003   3.0108   3.0210
     3.0451   3.0535   3.0778   3.0931   3.1065   3.1293   3.1386   3.1527
     3.1667   3.1894   3.1954   3.2113   3.2356   3.2617   3.2751   3.2918
     3.3407   3.3799   3.3923   3.4126   3.4423   3.4773   3.6844   3.6903
     5.2537   5.2827   5.4077   5.4300   5.6608   5.6903   5.8642   5.8776
     6.1415   6.1577   6.3288   6.3728   6.4299   6.4616   6.6139   6.6798
     7.0975   7.1396   7.1786   7.2068   7.2953   7.3343   7.4568   7.4701
     7.4942   7.5162   7.6127   7.6330   7.6528   7.6842   7.7090   7.7182
     7.7553   7.7945   7.8626   7.8727   7.9655   7.9908   8.1128   8.1245
     8.2376   8.2606   8.2989   8.3110   8.3553   8.3787   8.4074   8.4443
     8.4631   8.5029   8.5505   8.5731   8.6159   8.6357   8.6590   8.6861
     8.7455   8.7898   8.8006   8.8305

          k =-0.2500-0.2485 0.2500 ( 80235 PWs)   bands (ev):

   -41.9224 -41.9224 -41.8180 -41.8180 -41.6524 -41.6524 -41.6428 -41.6428
   -41.5389 -41.5389 -41.5310 -41.5310 -41.4510 -41.4510 -41.4479 -41.4479
   -41.4292 -41.4292 -41.4253 -41.4253 -41.4168 -41.4168 -41.4100 -41.4100
   -41.3846 -41.3846 -41.3703 -41.3703 -41.3443 -41.3443 -41.3405 -41.3405
   -41.3255 -41.3255 -41.3187 -41.3187 -41.3177 -41.3177 -41.3062 -41.3062
   -41.3047 -41.3047 -41.2789 -41.2789 -41.2672 -41.2672 -41.2530 -41.2530
   -41.2493 -41.2493 -41.2355 -41.2355 -41.2305 -41.2305 -41.2255 -41.2255
   -41.2019 -41.2019 -41.1854 -41.1854 -41.1662 -41.1662 -41.1642 -41.1642
   -41.1635 -41.1635 -41.1142 -41.1142 -41.1068 -41.1068 -41.0858 -41.0858
   -41.0849 -41.0849 -41.0628 -41.0628 -41.0449 -41.0449 -41.0421 -41.0421
   -40.9759 -40.9759 -40.9750 -40.9750 -40.9598 -40.9598 -40.9517 -40.9517
   -40.8759 -40.8759 -40.8558 -40.8558 -40.8486 -40.8486 -40.7370 -40.7370
   -40.2237 -40.2237 -40.1746 -40.1746 -40.0866 -40.0866 -39.9546 -39.9546
   -39.9448 -39.9448 -39.9001 -39.9001 -39.8910 -39.8910 -39.8054 -39.8054
   -39.7978 -39.7978 -39.7531 -39.7531 -39.7521 -39.7521 -39.7299 -39.7299
   -39.7294 -39.7294 -39.7178 -39.7178 -39.7110 -39.7110 -39.7003 -39.7003
   -39.6869 -39.6869 -39.6852 -39.6852 -39.6843 -39.6843 -39.6734 -39.6734
   -39.6713 -39.6713 -39.6700 -39.6700 -39.6613 -39.6613 -39.6308 -39.6308
   -39.6260 -39.6260 -39.6139 -39.6139 -39.6134 -39.6134 -39.6128 -39.6128
   -39.5887 -39.5887 -39.5875 -39.5875 -39.5814 -39.5814 -39.5811 -39.5811
   -39.5729 -39.5729 -39.5655 -39.5655 -39.5530 -39.5530 -39.5331 -39.5331
   -39.5326 -39.5326 -39.5311 -39.5311 -39.5291 -39.5291 -39.5141 -39.5141
   -39.5103 -39.5103 -39.5079 -39.5079 -39.5037 -39.5037 -39.4743 -39.4743
   -39.4708 -39.4708 -39.4686 -39.4686 -39.4663 -39.4663 -39.4580 -39.4580
   -39.4485 -39.4485 -39.4366 -39.4366 -39.4108 -39.4108 -39.4074 -39.4074
   -39.3876 -39.3876 -39.3825 -39.3825 -39.3706 -39.3706 -39.3644 -39.3644
   -39.3501 -39.3501 -39.3341 -39.3341 -39.3176 -39.3176 -39.3093 -39.3093
   -39.3067 -39.3067 -39.2597 -39.2597 -39.2531 -39.2531 -39.2489 -39.2489
   -39.2433 -39.2433 -39.2185 -39.2185 -39.2041 -39.2041 -39.1498 -39.1498
   -39.1497 -39.1497 -39.1271 -39.1271 -39.0976 -39.0976 -39.0036 -39.0036
   -16.9548 -16.9548 -16.7331 -16.7331 -16.4027 -16.4027 -16.3564 -16.3564
   -16.3176 -16.3176 -16.2905 -16.2905 -16.2351 -16.2351 -15.8719 -15.8719
   -14.3154 -14.3154 -14.3082 -14.3082 -14.2777 -14.2777 -14.2598 -14.2598
   -14.2058 -14.2058 -14.1939 -14.1939 -14.1913 -14.1913 -14.1709 -14.1709
   -14.0985 -14.0985 -14.0835 -14.0835 -14.0786 -14.0786 -14.0766 -14.0766
   -14.0641 -14.0641 -14.0539 -14.0539 -14.0033 -14.0033 -13.9893 -13.9893
   -11.7843 -11.7842 -11.7606 -11.7606 -11.7414 -11.7413 -11.7256 -11.7256
   -11.7189 -11.7188 -11.6831 -11.6831 -11.6740 -11.6740 -11.6571 -11.6571
   -11.6564 -11.6563 -11.6261 -11.6261 -11.6141 -11.6140 -11.5959 -11.5959
   -11.5726 -11.5723 -11.5539 -11.5537 -11.5469 -11.5469 -11.5418 -11.5416
   -11.5294 -11.5293 -11.5133 -11.5131 -11.5010 -11.5010 -11.4945 -11.4945
   -11.4745 -11.4744 -11.4658 -11.4657 -11.4502 -11.4501 -11.4109 -11.4109
    -9.3093  -9.3093  -9.2475  -9.2475  -9.2081  -9.2080  -9.1089  -9.1089
    -9.0897  -9.0897  -9.0701  -9.0701  -8.9974  -8.9974  -8.9846  -8.9846
    -8.6331  -8.6331  -8.4246  -8.4245  -8.3205  -8.3203  -8.1989  -8.1975
    -8.1438  -8.1426  -8.1045  -8.1030  -8.0351  -8.0335  -7.9977  -7.9966
    -7.9689  -7.9682  -7.9223  -7.9204  -7.8930  -7.8900  -7.8369  -7.8349
    -7.8147  -7.8123  -7.8031  -7.8025  -7.7444  -7.7428  -7.6929  -7.6917
    -7.6671  -7.6648  -7.6365  -7.6346  -7.6200  -7.6185  -7.5739  -7.5720
    -7.5112  -7.5106  -7.4242  -7.4239  -7.3951  -7.3949  -7.3060  -7.3056
    -6.5998  -6.5998  -6.4840  -6.4840  -6.2083  -6.2083  -6.1290  -6.1290
    -6.1147  -6.1146  -6.1033  -6.1032  -6.0036  -6.0035  -5.9897  -5.9896
    -5.8654  -5.8654  -5.7702  -5.7702  -5.7236  -5.7236  -5.5426  -5.5426
    -5.5275  -5.5275  -5.4627  -5.4627  -5.1529  -5.1528  -5.1252  -5.1252
    -4.2902  -4.2898  -3.9964  -3.9950  -3.9088  -3.9080  -3.8230  -3.8221
    -3.8021  -3.8004  -3.6629  -3.6626  -3.6011  -3.5996  -3.5243  -3.5217
    -3.5161  -3.5154  -3.4721  -3.4706  -3.4502  -3.4496  -3.4188  -3.4181
    -3.3937  -3.3912  -3.3421  -3.3419  -3.1916  -3.1912  -3.0571  -3.0566
    -1.7473  -1.7470  -1.6506  -1.6505  -1.6100  -1.6100  -1.5270  -1.5266
    -1.4449  -1.4439  -1.4241  -1.4234  -1.3934  -1.3923  -1.3775  -1.3761
    -1.3377  -1.3374  -1.2299  -1.2293  -1.2211  -1.2207  -1.1270  -1.1264
    -1.1117  -1.1094  -1.1026  -1.1012  -1.0904  -1.0895  -1.0096  -1.0093
     0.3334   0.3581   0.3848   0.4056   0.4268   0.4394   0.4624   0.4662
     0.4912   0.5059   0.5374   0.5554   0.5906   0.6031   0.6379   0.6416
     0.6795   0.6853   0.7268   0.7356   0.7874   0.7990   0.8761   0.8940
     1.1328   1.1883   1.2193   1.2452   1.2744   1.2926   1.3108   1.3280
     1.4015   1.4486   1.4616   1.5135   1.5375   1.5501   1.5600   1.5902
     1.6089   1.6379   1.6665   1.6856   1.7143   1.7411   1.7691   1.8087
     1.8128   1.8383   1.8570   1.8851   1.9024   1.9152   1.9432   1.9556
     1.9782   1.9964   2.0246   2.0456   2.0545   2.0704   2.0856   2.0995
     2.1182   2.1333   2.1626   2.1683   2.1976   2.2222   2.2278   2.2445
     2.2606   2.2823   2.2947   2.3114   2.3234   2.3327   2.3555   2.3714
     2.3833   2.3876   2.3953   2.4112   2.4173   2.4363   2.4582   2.4839
     2.4913   2.5063   2.5260   2.5387   2.5554   2.5767   2.5915   2.6105
     2.6421   2.6482   2.6664   2.6981   2.7175   2.7376   2.7655   2.7820
     2.7877   2.8086   2.8200   2.8329   2.8494   2.8519   2.8826   2.8952
     2.9168   2.9241   2.9461   2.9508   2.9633   2.9839   3.0033   3.0243
     3.0559   3.0668   3.0824   3.1002   3.1123   3.1287   3.1365   3.1574
     3.1694   3.1915   3.2126   3.2196   3.2335   3.2435   3.2694   3.2758
     3.3278   3.3527   3.3746   3.4023   3.4362   3.4624   3.5288   3.6018
     5.3165   5.3969   5.6900   5.7034   5.8011   5.8456   5.8793   5.9102
     6.2540   6.2972   6.3523   6.3997   6.4302   6.4910   6.5671   6.6010
     6.6711   6.7236   6.8032   6.8912   6.9133   6.9343   6.9883   7.0332
     7.4396   7.4453   7.5796   7.5925   7.8047   7.8489   7.9143   7.9337
     7.9810   8.0089   8.0292   8.0575   8.0991   8.1633   8.1836   8.2132
     8.2497   8.2910   8.3230   8.3401   8.3561   8.4078   8.4182   8.4448
     8.4658   8.5023   8.5385   8.5916   8.6024   8.6484   8.6587   8.7120
     8.7446   8.7770   8.7967   8.8429

          k =-0.2500 0.2485-0.2500 ( 80235 PWs)   bands (ev):

   -41.9224 -41.9224 -41.8180 -41.8180 -41.6524 -41.6524 -41.6428 -41.6428
   -41.5389 -41.5389 -41.5310 -41.5310 -41.4510 -41.4510 -41.4479 -41.4479
   -41.4292 -41.4292 -41.4253 -41.4253 -41.4168 -41.4168 -41.4100 -41.4100
   -41.3846 -41.3846 -41.3703 -41.3703 -41.3443 -41.3443 -41.3405 -41.3405
   -41.3255 -41.3255 -41.3187 -41.3187 -41.3177 -41.3177 -41.3062 -41.3062
   -41.3047 -41.3047 -41.2789 -41.2789 -41.2672 -41.2672 -41.2530 -41.2530
   -41.2493 -41.2493 -41.2355 -41.2355 -41.2305 -41.2305 -41.2255 -41.2255
   -41.2019 -41.2019 -41.1854 -41.1854 -41.1662 -41.1662 -41.1642 -41.1642
   -41.1635 -41.1635 -41.1142 -41.1142 -41.1068 -41.1068 -41.0858 -41.0858
   -41.0849 -41.0849 -41.0628 -41.0628 -41.0449 -41.0449 -41.0421 -41.0421
   -40.9759 -40.9759 -40.9750 -40.9750 -40.9598 -40.9598 -40.9517 -40.9517
   -40.8759 -40.8759 -40.8558 -40.8558 -40.8486 -40.8486 -40.7370 -40.7370
   -40.2237 -40.2237 -40.1746 -40.1746 -40.0866 -40.0866 -39.9546 -39.9546
   -39.9448 -39.9448 -39.9001 -39.9001 -39.8910 -39.8910 -39.8054 -39.8054
   -39.7978 -39.7978 -39.7531 -39.7531 -39.7521 -39.7521 -39.7299 -39.7299
   -39.7294 -39.7294 -39.7178 -39.7178 -39.7110 -39.7110 -39.7003 -39.7003
   -39.6869 -39.6869 -39.6852 -39.6852 -39.6843 -39.6843 -39.6734 -39.6734
   -39.6713 -39.6713 -39.6700 -39.6700 -39.6613 -39.6613 -39.6308 -39.6308
   -39.6260 -39.6260 -39.6139 -39.6139 -39.6134 -39.6134 -39.6128 -39.6128
   -39.5887 -39.5887 -39.5875 -39.5875 -39.5814 -39.5814 -39.5811 -39.5811
   -39.5729 -39.5729 -39.5655 -39.5655 -39.5530 -39.5530 -39.5331 -39.5331
   -39.5326 -39.5326 -39.5311 -39.5311 -39.5291 -39.5291 -39.5141 -39.5141
   -39.5103 -39.5103 -39.5079 -39.5079 -39.5037 -39.5037 -39.4743 -39.4743
   -39.4708 -39.4708 -39.4686 -39.4686 -39.4663 -39.4663 -39.4580 -39.4580
   -39.4485 -39.4485 -39.4366 -39.4366 -39.4108 -39.4108 -39.4074 -39.4074
   -39.3876 -39.3876 -39.3825 -39.3825 -39.3706 -39.3706 -39.3644 -39.3644
   -39.3501 -39.3501 -39.3341 -39.3341 -39.3176 -39.3176 -39.3093 -39.3093
   -39.3067 -39.3067 -39.2597 -39.2597 -39.2531 -39.2531 -39.2489 -39.2489
   -39.2433 -39.2433 -39.2185 -39.2185 -39.2042 -39.2042 -39.1498 -39.1498
   -39.1497 -39.1497 -39.1271 -39.1271 -39.0976 -39.0976 -39.0036 -39.0036
   -16.9548 -16.9548 -16.7331 -16.7331 -16.4027 -16.4027 -16.3564 -16.3564
   -16.3176 -16.3176 -16.2905 -16.2905 -16.2351 -16.2351 -15.8719 -15.8719
   -14.3154 -14.3154 -14.3082 -14.3082 -14.2777 -14.2777 -14.2598 -14.2598
   -14.2058 -14.2058 -14.1939 -14.1939 -14.1913 -14.1913 -14.1709 -14.1709
   -14.0985 -14.0985 -14.0835 -14.0835 -14.0786 -14.0786 -14.0766 -14.0766
   -14.0641 -14.0641 -14.0539 -14.0539 -14.0033 -14.0033 -13.9893 -13.9893
   -11.7843 -11.7842 -11.7606 -11.7606 -11.7414 -11.7413 -11.7256 -11.7256
   -11.7189 -11.7188 -11.6831 -11.6831 -11.6740 -11.6740 -11.6571 -11.6571
   -11.6563 -11.6563 -11.6261 -11.6261 -11.6141 -11.6140 -11.5959 -11.5959
   -11.5725 -11.5724 -11.5539 -11.5537 -11.5469 -11.5469 -11.5418 -11.5416
   -11.5294 -11.5293 -11.5133 -11.5131 -11.5010 -11.5010 -11.4946 -11.4945
   -11.4745 -11.4744 -11.4658 -11.4657 -11.4502 -11.4501 -11.4109 -11.4109
    -9.3092  -9.3092  -9.2475  -9.2475  -9.2081  -9.2081  -9.1090  -9.1090
    -9.0898  -9.0898  -9.0701  -9.0701  -8.9973  -8.9973  -8.9849  -8.9849
    -8.6325  -8.6324  -8.4243  -8.4241  -8.3227  -8.3224  -8.1958  -8.1940
    -8.1350  -8.1334  -8.1074  -8.1063  -8.0635  -8.0618  -7.9767  -7.9755
    -7.9672  -7.9652  -7.9213  -7.9195  -7.8916  -7.8880  -7.8508  -7.8472
    -7.8199  -7.8184  -7.7903  -7.7883  -7.7404  -7.7396  -7.6922  -7.6910
    -7.6680  -7.6659  -7.6383  -7.6367  -7.6196  -7.6175  -7.5766  -7.5746
    -7.5112  -7.5107  -7.4233  -7.4230  -7.3959  -7.3958  -7.3057  -7.3052
    -6.5998  -6.5998  -6.4839  -6.4839  -6.2083  -6.2083  -6.1290  -6.1290
    -6.1146  -6.1146  -6.1034  -6.1033  -6.0036  -6.0035  -5.9895  -5.9894
    -5.8654  -5.8654  -5.7702  -5.7702  -5.7237  -5.7236  -5.5426  -5.5426
    -5.5276  -5.5276  -5.4628  -5.4628  -5.1528  -5.1527  -5.1252  -5.1252
    -4.2926  -4.2920  -3.9716  -3.9705  -3.9313  -3.9303  -3.8355  -3.8339
    -3.7993  -3.7973  -3.6608  -3.6605  -3.5890  -3.5875  -3.5246  -3.5238
    -3.4823  -3.4808  -3.4708  -3.4694  -3.4553  -3.4545  -3.4397  -3.4393
    -3.4125  -3.4115  -3.3444  -3.3439  -3.1884  -3.1881  -3.0520  -3.0510
    -1.7473  -1.7469  -1.6507  -1.6505  -1.6098  -1.6097  -1.5267  -1.5266
    -1.4446  -1.4437  -1.4234  -1.4227  -1.3939  -1.3928  -1.3782  -1.3772
    -1.3378  -1.3377  -1.2302  -1.2297  -1.2208  -1.2204  -1.1293  -1.1285
    -1.1110  -1.1090  -1.1010  -1.0995  -1.0921  -1.0911  -1.0075  -1.0072
     0.3247   0.3413   0.3561   0.3799   0.3939   0.3976   0.4795   0.5071
     0.5174   0.5291   0.5624   0.5799   0.6025   0.6062   0.6523   0.6589
     0.6894   0.6961   0.7188   0.7330   0.7811   0.7910   0.8659   0.8877
     1.1449   1.1868   1.2188   1.2545   1.2679   1.2942   1.3138   1.3372
     1.4083   1.4308   1.4759   1.5045   1.5215   1.5374   1.5600   1.5752
     1.6004   1.6167   1.6566   1.6814   1.6934   1.7540   1.7840   1.8019
     1.8071   1.8480   1.8690   1.8751   1.9027   1.9168   1.9331   1.9523
     1.9788   1.9991   2.0075   2.0361   2.0488   2.0691   2.0862   2.0982
     2.1188   2.1332   2.1555   2.1863   2.1908   2.2283   2.2475   2.2564
     2.2642   2.2821   2.2994   2.3130   2.3206   2.3343   2.3448   2.3577
     2.3719   2.3847   2.3951   2.4189   2.4325   2.4529   2.4641   2.4893
     2.5008   2.5151   2.5218   2.5306   2.5623   2.5710   2.5934   2.6006
     2.6319   2.6571   2.6692   2.7032   2.7203   2.7303   2.7608   2.7680
     2.7853   2.8090   2.8320   2.8458   2.8542   2.8682   2.8979   2.9070
     2.9182   2.9345   2.9435   2.9599   2.9772   2.9906   3.0106   3.0293
     3.0431   3.0602   3.0716   3.0803   3.1045   3.1238   3.1350   3.1547
     3.1776   3.1861   3.1917   3.2155   3.2262   3.2489   3.2617   3.2926
     3.3271   3.3468   3.3679   3.4041   3.4262   3.4802   3.5340   3.5939
     5.2873   5.3996   5.6828   5.7449   5.7736   5.8129   5.8798   5.9474
     6.2702   6.3016   6.3526   6.3830   6.4385   6.4995   6.5502   6.5981
     6.6381   6.7333   6.8120   6.8499   6.9297   6.9880   7.0068   7.0325
     7.4034   7.4242   7.5689   7.6203   7.7929   7.8507   7.9142   7.9758
     8.0239   8.0400   8.0742   8.0982   8.1230   8.1487   8.1719   8.2195
     8.2518   8.2774   8.2976   8.3161   8.3655   8.3959   8.4154   8.4601
     8.4829   8.5087   8.5223   8.5641   8.5714   8.6185   8.6339   8.6856
     8.7096   8.7483   8.8001   8.8310

          k = 0.2500-0.2485-0.2500 ( 80235 PWs)   bands (ev):

   -41.9224 -41.9224 -41.8180 -41.8180 -41.6524 -41.6524 -41.6428 -41.6428
   -41.5389 -41.5389 -41.5310 -41.5310 -41.4510 -41.4510 -41.4479 -41.4479
   -41.4292 -41.4292 -41.4253 -41.4253 -41.4168 -41.4168 -41.4100 -41.4100
   -41.3846 -41.3846 -41.3703 -41.3703 -41.3443 -41.3443 -41.3405 -41.3405
   -41.3255 -41.3255 -41.3187 -41.3187 -41.3177 -41.3177 -41.3062 -41.3062
   -41.3047 -41.3047 -41.2789 -41.2789 -41.2672 -41.2672 -41.2530 -41.2530
   -41.2493 -41.2493 -41.2355 -41.2355 -41.2305 -41.2305 -41.2255 -41.2255
   -41.2019 -41.2019 -41.1854 -41.1854 -41.1662 -41.1662 -41.1642 -41.1642
   -41.1635 -41.1635 -41.1142 -41.1142 -41.1068 -41.1068 -41.0858 -41.0858
   -41.0849 -41.0849 -41.0628 -41.0628 -41.0449 -41.0449 -41.0421 -41.0421
   -40.9759 -40.9759 -40.9750 -40.9750 -40.9598 -40.9598 -40.9517 -40.9517
   -40.8759 -40.8759 -40.8558 -40.8558 -40.8486 -40.8486 -40.7370 -40.7370
   -40.2237 -40.2237 -40.1746 -40.1746 -40.0866 -40.0866 -39.9546 -39.9546
   -39.9448 -39.9448 -39.9001 -39.9001 -39.8910 -39.8910 -39.8054 -39.8054
   -39.7978 -39.7978 -39.7531 -39.7531 -39.7521 -39.7521 -39.7299 -39.7299
   -39.7294 -39.7294 -39.7178 -39.7178 -39.7110 -39.7110 -39.7003 -39.7003
   -39.6869 -39.6869 -39.6852 -39.6852 -39.6843 -39.6843 -39.6734 -39.6734
   -39.6713 -39.6713 -39.6700 -39.6700 -39.6613 -39.6613 -39.6308 -39.6308
   -39.6260 -39.6260 -39.6139 -39.6139 -39.6134 -39.6134 -39.6128 -39.6128
   -39.5887 -39.5887 -39.5875 -39.5875 -39.5814 -39.5814 -39.5811 -39.5811
   -39.5729 -39.5729 -39.5655 -39.5655 -39.5530 -39.5530 -39.5331 -39.5331
   -39.5326 -39.5326 -39.5312 -39.5312 -39.5291 -39.5291 -39.5141 -39.5141
   -39.5103 -39.5103 -39.5079 -39.5079 -39.5037 -39.5037 -39.4743 -39.4743
   -39.4708 -39.4708 -39.4686 -39.4686 -39.4663 -39.4663 -39.4580 -39.4580
   -39.4485 -39.4485 -39.4366 -39.4366 -39.4108 -39.4108 -39.4074 -39.4074
   -39.3876 -39.3876 -39.3825 -39.3825 -39.3706 -39.3706 -39.3644 -39.3644
   -39.3501 -39.3501 -39.3341 -39.3341 -39.3176 -39.3176 -39.3093 -39.3093
   -39.3067 -39.3067 -39.2597 -39.2597 -39.2531 -39.2531 -39.2489 -39.2489
   -39.2433 -39.2433 -39.2185 -39.2185 -39.2041 -39.2041 -39.1498 -39.1498
   -39.1497 -39.1497 -39.1271 -39.1271 -39.0976 -39.0976 -39.0036 -39.0036
   -16.9548 -16.9548 -16.7331 -16.7331 -16.4027 -16.4027 -16.3564 -16.3564
   -16.3176 -16.3176 -16.2905 -16.2905 -16.2351 -16.2351 -15.8719 -15.8719
   -14.3154 -14.3154 -14.3082 -14.3082 -14.2777 -14.2777 -14.2598 -14.2598
   -14.2058 -14.2058 -14.1939 -14.1939 -14.1913 -14.1913 -14.1709 -14.1709
   -14.0985 -14.0985 -14.0835 -14.0835 -14.0786 -14.0786 -14.0766 -14.0766
   -14.0641 -14.0641 -14.0539 -14.0539 -14.0033 -14.0033 -13.9893 -13.9893
   -11.7843 -11.7842 -11.7606 -11.7606 -11.7414 -11.7413 -11.7256 -11.7256
   -11.7189 -11.7188 -11.6831 -11.6831 -11.6740 -11.6739 -11.6571 -11.6571
   -11.6564 -11.6563 -11.6261 -11.6260 -11.6141 -11.6140 -11.5959 -11.5959
   -11.5725 -11.5724 -11.5539 -11.5537 -11.5469 -11.5469 -11.5418 -11.5416
   -11.5294 -11.5293 -11.5132 -11.5131 -11.5010 -11.5010 -11.4946 -11.4945
   -11.4745 -11.4744 -11.4657 -11.4657 -11.4502 -11.4501 -11.4109 -11.4109
    -9.3093  -9.3093  -9.2475  -9.2475  -9.2081  -9.2081  -9.1089  -9.1088
    -9.0897  -9.0897  -9.0701  -9.0701  -8.9974  -8.9974  -8.9845  -8.9845
    -8.6335  -8.6334  -8.4236  -8.4235  -8.3221  -8.3218  -8.1914  -8.1899
    -8.1523  -8.1510  -8.1062  -8.1057  -8.0335  -8.0309  -7.9953  -7.9948
    -7.9679  -7.9663  -7.9238  -7.9221  -7.8862  -7.8841  -7.8457  -7.8435
    -7.8208  -7.8194  -7.7944  -7.7922  -7.7455  -7.7431  -7.6943  -7.6940
    -7.6638  -7.6623  -7.6345  -7.6316  -7.6233  -7.6209  -7.5754  -7.5747
    -7.5100  -7.5090  -7.4242  -7.4239  -7.3949  -7.3947  -7.3061  -7.3059
    -6.5998  -6.5998  -6.4839  -6.4839  -6.2083  -6.2083  -6.1291  -6.1291
    -6.1144  -6.1144  -6.1036  -6.1036  -6.0037  -6.0036  -5.9895  -5.9894
    -5.8654  -5.8654  -5.7702  -5.7702  -5.7236  -5.7236  -5.5426  -5.5426
    -5.5274  -5.5274  -5.4628  -5.4628  -5.1529  -5.1529  -5.1253  -5.1253
    -4.2900  -4.2894  -3.9891  -3.9885  -3.9269  -3.9259  -3.8178  -3.8170
    -3.7960  -3.7946  -3.6619  -3.6616  -3.6010  -3.6000  -3.5278  -3.5265
    -3.4961  -3.4947  -3.4778  -3.4770  -3.4473  -3.4465  -3.4281  -3.4279
    -3.4025  -3.4015  -3.3389  -3.3388  -3.1938  -3.1932  -3.0537  -3.0521
    -1.7474  -1.7471  -1.6506  -1.6504  -1.6099  -1.6097  -1.5269  -1.5266
    -1.4444  -1.4439  -1.4241  -1.4231  -1.3932  -1.3924  -1.3780  -1.3768
    -1.3379  -1.3377  -1.2299  -1.2292  -1.2210  -1.2207  -1.1272  -1.1269
    -1.1109  -1.1089  -1.1019  -1.1003  -1.0909  -1.0901  -1.0100  -1.0095
     0.3091   0.3315   0.3765   0.3916   0.4272   0.4499   0.4758   0.4927
     0.5044   0.5201   0.5557   0.5598   0.6036   0.6150   0.6272   0.6326
     0.6664   0.6804   0.6961   0.6987   0.8128   0.8243   0.8856   0.9009
     1.1420   1.1782   1.2287   1.2594   1.2743   1.2963   1.3047   1.3393
     1.3992   1.4226   1.4683   1.4958   1.5102   1.5383   1.5764   1.5929
     1.6059   1.6427   1.6785   1.6939   1.7099   1.7400   1.7740   1.7931
     1.8108   1.8333   1.8614   1.8903   1.9066   1.9299   1.9419   1.9525
     1.9676   1.9786   2.0276   2.0350   2.0470   2.0591   2.0731   2.0935
     2.1309   2.1440   2.1715   2.1839   2.1996   2.2132   2.2397   2.2534
     2.2612   2.2771   2.2974   2.3108   2.3205   2.3467   2.3590   2.3700
     2.3854   2.3923   2.4000   2.4066   2.4268   2.4379   2.4522   2.4747
     2.4847   2.5109   2.5130   2.5364   2.5546   2.5715   2.5920   2.6083
     2.6356   2.6550   2.6772   2.6954   2.7063   2.7385   2.7562   2.7746
     2.7817   2.8079   2.8165   2.8400   2.8479   2.8783   2.8849   2.9002
     2.9108   2.9318   2.9436   2.9701   2.9796   2.9913   3.0003   3.0277
     3.0375   3.0605   3.0664   3.0883   3.1101   3.1218   3.1422   3.1553
     3.1669   3.1780   3.2105   3.2179   3.2405   3.2522   3.2653   3.2774
     3.3239   3.3578   3.3784   3.4077   3.4428   3.4653   3.5501   3.5953
     5.2912   5.4214   5.6744   5.7394   5.7645   5.7905   5.8947   5.9441
     6.2527   6.2749   6.3502   6.3990   6.4255   6.5052   6.5593   6.6327
     6.6665   6.7374   6.8298   6.8540   6.9167   6.9496   7.0025   7.0397
     7.4218   7.4411   7.5643   7.6156   7.8217   7.8430   7.8904   7.9073
     7.9839   8.0134   8.0628   8.0876   8.0951   8.1225   8.1828   8.2073
     8.2316   8.2692   8.3008   8.3480   8.3696   8.3956   8.4328   8.4567
     8.4911   8.5177   8.5541   8.5605   8.5940   8.6278   8.6625   8.7212
     8.7380   8.7587   8.7912   8.8480

          k =-0.2500 0.2485 0.5000 ( 80230 PWs)   bands (ev):

   -41.9224 -41.9224 -41.8180 -41.8180 -41.6524 -41.6524 -41.6428 -41.6428
   -41.5389 -41.5389 -41.5310 -41.5310 -41.4510 -41.4510 -41.4479 -41.4479
   -41.4292 -41.4292 -41.4253 -41.4253 -41.4168 -41.4168 -41.4100 -41.4100
   -41.3846 -41.3846 -41.3703 -41.3703 -41.3443 -41.3443 -41.3405 -41.3405
   -41.3255 -41.3255 -41.3187 -41.3187 -41.3177 -41.3177 -41.3062 -41.3062
   -41.3047 -41.3047 -41.2789 -41.2789 -41.2672 -41.2672 -41.2530 -41.2530
   -41.2493 -41.2493 -41.2355 -41.2355 -41.2305 -41.2305 -41.2255 -41.2255
   -41.2019 -41.2019 -41.1854 -41.1854 -41.1662 -41.1662 -41.1642 -41.1642
   -41.1635 -41.1635 -41.1142 -41.1142 -41.1068 -41.1068 -41.0858 -41.0858
   -41.0849 -41.0849 -41.0628 -41.0628 -41.0449 -41.0449 -41.0421 -41.0421
   -40.9759 -40.9759 -40.9750 -40.9750 -40.9598 -40.9598 -40.9517 -40.9517
   -40.8759 -40.8759 -40.8558 -40.8558 -40.8486 -40.8486 -40.7370 -40.7370
   -40.2237 -40.2237 -40.1746 -40.1746 -40.0866 -40.0866 -39.9546 -39.9546
   -39.9448 -39.9448 -39.9001 -39.9001 -39.8910 -39.8910 -39.8054 -39.8054
   -39.7978 -39.7978 -39.7531 -39.7531 -39.7521 -39.7521 -39.7299 -39.7299
   -39.7294 -39.7294 -39.7178 -39.7178 -39.7110 -39.7110 -39.7003 -39.7003
   -39.6869 -39.6869 -39.6852 -39.6852 -39.6843 -39.6843 -39.6734 -39.6734
   -39.6713 -39.6713 -39.6700 -39.6700 -39.6613 -39.6613 -39.6308 -39.6308
   -39.6260 -39.6260 -39.6139 -39.6139 -39.6134 -39.6134 -39.6128 -39.6128
   -39.5887 -39.5887 -39.5875 -39.5875 -39.5814 -39.5814 -39.5811 -39.5811
   -39.5729 -39.5729 -39.5655 -39.5655 -39.5530 -39.5530 -39.5331 -39.5331
   -39.5326 -39.5326 -39.5311 -39.5311 -39.5291 -39.5291 -39.5141 -39.5141
   -39.5103 -39.5103 -39.5079 -39.5079 -39.5037 -39.5037 -39.4743 -39.4743
   -39.4708 -39.4708 -39.4686 -39.4686 -39.4663 -39.4663 -39.4580 -39.4580
   -39.4485 -39.4485 -39.4366 -39.4366 -39.4108 -39.4108 -39.4074 -39.4074
   -39.3876 -39.3876 -39.3825 -39.3825 -39.3706 -39.3706 -39.3644 -39.3644
   -39.3501 -39.3501 -39.3341 -39.3341 -39.3176 -39.3176 -39.3093 -39.3093
   -39.3067 -39.3067 -39.2597 -39.2597 -39.2531 -39.2531 -39.2489 -39.2489
   -39.2433 -39.2433 -39.2185 -39.2185 -39.2041 -39.2041 -39.1498 -39.1498
   -39.1497 -39.1497 -39.1271 -39.1271 -39.0976 -39.0976 -39.0036 -39.0036
   -16.9548 -16.9548 -16.7331 -16.7331 -16.4027 -16.4027 -16.3564 -16.3564
   -16.3176 -16.3176 -16.2905 -16.2905 -16.2350 -16.2350 -15.8719 -15.8719
   -14.3154 -14.3154 -14.3082 -14.3082 -14.2777 -14.2776 -14.2598 -14.2598
   -14.2058 -14.2058 -14.1939 -14.1939 -14.1913 -14.1913 -14.1709 -14.1709
   -14.0985 -14.0985 -14.0835 -14.0835 -14.0786 -14.0785 -14.0766 -14.0766
   -14.0641 -14.0641 -14.0539 -14.0539 -14.0033 -14.0033 -13.9893 -13.9893
   -11.7843 -11.7842 -11.7605 -11.7605 -11.7414 -11.7413 -11.7256 -11.7256
   -11.7188 -11.7188 -11.6831 -11.6831 -11.6741 -11.6741 -11.6571 -11.6571
   -11.6563 -11.6563 -11.6260 -11.6259 -11.6141 -11.6140 -11.5959 -11.5959
   -11.5725 -11.5724 -11.5539 -11.5537 -11.5469 -11.5469 -11.5417 -11.5414
   -11.5295 -11.5295 -11.5133 -11.5132 -11.5010 -11.5010 -11.4945 -11.4945
   -11.4745 -11.4744 -11.4658 -11.4657 -11.4503 -11.4502 -11.4109 -11.4109
    -9.3090  -9.3090  -9.2475  -9.2475  -9.2085  -9.2084  -9.1091  -9.1091
    -9.0896  -9.0896  -9.0701  -9.0701  -8.9973  -8.9973  -8.9844  -8.9844
    -8.6319  -8.6318  -8.4238  -8.4237  -8.3156  -8.3153  -8.1872  -8.1857
    -8.1591  -8.1576  -8.1187  -8.1180  -8.0545  -8.0521  -7.9911  -7.9907
    -7.9703  -7.9688  -7.9209  -7.9193  -7.8656  -7.8636  -7.8496  -7.8467
    -7.8186  -7.8178  -7.7970  -7.7942  -7.7445  -7.7430  -7.6885  -7.6871
    -7.6622  -7.6604  -7.6306  -7.6282  -7.6212  -7.6193  -7.5735  -7.5722
    -7.5119  -7.5109  -7.4260  -7.4257  -7.3971  -7.3969  -7.3091  -7.3088
    -6.5999  -6.5999  -6.4841  -6.4841  -6.2083  -6.2083  -6.1290  -6.1290
    -6.1145  -6.1144  -6.1036  -6.1035  -6.0023  -6.0023  -5.9905  -5.9905
    -5.8648  -5.8648  -5.7698  -5.7698  -5.7237  -5.7237  -5.5425  -5.5425
    -5.5275  -5.5275  -5.4628  -5.4628  -5.1529  -5.1529  -5.1255  -5.1255
    -4.1561  -4.1554  -4.0983  -4.0976  -3.8583  -3.8571  -3.7868  -3.7858
    -3.7256  -3.7247  -3.6876  -3.6865  -3.6591  -3.6573  -3.6408  -3.6396
    -3.5078  -3.5065  -3.4819  -3.4816  -3.4474  -3.4470  -3.4413  -3.4411
    -3.3615  -3.3609  -3.2915  -3.2905  -3.2408  -3.2403  -3.1661  -3.1656
    -1.7473  -1.7470  -1.6501  -1.6500  -1.6098  -1.6097  -1.5266  -1.5264
    -1.4440  -1.4438  -1.4241  -1.4239  -1.3933  -1.3923  -1.3784  -1.3773
    -1.3365  -1.3363  -1.2294  -1.2290  -1.2211  -1.2208  -1.1234  -1.1229
    -1.1098  -1.1095  -1.1026  -1.1015  -1.0899  -1.0892  -1.0119  -1.0116
     0.3356   0.3583   0.3990   0.4094   0.4518   0.4592   0.4818   0.4972
     0.5725   0.5759   0.5998   0.6099   0.7030   0.7196   0.7350   0.7407
     0.7825   0.8003   0.9028   0.9084   1.0675   1.0848   1.1188   1.1305
     1.1530   1.1666   1.1819   1.1984   1.2155   1.2369   1.2652   1.2998
     1.3054   1.3285   1.3620   1.3990   1.4371   1.4644   1.5007   1.5280
     1.5507   1.5609   1.6146   1.6282   1.6753   1.7018   1.7158   1.7671
     1.7703   1.8081   1.8247   1.8488   1.8663   1.8756   1.8910   1.9152
     1.9372   1.9603   1.9873   1.9994   2.0148   2.0301   2.0489   2.0637
     2.0892   2.1165   2.1400   2.1578   2.1786   2.2043   2.2162   2.2387
     2.2605   2.2669   2.2795   2.2932   2.3077   2.3152   2.3245   2.3405
     2.3567   2.3628   2.3782   2.3917   2.4070   2.4205   2.4360   2.4496
     2.4702   2.4742   2.5012   2.5075   2.5251   2.5643   2.5788   2.5922
     2.6353   2.6493   2.6834   2.7030   2.7152   2.7257   2.7590   2.7723
     2.7904   2.8099   2.8210   2.8434   2.8626   2.8721   2.8961   2.8992
     2.9144   2.9289   2.9372   2.9593   2.9718   2.9923   3.0039   3.0153
     3.0227   3.0499   3.0559   3.0778   3.0860   3.1014   3.1194   3.1330
     3.1458   3.1603   3.1749   3.1957   3.2015   3.2301   3.2399   3.2532
     3.2676   3.2756   3.3335   3.3675   3.3861   3.4388   3.4651   3.4974
     5.5723   5.5811   5.6818   5.7261   6.0020   6.0693   6.1007   6.1763
     6.2546   6.3000   6.3245   6.3610   6.6739   6.7161   6.8012   6.8300
     6.8959   6.9789   7.0198   7.0914   7.2932   7.3525   7.3586   7.4576
     7.5076   7.5598   7.5824   7.6154   7.6590   7.6998   7.7314   7.7713
     7.7885   7.8208   7.8565   7.8754   7.9792   8.0123   8.0717   8.0899
     8.1322   8.1618   8.1747   8.1897   8.2824   8.2997   8.3136   8.3774
     8.3986   8.4367   8.4582   8.5037   8.5428   8.5810   8.6023   8.6277
     8.6779   8.6954   8.7357   8.7692

          k =-0.5000-0.2485 0.2500 ( 80230 PWs)   bands (ev):

   -41.9224 -41.9224 -41.8180 -41.8180 -41.6524 -41.6524 -41.6428 -41.6428
   -41.5389 -41.5389 -41.5310 -41.5310 -41.4510 -41.4510 -41.4479 -41.4479
   -41.4292 -41.4292 -41.4253 -41.4253 -41.4168 -41.4168 -41.4100 -41.4100
   -41.3846 -41.3846 -41.3703 -41.3703 -41.3443 -41.3443 -41.3405 -41.3405
   -41.3255 -41.3255 -41.3187 -41.3187 -41.3177 -41.3177 -41.3062 -41.3062
   -41.3047 -41.3047 -41.2788 -41.2788 -41.2672 -41.2672 -41.2530 -41.2530
   -41.2493 -41.2493 -41.2355 -41.2355 -41.2305 -41.2305 -41.2255 -41.2255
   -41.2019 -41.2019 -41.1854 -41.1854 -41.1662 -41.1662 -41.1642 -41.1642
   -41.1635 -41.1635 -41.1142 -41.1142 -41.1068 -41.1068 -41.0858 -41.0858
   -41.0849 -41.0849 -41.0628 -41.0628 -41.0449 -41.0449 -41.0421 -41.0421
   -40.9759 -40.9759 -40.9750 -40.9750 -40.9598 -40.9598 -40.9517 -40.9517
   -40.8759 -40.8759 -40.8558 -40.8558 -40.8486 -40.8486 -40.7370 -40.7370
   -40.2237 -40.2237 -40.1746 -40.1746 -40.0866 -40.0866 -39.9546 -39.9546
   -39.9447 -39.9447 -39.9001 -39.9001 -39.8910 -39.8910 -39.8054 -39.8054
   -39.7978 -39.7978 -39.7531 -39.7531 -39.7521 -39.7521 -39.7299 -39.7299
   -39.7294 -39.7294 -39.7178 -39.7178 -39.7110 -39.7110 -39.7003 -39.7003
   -39.6869 -39.6869 -39.6852 -39.6852 -39.6843 -39.6843 -39.6734 -39.6734
   -39.6713 -39.6713 -39.6700 -39.6700 -39.6613 -39.6613 -39.6308 -39.6308
   -39.6260 -39.6260 -39.6139 -39.6139 -39.6134 -39.6134 -39.6128 -39.6128
   -39.5887 -39.5887 -39.5875 -39.5875 -39.5814 -39.5814 -39.5811 -39.5811
   -39.5729 -39.5729 -39.5655 -39.5655 -39.5530 -39.5530 -39.5331 -39.5331
   -39.5326 -39.5326 -39.5311 -39.5311 -39.5291 -39.5291 -39.5141 -39.5141
   -39.5103 -39.5103 -39.5079 -39.5079 -39.5037 -39.5037 -39.4743 -39.4743
   -39.4708 -39.4708 -39.4686 -39.4686 -39.4663 -39.4663 -39.4580 -39.4580
   -39.4485 -39.4485 -39.4366 -39.4366 -39.4108 -39.4108 -39.4074 -39.4074
   -39.3876 -39.3876 -39.3824 -39.3824 -39.3706 -39.3706 -39.3644 -39.3644
   -39.3501 -39.3501 -39.3341 -39.3341 -39.3176 -39.3176 -39.3093 -39.3093
   -39.3067 -39.3067 -39.2597 -39.2597 -39.2531 -39.2531 -39.2489 -39.2489
   -39.2433 -39.2433 -39.2185 -39.2185 -39.2041 -39.2041 -39.1498 -39.1498
   -39.1497 -39.1497 -39.1271 -39.1271 -39.0976 -39.0976 -39.0036 -39.0036
   -16.9548 -16.9548 -16.7331 -16.7331 -16.4027 -16.4027 -16.3564 -16.3564
   -16.3176 -16.3176 -16.2905 -16.2905 -16.2351 -16.2351 -15.8719 -15.8719
   -14.3154 -14.3154 -14.3082 -14.3082 -14.2777 -14.2777 -14.2598 -14.2598
   -14.2058 -14.2058 -14.1939 -14.1939 -14.1913 -14.1913 -14.1709 -14.1709
   -14.0985 -14.0985 -14.0835 -14.0835 -14.0785 -14.0785 -14.0766 -14.0766
   -14.0641 -14.0641 -14.0539 -14.0539 -14.0033 -14.0032 -13.9893 -13.9893
   -11.7841 -11.7841 -11.7606 -11.7606 -11.7414 -11.7413 -11.7256 -11.7256
   -11.7188 -11.7188 -11.6831 -11.6831 -11.6740 -11.6740 -11.6570 -11.6569
   -11.6565 -11.6565 -11.6261 -11.6261 -11.6140 -11.6140 -11.5959 -11.5959
   -11.5721 -11.5720 -11.5535 -11.5535 -11.5469 -11.5468 -11.5424 -11.5424
   -11.5295 -11.5295 -11.5133 -11.5131 -11.5010 -11.5010 -11.4946 -11.4945
   -11.4745 -11.4744 -11.4659 -11.4658 -11.4502 -11.4501 -11.4109 -11.4109
    -9.3094  -9.3094  -9.2475  -9.2475  -9.2072  -9.2072  -9.1088  -9.1088
    -9.0893  -9.0893  -9.0706  -9.0706  -8.9985  -8.9984  -8.9860  -8.9860
    -8.6276  -8.6275  -8.4180  -8.4179  -8.3153  -8.3151  -8.2204  -8.2192
    -8.1414  -8.1403  -8.1100  -8.1092  -8.0517  -8.0505  -8.0114  -8.0083
    -7.9647  -7.9635  -7.9245  -7.9226  -7.8950  -7.8919  -7.8389  -7.8360
    -7.7981  -7.7958  -7.7670  -7.7650  -7.7341  -7.7330  -7.6876  -7.6867
    -7.6756  -7.6733  -7.6463  -7.6446  -7.6228  -7.6208  -7.5747  -7.5728
    -7.5094  -7.5089  -7.4295  -7.4291  -7.3966  -7.3964  -7.3063  -7.3059
    -6.5997  -6.5997  -6.4839  -6.4838  -6.2084  -6.2084  -6.1290  -6.1290
    -6.1147  -6.1146  -6.1032  -6.1032  -6.0035  -6.0034  -5.9899  -5.9898
    -5.8659  -5.8658  -5.7702  -5.7702  -5.7238  -5.7237  -5.5426  -5.5426
    -5.5273  -5.5273  -5.4627  -5.4627  -5.1523  -5.1523  -5.1251  -5.1250
    -4.1538  -4.1534  -4.0768  -4.0760  -3.8613  -3.8604  -3.8125  -3.8110
    -3.7492  -3.7487  -3.6683  -3.6676  -3.6435  -3.6423  -3.6180  -3.6164
    -3.5310  -3.5300  -3.4827  -3.4824  -3.4503  -3.4496  -3.4305  -3.4295
    -3.3791  -3.3785  -3.3298  -3.3294  -3.2253  -3.2243  -3.1502  -3.1497
    -1.7460  -1.7460  -1.6503  -1.6501  -1.6099  -1.6098  -1.5265  -1.5263
    -1.4448  -1.4439  -1.4236  -1.4229  -1.3891  -1.3890  -1.3803  -1.3802
    -1.3377  -1.3376  -1.2298  -1.2294  -1.2210  -1.2206  -1.1269  -1.1262
    -1.1105  -1.1093  -1.1007  -1.0998  -1.0921  -1.0912  -1.0085  -1.0082
     0.3522   0.3813   0.4297   0.4494   0.4730   0.4888   0.5630   0.5751
     0.5905   0.6087   0.6161   0.6278   0.6606   0.6875   0.7547   0.7680
     0.8603   0.8709   0.9135   0.9303   0.9522   0.9832   1.0386   1.0577
     1.1213   1.1363   1.1588   1.1710   1.1954   1.2043   1.2318   1.2575
     1.2884   1.3219   1.3953   1.4265   1.4612   1.4695   1.5054   1.5336
     1.5507   1.5679   1.5885   1.6023   1.6342   1.6623   1.6932   1.7264
     1.7783   1.8079   1.8313   1.8442   1.8806   1.8894   1.9009   1.9290
     1.9455   1.9643   1.9840   1.9979   2.0230   2.0448   2.0615   2.0656
     2.0934   2.1138   2.1419   2.1505   2.1607   2.1972   2.2130   2.2253
     2.2479   2.2559   2.2636   2.2794   2.2969   2.3066   2.3235   2.3386
     2.3439   2.3608   2.3781   2.3904   2.4083   2.4143   2.4319   2.4605
     2.4757   2.4945   2.5079   2.5280   2.5387   2.5629   2.5729   2.5968
     2.6222   2.6492   2.6609   2.7050   2.7170   2.7380   2.7517   2.7839
     2.7905   2.8158   2.8249   2.8353   2.8634   2.8858   2.8919   2.9058
     2.9136   2.9275   2.9475   2.9625   2.9789   2.9854   3.0070   3.0133
     3.0480   3.0564   3.0712   3.0848   3.1079   3.1225   3.1256   3.1388
     3.1628   3.1692   3.1889   3.2062   3.2111   3.2190   3.2345   3.2424
     3.2788   3.2950   3.3060   3.3262   3.3644   3.4017   3.4913   3.5684
     5.5307   5.5407   5.6421   5.8164   5.9306   6.0070   6.1458   6.1688
     6.2242   6.2844   6.3295   6.4105   6.5666   6.5851   6.7190   6.9185
     7.0536   7.1062   7.1485   7.2149   7.2873   7.3635   7.4697   7.4908
     7.5328   7.5450   7.5943   7.6201   7.6551   7.6647   7.6964   7.7397
     7.7735   7.8121   7.8777   7.8973   7.9897   8.0088   8.0578   8.0982
     8.1395   8.1887   8.2131   8.2424   8.2888   8.3168   8.3202   8.3381
     8.4000   8.4385   8.4696   8.5035   8.5224   8.5842   8.5958   8.6127
     8.6451   8.6671   8.6952   8.7346

          k = 0.5000-0.2485-0.2500 ( 80230 PWs)   bands (ev):

   -41.9224 -41.9224 -41.8180 -41.8180 -41.6524 -41.6524 -41.6428 -41.6428
   -41.5389 -41.5389 -41.5310 -41.5310 -41.4510 -41.4510 -41.4479 -41.4479
   -41.4292 -41.4292 -41.4253 -41.4253 -41.4168 -41.4168 -41.4100 -41.4100
   -41.3846 -41.3846 -41.3703 -41.3703 -41.3443 -41.3443 -41.3405 -41.3405
   -41.3255 -41.3255 -41.3187 -41.3187 -41.3177 -41.3177 -41.3062 -41.3062
   -41.3047 -41.3047 -41.2788 -41.2788 -41.2672 -41.2672 -41.2530 -41.2530
   -41.2493 -41.2493 -41.2355 -41.2355 -41.2305 -41.2305 -41.2255 -41.2255
   -41.2019 -41.2019 -41.1854 -41.1854 -41.1662 -41.1662 -41.1642 -41.1642
   -41.1635 -41.1635 -41.1142 -41.1142 -41.1068 -41.1068 -41.0858 -41.0858
   -41.0849 -41.0849 -41.0628 -41.0628 -41.0449 -41.0449 -41.0421 -41.0421
   -40.9759 -40.9759 -40.9750 -40.9750 -40.9598 -40.9598 -40.9517 -40.9517
   -40.8759 -40.8759 -40.8558 -40.8558 -40.8486 -40.8486 -40.7370 -40.7370
   -40.2237 -40.2237 -40.1746 -40.1746 -40.0866 -40.0866 -39.9546 -39.9546
   -39.9447 -39.9447 -39.9001 -39.9001 -39.8910 -39.8910 -39.8054 -39.8054
   -39.7978 -39.7978 -39.7531 -39.7531 -39.7521 -39.7521 -39.7299 -39.7299
   -39.7294 -39.7294 -39.7178 -39.7178 -39.7110 -39.7110 -39.7003 -39.7003
   -39.6869 -39.6869 -39.6852 -39.6852 -39.6843 -39.6843 -39.6734 -39.6734
   -39.6713 -39.6713 -39.6700 -39.6700 -39.6613 -39.6613 -39.6308 -39.6308
   -39.6260 -39.6260 -39.6139 -39.6139 -39.6134 -39.6134 -39.6128 -39.6128
   -39.5887 -39.5887 -39.5875 -39.5875 -39.5814 -39.5814 -39.5811 -39.5811
   -39.5729 -39.5729 -39.5655 -39.5655 -39.5530 -39.5530 -39.5331 -39.5331
   -39.5326 -39.5326 -39.5311 -39.5311 -39.5291 -39.5291 -39.5141 -39.5141
   -39.5103 -39.5103 -39.5079 -39.5079 -39.5037 -39.5037 -39.4743 -39.4743
   -39.4708 -39.4708 -39.4686 -39.4686 -39.4663 -39.4663 -39.4580 -39.4580
   -39.4485 -39.4485 -39.4366 -39.4366 -39.4108 -39.4108 -39.4074 -39.4074
   -39.3876 -39.3876 -39.3824 -39.3824 -39.3706 -39.3706 -39.3644 -39.3644
   -39.3501 -39.3501 -39.3341 -39.3341 -39.3176 -39.3176 -39.3093 -39.3093
   -39.3067 -39.3067 -39.2597 -39.2597 -39.2531 -39.2531 -39.2489 -39.2489
   -39.2433 -39.2433 -39.2185 -39.2185 -39.2041 -39.2041 -39.1498 -39.1498
   -39.1497 -39.1497 -39.1271 -39.1271 -39.0976 -39.0976 -39.0036 -39.0036
   -16.9548 -16.9548 -16.7331 -16.7331 -16.4027 -16.4027 -16.3564 -16.3564
   -16.3176 -16.3176 -16.2905 -16.2905 -16.2350 -16.2350 -15.8719 -15.8719
   -14.3154 -14.3154 -14.3082 -14.3082 -14.2777 -14.2777 -14.2598 -14.2598
   -14.2058 -14.2058 -14.1939 -14.1939 -14.1913 -14.1913 -14.1709 -14.1709
   -14.0985 -14.0985 -14.0835 -14.0835 -14.0785 -14.0785 -14.0766 -14.0766
   -14.0641 -14.0641 -14.0539 -14.0539 -14.0033 -14.0032 -13.9893 -13.9893
   -11.7841 -11.7841 -11.7606 -11.7606 -11.7414 -11.7413 -11.7256 -11.7256
   -11.7188 -11.7188 -11.6831 -11.6831 -11.6740 -11.6739 -11.6570 -11.6570
   -11.6565 -11.6565 -11.6261 -11.6260 -11.6140 -11.6140 -11.5959 -11.5959
   -11.5721 -11.5720 -11.5535 -11.5535 -11.5469 -11.5469 -11.5424 -11.5424
   -11.5295 -11.5295 -11.5133 -11.5132 -11.5010 -11.5010 -11.4945 -11.4945
   -11.4745 -11.4744 -11.4658 -11.4658 -11.4502 -11.4501 -11.4109 -11.4109
    -9.3094  -9.3094  -9.2475  -9.2475  -9.2072  -9.2072  -9.1088  -9.1088
    -9.0892  -9.0892  -9.0706  -9.0706  -8.9986  -8.9986  -8.9859  -8.9859
    -8.6277  -8.6276  -8.4175  -8.4175  -8.3159  -8.3157  -8.2174  -8.2165
    -8.1481  -8.1475  -8.1112  -8.1103  -8.0353  -8.0337  -8.0216  -8.0187
    -7.9660  -7.9643  -7.9248  -7.9233  -7.8932  -7.8905  -7.8395  -7.8376
    -7.7972  -7.7953  -7.7682  -7.7665  -7.7340  -7.7331  -7.6894  -7.6888
    -7.6724  -7.6717  -7.6438  -7.6402  -7.6247  -7.6221  -7.5769  -7.5762
    -7.5081  -7.5070  -7.4293  -7.4290  -7.3967  -7.3965  -7.3065  -7.3063
    -6.5997  -6.5997  -6.4838  -6.4838  -6.2084  -6.2084  -6.1291  -6.1291
    -6.1144  -6.1144  -6.1035  -6.1035  -6.0036  -6.0035  -5.9897  -5.9896
    -5.8658  -5.8658  -5.7702  -5.7702  -5.7237  -5.7237  -5.5427  -5.5427
    -5.5272  -5.5272  -5.4627  -5.4627  -5.1523  -5.1523  -5.1251  -5.1251
    -4.1562  -4.1556  -4.0780  -4.0773  -3.8603  -3.8594  -3.7980  -3.7972
    -3.7508  -3.7503  -3.6728  -3.6722  -3.6374  -3.6363  -3.6258  -3.6245
    -3.5319  -3.5310  -3.4865  -3.4863  -3.4514  -3.4509  -3.4326  -3.4320
    -3.3735  -3.3728  -3.3394  -3.3390  -3.2199  -3.2185  -3.1468  -3.1464
    -1.7461  -1.7459  -1.6503  -1.6501  -1.6098  -1.6097  -1.5265  -1.5264
    -1.4445  -1.4439  -1.4242  -1.4233  -1.3888  -1.3887  -1.3804  -1.3802
    -1.3377  -1.3376  -1.2297  -1.2291  -1.2209  -1.2208  -1.1268  -1.1265
    -1.1100  -1.1090  -1.1004  -1.0996  -1.0926  -1.0917  -1.0086  -1.0083
     0.3334   0.3648   0.4396   0.4593   0.4769   0.4901   0.5556   0.5649
     0.5834   0.5971   0.6242   0.6311   0.6735   0.6992   0.7828   0.7919
     0.8591   0.8756   0.9068   0.9210   0.9342   0.9588   1.0411   1.0633
     1.1166   1.1363   1.1496   1.1740   1.1850   1.2046   1.2272   1.2750
     1.3047   1.3394   1.4004   1.4099   1.4441   1.4866   1.5093   1.5325
     1.5437   1.5567   1.5836   1.6051   1.6392   1.6534   1.7115   1.7349
     1.7603   1.8087   1.8235   1.8470   1.8779   1.8976   1.9239   1.9329
     1.9506   1.9698   1.9895   2.0045   2.0161   2.0353   2.0542   2.0621
     2.0914   2.1193   2.1378   2.1479   2.1793   2.1861   2.2139   2.2251
     2.2361   2.2416   2.2683   2.2863   2.2967   2.3052   2.3275   2.3362
     2.3450   2.3649   2.3705   2.3924   2.4060   2.4174   2.4362   2.4555
     2.4727   2.4892   2.5032   2.5261   2.5381   2.5598   2.5878   2.5947
     2.6357   2.6479   2.6634   2.7054   2.7096   2.7338   2.7460   2.7684
     2.7935   2.8054   2.8361   2.8410   2.8630   2.8791   2.8925   2.9098
     2.9164   2.9217   2.9457   2.9574   2.9731   2.9865   3.0097   3.0155
     3.0288   3.0585   3.0651   3.0776   3.0966   3.1135   3.1242   3.1382
     3.1627   3.1734   3.1840   3.1983   3.2130   3.2278   3.2344   3.2573
     3.2801   3.2885   3.3272   3.3407   3.3798   3.4186   3.5002   3.5518
     5.5157   5.5491   5.6701   5.8125   5.9301   5.9765   6.1561   6.1681
     6.1787   6.2851   6.3153   6.4094   6.5772   6.6419   6.7589   6.9046
     7.0404   7.1076   7.1520   7.2064   7.2945   7.3685   7.4619   7.4732
     7.5519   7.5639   7.5778   7.6081   7.6446   7.6500   7.6946   7.7355
     7.7578   7.8044   7.8974   7.9076   7.9922   8.0041   8.0630   8.0949
     8.1416   8.1672   8.2063   8.2378   8.2974   8.3312   8.3531   8.3717
     8.3879   8.4301   8.4672   8.5106   8.5481   8.5791   8.5859   8.6202
     8.6283   8.6377   8.6798   8.7493

          k =-0.2500 0.4969 0.2500 ( 80272 PWs)   bands (ev):

   -41.9224 -41.9224 -41.8180 -41.8180 -41.6524 -41.6524 -41.6428 -41.6428
   -41.5389 -41.5389 -41.5310 -41.5310 -41.4510 -41.4510 -41.4479 -41.4479
   -41.4292 -41.4292 -41.4254 -41.4254 -41.4168 -41.4168 -41.4100 -41.4100
   -41.3846 -41.3846 -41.3703 -41.3703 -41.3443 -41.3443 -41.3405 -41.3405
   -41.3255 -41.3255 -41.3187 -41.3187 -41.3177 -41.3177 -41.3062 -41.3062
   -41.3047 -41.3047 -41.2789 -41.2789 -41.2672 -41.2672 -41.2530 -41.2530
   -41.2493 -41.2493 -41.2355 -41.2355 -41.2305 -41.2305 -41.2255 -41.2255
   -41.2019 -41.2019 -41.1854 -41.1854 -41.1662 -41.1662 -41.1642 -41.1642
   -41.1635 -41.1635 -41.1142 -41.1142 -41.1068 -41.1068 -41.0858 -41.0858
   -41.0849 -41.0849 -41.0628 -41.0628 -41.0449 -41.0449 -41.0421 -41.0421
   -40.9759 -40.9759 -40.9751 -40.9751 -40.9598 -40.9598 -40.9517 -40.9517
   -40.8759 -40.8759 -40.8558 -40.8558 -40.8486 -40.8486 -40.7370 -40.7370
   -40.2237 -40.2237 -40.1746 -40.1746 -40.0866 -40.0866 -39.9546 -39.9546
   -39.9448 -39.9448 -39.9001 -39.9001 -39.8910 -39.8910 -39.8054 -39.8054
   -39.7978 -39.7978 -39.7532 -39.7532 -39.7521 -39.7521 -39.7299 -39.7299
   -39.7294 -39.7294 -39.7178 -39.7178 -39.7110 -39.7110 -39.7003 -39.7003
   -39.6869 -39.6869 -39.6852 -39.6852 -39.6843 -39.6843 -39.6734 -39.6734
   -39.6713 -39.6713 -39.6700 -39.6700 -39.6613 -39.6613 -39.6308 -39.6308
   -39.6260 -39.6260 -39.6139 -39.6139 -39.6134 -39.6134 -39.6128 -39.6128
   -39.5887 -39.5887 -39.5875 -39.5875 -39.5814 -39.5814 -39.5811 -39.5811
   -39.5729 -39.5729 -39.5655 -39.5655 -39.5530 -39.5530 -39.5331 -39.5331
   -39.5326 -39.5326 -39.5312 -39.5312 -39.5291 -39.5291 -39.5141 -39.5141
   -39.5103 -39.5103 -39.5079 -39.5079 -39.5037 -39.5037 -39.4743 -39.4743
   -39.4708 -39.4708 -39.4686 -39.4686 -39.4663 -39.4663 -39.4580 -39.4580
   -39.4485 -39.4485 -39.4366 -39.4366 -39.4108 -39.4108 -39.4074 -39.4074
   -39.3876 -39.3876 -39.3825 -39.3825 -39.3706 -39.3706 -39.3644 -39.3644
   -39.3501 -39.3501 -39.3341 -39.3341 -39.3176 -39.3176 -39.3093 -39.3093
   -39.3067 -39.3067 -39.2597 -39.2597 -39.2531 -39.2531 -39.2489 -39.2489
   -39.2433 -39.2433 -39.2185 -39.2185 -39.2042 -39.2042 -39.1498 -39.1498
   -39.1497 -39.1497 -39.1271 -39.1271 -39.0976 -39.0976 -39.0036 -39.0036
   -16.9548 -16.9548 -16.7331 -16.7331 -16.4027 -16.4027 -16.3564 -16.3564
   -16.3176 -16.3176 -16.2905 -16.2905 -16.2351 -16.2351 -15.8719 -15.8719
   -14.3154 -14.3154 -14.3083 -14.3082 -14.2777 -14.2777 -14.2598 -14.2598
   -14.2059 -14.2059 -14.1939 -14.1939 -14.1913 -14.1913 -14.1710 -14.1710
   -14.0986 -14.0985 -14.0836 -14.0835 -14.0786 -14.0786 -14.0766 -14.0766
   -14.0641 -14.0641 -14.0539 -14.0539 -14.0033 -14.0033 -13.9893 -13.9893
   -11.7843 -11.7842 -11.7606 -11.7606 -11.7412 -11.7412 -11.7256 -11.7256
   -11.7189 -11.7189 -11.6830 -11.6830 -11.6742 -11.6741 -11.6572 -11.6572
   -11.6563 -11.6562 -11.6260 -11.6259 -11.6141 -11.6141 -11.5959 -11.5959
   -11.5728 -11.5726 -11.5539 -11.5537 -11.5469 -11.5469 -11.5418 -11.5416
   -11.5294 -11.5293 -11.5130 -11.5130 -11.5010 -11.5010 -11.4946 -11.4946
   -11.4744 -11.4744 -11.4658 -11.4658 -11.4503 -11.4503 -11.4109 -11.4109
    -9.3093  -9.3093  -9.2476  -9.2476  -9.2081  -9.2081  -9.1080  -9.1080
    -9.0906  -9.0906  -9.0701  -9.0701  -8.9963  -8.9962  -8.9857  -8.9857
    -8.6320  -8.6319  -8.4151  -8.4149  -8.3357  -8.3356  -8.1921  -8.1905
    -8.1539  -8.1524  -8.0992  -8.0985  -8.0466  -8.0451  -7.9932  -7.9919
    -7.9735  -7.9724  -7.9224  -7.9212  -7.8908  -7.8883  -7.8314  -7.8308
    -7.8129  -7.8121  -7.8001  -7.7992  -7.7421  -7.7399  -7.7021  -7.7019
    -7.6659  -7.6639  -7.6311  -7.6288  -7.6114  -7.6094  -7.5593  -7.5584
    -7.5231  -7.5228  -7.4248  -7.4245  -7.3964  -7.3961  -7.3110  -7.3108
    -6.5998  -6.5998  -6.4839  -6.4839  -6.2079  -6.2079  -6.1291  -6.1291
    -6.1121  -6.1121  -6.1054  -6.1053  -6.0037  -6.0036  -5.9894  -5.9893
    -5.8655  -5.8655  -5.7703  -5.7703  -5.7237  -5.7237  -5.5427  -5.5427
    -5.5275  -5.5275  -5.4628  -5.4628  -5.1529  -5.1529  -5.1252  -5.1252
    -4.1995  -4.1992  -4.0245  -4.0240  -3.9145  -3.9140  -3.8247  -3.8244
    -3.7195  -3.7187  -3.6911  -3.6896  -3.6560  -3.6556  -3.5675  -3.5667
    -3.5032  -3.5021  -3.4693  -3.4689  -3.4407  -3.4403  -3.4290  -3.4280
    -3.4056  -3.4047  -3.3459  -3.3457  -3.1782  -3.1770  -3.1666  -3.1659
    -1.7465  -1.7462  -1.6500  -1.6499  -1.6096  -1.6095  -1.5277  -1.5274
    -1.4445  -1.4438  -1.4237  -1.4228  -1.3930  -1.3922  -1.3776  -1.3765
    -1.3376  -1.3374  -1.2289  -1.2282  -1.2217  -1.2216  -1.1272  -1.1268
    -1.1118  -1.1097  -1.1021  -1.1008  -1.0906  -1.0898  -1.0094  -1.0091
     0.3904   0.3975   0.4128   0.4360   0.4606   0.4783   0.4863   0.5020
     0.5215   0.5376   0.5445   0.5622   0.6545   0.6597   0.7018   0.7259
     0.7344   0.7547   0.9409   0.9425   1.0199   1.0359   1.0585   1.0749
     1.1570   1.1736   1.2151   1.2352   1.2436   1.2689   1.2922   1.3165
     1.3256   1.3509   1.3856   1.4055   1.4431   1.4648   1.5086   1.5230
     1.5766   1.5943   1.6029   1.6148   1.6514   1.6760   1.7446   1.7741
     1.7940   1.8186   1.8385   1.8524   1.8760   1.8952   1.9114   1.9325
     1.9518   1.9627   1.9822   2.0012   2.0127   2.0328   2.0490   2.0724
     2.1069   2.1231   2.1313   2.1611   2.1710   2.1903   2.2121   2.2197
     2.2304   2.2513   2.2654   2.2813   2.2943   2.3004   2.3157   2.3482
     2.3518   2.3649   2.3753   2.3935   2.4119   2.4291   2.4403   2.4515
     2.4646   2.4853   2.5103   2.5257   2.5331   2.5568   2.5640   2.5911
     2.6229   2.6618   2.6784   2.6972   2.7180   2.7411   2.7585   2.7745
     2.7943   2.8131   2.8289   2.8339   2.8517   2.8674   2.8754   2.8962
     2.9119   2.9266   2.9449   2.9604   2.9761   3.0016   3.0057   3.0240
     3.0361   3.0480   3.0648   3.0862   3.1069   3.1197   3.1302   3.1443
     3.1710   3.1747   3.1813   3.1903   3.1972   3.2131   3.2356   3.2563
     3.2758   3.3100   3.3287   3.3508   3.3882   3.4120   3.5011   3.5116
     5.5497   5.6312   5.7171   5.7432   5.9608   6.0368   6.0939   6.1452
     6.2396   6.2946   6.3675   6.4541   6.6926   6.7402   6.7944   6.8347
     6.9481   6.9654   7.0346   7.0676   7.1394   7.1884   7.3221   7.3359
     7.4061   7.4461   7.4796   7.5059   7.6631   7.6665   7.7107   7.7280
     7.8022   7.8196   7.8900   7.9302   8.0571   8.0689   8.1007   8.1123
     8.1667   8.1780   8.2093   8.2347   8.2593   8.2868   8.3210   8.3357
     8.3947   8.4414   8.4894   8.5222   8.5437   8.5808   8.5989   8.6487
     8.6766   8.7058   8.7560   8.8131

          k =-0.5000 0.4969 0.2500 ( 80232 PWs)   bands (ev):

   -41.9224 -41.9224 -41.8180 -41.8180 -41.6524 -41.6524 -41.6428 -41.6428
   -41.5389 -41.5389 -41.5310 -41.5310 -41.4510 -41.4510 -41.4479 -41.4479
   -41.4292 -41.4292 -41.4253 -41.4253 -41.4168 -41.4168 -41.4100 -41.4100
   -41.3846 -41.3846 -41.3703 -41.3703 -41.3443 -41.3443 -41.3405 -41.3405
   -41.3255 -41.3255 -41.3187 -41.3187 -41.3177 -41.3177 -41.3062 -41.3062
   -41.3047 -41.3047 -41.2788 -41.2788 -41.2672 -41.2672 -41.2530 -41.2530
   -41.2493 -41.2493 -41.2355 -41.2355 -41.2305 -41.2305 -41.2255 -41.2255
   -41.2019 -41.2019 -41.1854 -41.1854 -41.1662 -41.1662 -41.1642 -41.1642
   -41.1635 -41.1635 -41.1142 -41.1142 -41.1068 -41.1068 -41.0858 -41.0858
   -41.0849 -41.0849 -41.0628 -41.0628 -41.0449 -41.0449 -41.0421 -41.0421
   -40.9759 -40.9759 -40.9750 -40.9750 -40.9598 -40.9598 -40.9517 -40.9517
   -40.8759 -40.8759 -40.8558 -40.8558 -40.8486 -40.8486 -40.7370 -40.7370
   -40.2237 -40.2237 -40.1746 -40.1746 -40.0866 -40.0866 -39.9546 -39.9546
   -39.9447 -39.9447 -39.9001 -39.9001 -39.8910 -39.8910 -39.8054 -39.8054
   -39.7978 -39.7978 -39.7531 -39.7531 -39.7521 -39.7521 -39.7299 -39.7299
   -39.7294 -39.7294 -39.7178 -39.7178 -39.7110 -39.7110 -39.7003 -39.7003
   -39.6869 -39.6869 -39.6852 -39.6852 -39.6843 -39.6843 -39.6734 -39.6734
   -39.6713 -39.6713 -39.6700 -39.6700 -39.6613 -39.6613 -39.6308 -39.6308
   -39.6260 -39.6260 -39.6139 -39.6139 -39.6134 -39.6134 -39.6128 -39.6128
   -39.5887 -39.5887 -39.5875 -39.5875 -39.5814 -39.5814 -39.5811 -39.5811
   -39.5729 -39.5729 -39.5655 -39.5655 -39.5530 -39.5530 -39.5331 -39.5331
   -39.5326 -39.5326 -39.5311 -39.5311 -39.5291 -39.5291 -39.5141 -39.5141
   -39.5103 -39.5103 -39.5079 -39.5079 -39.5037 -39.5037 -39.4743 -39.4743
   -39.4708 -39.4708 -39.4686 -39.4686 -39.4663 -39.4663 -39.4580 -39.4580
   -39.4485 -39.4485 -39.4366 -39.4366 -39.4108 -39.4108 -39.4074 -39.4074
   -39.3876 -39.3876 -39.3825 -39.3825 -39.3706 -39.3706 -39.3644 -39.3644
   -39.3501 -39.3501 -39.3341 -39.3341 -39.3176 -39.3176 -39.3093 -39.3093
   -39.3067 -39.3067 -39.2597 -39.2597 -39.2531 -39.2531 -39.2489 -39.2489
   -39.2433 -39.2433 -39.2185 -39.2185 -39.2041 -39.2041 -39.1498 -39.1498
   -39.1497 -39.1497 -39.1271 -39.1271 -39.0976 -39.0976 -39.0036 -39.0036
   -16.9548 -16.9548 -16.7331 -16.7331 -16.4027 -16.4027 -16.3564 -16.3564
   -16.3176 -16.3176 -16.2905 -16.2905 -16.2350 -16.2350 -15.8719 -15.8719
   -14.3154 -14.3154 -14.3082 -14.3082 -14.2777 -14.2777 -14.2598 -14.2598
   -14.2058 -14.2058 -14.1939 -14.1939 -14.1913 -14.1913 -14.1709 -14.1709
   -14.0985 -14.0985 -14.0835 -14.0835 -14.0785 -14.0785 -14.0766 -14.0766
   -14.0641 -14.0641 -14.0539 -14.0539 -14.0032 -14.0032 -13.9893 -13.9893
   -11.7841 -11.7841 -11.7606 -11.7606 -11.7412 -11.7412 -11.7256 -11.7256
   -11.7188 -11.7188 -11.6830 -11.6830 -11.6742 -11.6741 -11.6570 -11.6570
   -11.6564 -11.6564 -11.6259 -11.6259 -11.6140 -11.6140 -11.5959 -11.5959
   -11.5723 -11.5723 -11.5536 -11.5535 -11.5469 -11.5469 -11.5424 -11.5424
   -11.5295 -11.5295 -11.5130 -11.5130 -11.5010 -11.5010 -11.4946 -11.4945
   -11.4744 -11.4744 -11.4659 -11.4659 -11.4503 -11.4503 -11.4109 -11.4109
    -9.3094  -9.3094  -9.2475  -9.2475  -9.2072  -9.2072  -9.1079  -9.1079
    -9.0901  -9.0901  -9.0705  -9.0705  -8.9969  -8.9969  -8.9874  -8.9874
    -8.6265  -8.6265  -8.4097  -8.4097  -8.3286  -8.3284  -8.2121  -8.2108
    -8.1533  -8.1520  -8.1078  -8.1066  -8.0539  -8.0527  -8.0187  -8.0154
    -7.9661  -7.9647  -7.9236  -7.9226  -7.8961  -7.8937  -7.8265  -7.8254
    -7.7908  -7.7895  -7.7671  -7.7654  -7.7354  -7.7346  -7.6972  -7.6966
    -7.6787  -7.6775  -7.6398  -7.6367  -7.6135  -7.6114  -7.5602  -7.5592
    -7.5201  -7.5198  -7.4298  -7.4294  -7.3978  -7.3976  -7.3110  -7.3108
    -6.5997  -6.5996  -6.4838  -6.4838  -6.2079  -6.2079  -6.1291  -6.1291
    -6.1121  -6.1121  -6.1053  -6.1053  -6.0036  -6.0035  -5.9896  -5.9895
    -5.8659  -5.8659  -5.7704  -5.7703  -5.7238  -5.7238  -5.5427  -5.5427
    -5.5272  -5.5272  -5.4627  -5.4627  -5.1523  -5.1523  -5.1250  -5.1250
    -4.0712  -4.0710  -4.0006  -4.0003  -3.9242  -3.9240  -3.8219  -3.8212
    -3.7541  -3.7536  -3.6834  -3.6833  -3.6426  -3.6423  -3.5925  -3.5914
    -3.5537  -3.5530  -3.4761  -3.4756  -3.4605  -3.4597  -3.4375  -3.4370
    -3.4124  -3.4120  -3.3537  -3.3534  -3.2857  -3.2850  -3.1762  -3.1760
    -1.7453  -1.7452  -1.6497  -1.6496  -1.6096  -1.6095  -1.5269  -1.5268
    -1.4445  -1.4437  -1.4232  -1.4224  -1.3886  -1.3885  -1.3805  -1.3804
    -1.3376  -1.3375  -1.2288  -1.2282  -1.2216  -1.2214  -1.1268  -1.1264
    -1.1108  -1.1096  -1.1003  -1.0996  -1.0922  -1.0914  -1.0081  -1.0078
     0.4207   0.4452   0.4880   0.5144   0.5414   0.5495   0.6111   0.6223
     0.6388   0.6587   0.6729   0.6915   0.8235   0.8383   0.8917   0.9062
     0.9340   0.9428   0.9852   0.9935   1.0083   1.0192   1.0792   1.0982
     1.1407   1.1448   1.1786   1.1944   1.2067   1.2285   1.2526   1.2651
     1.2874   1.3071   1.3447   1.3612   1.3952   1.4145   1.4346   1.4519
     1.4739   1.4977   1.5312   1.5561   1.5834   1.6055   1.6773   1.6920
     1.7218   1.7666   1.7985   1.8208   1.8554   1.8734   1.8883   1.8951
     1.9355   1.9403   1.9589   1.9648   1.9893   2.0151   2.0357   2.0460
     2.0668   2.0893   2.1046   2.1245   2.1379   2.1559   2.1673   2.1841
     2.1874   2.2091   2.2299   2.2416   2.2519   2.2759   2.2933   2.3107
     2.3257   2.3398   2.3487   2.3624   2.3771   2.3881   2.4033   2.4294
     2.4514   2.4676   2.4948   2.5070   2.5161   2.5307   2.5565   2.5918
     2.6225   2.6400   2.6749   2.7065   2.7219   2.7318   2.7486   2.7608
     2.7980   2.8111   2.8237   2.8367   2.8726   2.8758   2.8924   2.9086
     2.9198   2.9304   2.9435   2.9559   2.9631   2.9803   2.9946   3.0134
     3.0382   3.0454   3.0535   3.0745   3.0973   3.1144   3.1209   3.1334
     3.1457   3.1571   3.1757   3.1819   3.1904   3.2069   3.2152   3.2260
     3.2430   3.2513   3.2721   3.2783   3.3166   3.3691   3.4585   3.4799
     5.7794   5.8058   5.9211   5.9540   5.9921   6.0286   6.2176   6.2628
     6.5918   6.6087   6.6944   6.7375   6.8107   6.8334   6.9747   7.0030
     7.0595   7.0747   7.2487   7.2619   7.2858   7.3269   7.4398   7.4563
     7.5348   7.5607   7.6119   7.6265   7.7028   7.7340   7.7622   7.7653
     7.8172   7.8327   7.8646   7.8945   7.9343   7.9383   7.9842   8.0010
     8.0554   8.0850   8.0945   8.1187   8.1423   8.1688   8.2144   8.2349
     8.2680   8.2941   8.3137   8.3542   8.3968   8.4063   8.4483   8.4750
     8.5014   8.5492   8.5775   8.6197

     highest occupied, lowest unoccupied level (ev):     4.1063    4.5741

!    total energy              =   -6228.98079112 Ry
     Harris-Foulkes estimate   =   -6228.98081922 Ry
     estimated scf accuracy    <       0.00003498 Ry

     The total energy is the sum of the following terms:

     one-electron contribution =   -4212.50517215 Ry
     hartree contribution      =    2149.90397332 Ry
     xc contribution           =    -716.85348256 Ry
     ewald contribution        =   -3449.52610972 Ry

     convergence has been achieved in   8 iterations

     Writing output data file pwscf.save/
 
     init_run     :    307.02s CPU     82.66s WALL (       1 calls)
     electrons    :  13754.12s CPU   3786.16s WALL (       1 calls)

     Called by init_run:
     wfcinit      :    304.00s CPU     81.41s WALL (       1 calls)
     potinit      :      1.60s CPU      0.41s WALL (       1 calls)
     hinit0       :      1.28s CPU      0.69s WALL (       1 calls)

     Called by electrons:
     c_bands      :  12982.59s CPU   3580.25s WALL (       8 calls)
     sum_band     :    762.83s CPU    203.33s WALL (       8 calls)
     v_of_rho     :      2.75s CPU      0.75s WALL (       9 calls)
     mix_rho      :      4.39s CPU      1.29s WALL (       8 calls)

     Called by c_bands:
     init_us_2    :      8.74s CPU      2.28s WALL (      85 calls)
     cegterg      :  12625.14s CPU   3281.11s WALL (      40 calls)

     Called by sum_band:

     Called by *egterg:
     h_psi        :   3835.88s CPU    987.66s WALL (     313 calls)
     g_psi        :     19.11s CPU      4.90s WALL (     268 calls)
     cdiaghg      :   4989.67s CPU   1332.33s WALL (     308 calls)

     Called by h_psi:
     h_psi:pot    :   3821.56s CPU    979.33s WALL (     313 calls)
     h_psi:calbec :    520.65s CPU    130.38s WALL (     313 calls)
     vloc_psi     :   2766.58s CPU    714.71s WALL (     313 calls)
     add_vuspsi   :    534.06s CPU    134.23s WALL (     313 calls)

     General routines
     calbec       :    520.63s CPU    130.37s WALL (     313 calls)
     fft          :      1.46s CPU      0.45s WALL (     113 calls)
     ffts         :      0.36s CPU      0.11s WALL (      32 calls)
     fftw         :   1973.07s CPU    585.72s WALL (  367588 calls)
 
     Parallel routines
     fft_scatt_xy :    305.03s CPU     85.14s WALL (  367733 calls)
     fft_scatt_yz :    880.06s CPU    181.08s WALL (  367733 calls)
 
     PWSCF        :      3h56m CPU      1h 6m WALL

 
   This run was terminated on:  20:59:45   5Sep2020            

=------------------------------------------------------------------------------=
   JOB DONE.
=------------------------------------------------------------------------------=
