
     Program PWSCF v.6.4.1 starts on  9Sep2020 at 21:17:25 

     This program is part of the open-source Quantum ESPRESSO suite
     for quantum simulation of materials; please cite
         "P. Giannozzi et al., J. Phys.:Condens. Matter 21 395502 (2009);
         "P. Giannozzi et al., J. Phys.:Condens. Matter 29 465901 (2017);
          URL http://www.quantum-espresso.org", 
     in publications or presentations arising from this work. More details at
     http://www.quantum-espresso.org/quote

     Parallel version (MPI & OpenMP), running on     256 processor cores
     Number of MPI processes:                64
     Threads/MPI process:                     4

     MPI processes distributed on     4 nodes
     K-points division:     npool     =       8
     R & G space division:  proc/nbgrp/npool/nimage =       8
     Reading input from T320_ts3000_nscf.in

     Current dimensions of program PWSCF are:
     Max number of different atomic species (ntypx) = 10
     Max number of k-points (npk) =  40000
     Max angular momentum in pseudopotentials (lmaxx) =  3

     Atomic positions and unit cell read from directory:
     /global/cscratch1/sd/d_abram/T320dft/T320_ts3000_out/pwscf.save/
 

     Subspace diagonalization in iterative solution of the eigenvalue problem:
     one sub-group per band group will be used
     scalapack distributed-memory algorithm (size of sub-group:  2*  2 procs)

 
     Parallelization info
     --------------------
     sticks:   dense  smooth     PW     G-vecs:    dense   smooth      PW
     Min        1126    1126    308                80260    80260   11560
     Max        1127    1127    309                80262    80262   11563
     Sum        9009    9009   2471               642083   642083   92489
 

     Title: 
     T320_ts3000                                                                


     bravais-lattice index     =            0
     lattice parameter (alat)  =      23.7274  a.u.
     unit-cell volume          =   13440.5562 (a.u.)^3
     number of atoms/cell      =           96
     number of atomic types    =            5
     number of electrons       =       640.00
     number of Kohn-Sham states=          700
     kinetic-energy cutoff     =      50.0000  Ry
     charge density cutoff     =     200.0000  Ry
     Exchange-correlation      = SLA  PW   PBE  PBE ( 1  4  3  4 0 0)
     Non magnetic calculation with spin-orbit


     celldm(1)=  23.727439  celldm(2)=   0.000000  celldm(3)=   0.000000
     celldm(4)=   0.000000  celldm(5)=   0.000000  celldm(6)=   0.000000

     crystal axes: (cart. coord. in units of alat)
               a(1) = (   1.000000   0.000000   0.000000 )  
               a(2) = (   0.000000   1.006154   0.000000 )  
               a(3) = (   0.000000   0.000000   1.000000 )  

     reciprocal axes: (cart. coord. in units 2 pi/alat)
               b(1) = (  1.000000  0.000000  0.000000 )  
               b(2) = (  0.000000  0.993883  0.000000 )  
               b(3) = (  0.000000  0.000000  1.000000 )  


     PseudoPot. # 1 for H  read from file:
     /global/homes/d/d_abram/dft/pseudos/h_srl_gga.upf
     MD5 check sum: ab276909a9cd17446c251ba4380ebe68
     Pseudo is Norm-conserving, Zval =  1.0
     Generated by new atomic code, or converted to UPF format
     Using radial grid of 1076 points,  0 beta functions with: 

     PseudoPot. # 2 for C  read from file:
     /global/homes/d/d_abram/dft/pseudos/c_srl_gga.upf
     MD5 check sum: de9e42bb94d891d86d6164ce4df3162e
     Pseudo is Norm-conserving, Zval =  4.0
     Generated by new atomic code, or converted to UPF format
     Using radial grid of 1122 points,  1 beta functions with: 
                l(1) =   1

     PseudoPot. # 3 for N  read from file:
     /global/homes/d/d_abram/dft/pseudos/n_srl_gga.upf
     MD5 check sum: fc04c09f9cf6be3b101c21da36b38153
     Pseudo is Norm-conserving, Zval =  5.0
     Generated by new atomic code, or converted to UPF format
     Using radial grid of 1126 points,  1 beta functions with: 
                l(1) =   1

     PseudoPot. # 4 for Pb read from file:
     /global/homes/d/d_abram/dft/pseudos/pb_frl_gga.upf
     MD5 check sum: 00b12db5c119af3e4e38a6ffd441034c
     Pseudo is Norm-conserving, Zval = 14.0
     Generated by new atomic code, or converted to UPF format
     Using radial grid of 1189 points,  4 beta functions with: 
                l(1) =   1
                l(2) =   1
                l(3) =   2
                l(4) =   2

     PseudoPot. # 5 for I  read from file:
     /global/homes/d/d_abram/dft/pseudos/i_frl_gga.upf
     MD5 check sum: a2e458d981e5f38f1248c9a07f7dbf45
     Pseudo is Norm-conserving, Zval = 17.0
     Generated by new atomic code, or converted to UPF format
     Using radial grid of 1178 points,  4 beta functions with: 
                l(1) =   1
                l(2) =   1
                l(3) =   2
                l(4) =   2

     atomic species   valence    mass     pseudopotential
        H              1.00     1.00800     H ( 1.00)
        C              4.00    12.01000     C ( 1.00)
        N              5.00    14.01000     N ( 1.00)
        Pb            14.00   207.20000     Pb( 1.00)
        I             17.00   126.90000     I ( 1.00)

     No symmetry found



   Cartesian axes

     site n.     atom                  positions (alat units)
         1           Pb  tau(   1) = (   0.0287306   0.0207224   0.9943119  )
         2           I   tau(   2) = (   0.2652855   0.9695031   0.9815531  )
         3           I   tau(   3) = (   0.0348847   0.2515718   0.9934438  )
         4           I   tau(   4) = (   0.0153954   0.0046595   0.2343322  )
         5           H   tau(   5) = (   0.3261663   0.1911482   0.2103039  )
         6           H   tau(   6) = (   0.2518760   0.1527323   0.3180291  )
         7           H   tau(   7) = (   0.3465079   0.2506678   0.3261065  )
         8           N   tau(   8) = (   0.2900497   0.2163273   0.2822176  )
         9           C   tau(   9) = (   0.2088241   0.2953571   0.2667669  )
        10           H   tau(  10) = (   0.1594574   0.2624239   0.1990057  )
        11           H   tau(  11) = (   0.1597951   0.2972415   0.3426333  )
        12           H   tau(  12) = (   0.2475251   0.3765357   0.2530157  )
        13           Pb  tau(  13) = (   0.9952835   0.0097941   0.4907064  )
        14           I   tau(  14) = (   0.2512500   0.0032972   0.5019242  )
        15           I   tau(  15) = (   0.9914129   0.2539921   0.4779739  )
        16           I   tau(  16) = (   0.0048787   1.0042434   0.7436759  )
        17           H   tau(  17) = (   0.2085573   0.1702474   0.6678430  )
        18           H   tau(  18) = (   0.1172569   0.2610668   0.7083041  )
        19           H   tau(  19) = (   0.2246420   0.3136392   0.6540576  )
        20           N   tau(  20) = (   0.1951781   0.2469110   0.6994732  )
        21           C   tau(  21) = (   0.2547200   0.2494939   0.8004368  )
        22           H   tau(  22) = (   0.2277927   0.3220240   0.8341975  )
        23           H   tau(  23) = (   0.3405713   0.2539212   0.7887252  )
        24           H   tau(  24) = (   0.2353047   0.1744175   0.8465342  )
        25           Pb  tau(  25) = (   0.0152681   0.5030025   0.0111603  )
        26           I   tau(  26) = (   0.2499439   0.5325613   0.0063976  )
        27           I   tau(  27) = (   0.9782957   0.7518680   0.9880121  )
        28           I   tau(  28) = (   0.0075616   0.5229898   0.2621651  )
        29           H   tau(  29) = (   0.2887237   0.7000825   0.1381266  )
        30           H   tau(  30) = (   0.3142166   0.8312507   0.1835813  )
        31           H   tau(  31) = (   0.3501739   0.7235446   0.2548435  )
        32           N   tau(  32) = (   0.2945854   0.7535748   0.2022329  )
        33           C   tau(  33) = (   0.1877577   0.7477983   0.2488822  )
        34           H   tau(  34) = (   0.1947416   0.8037021   0.3130960  )
        35           H   tau(  35) = (   0.1810996   0.6616938   0.2706765  )
        36           H   tau(  36) = (   0.1267384   0.7792899   0.1918323  )
        37           Pb  tau(  37) = (   0.9925996   0.4997674   0.5128154  )
        38           I   tau(  38) = (   0.2434338   0.4751211   0.5407717  )
        39           I   tau(  39) = (   0.9888165   0.7662994   0.4869338  )
        40           I   tau(  40) = (   0.9832654   0.4935688   0.7547121  )
        41           H   tau(  41) = (   0.3034481   0.8203157   0.8025393  )
        42           H   tau(  42) = (   0.3521044   0.7371476   0.7100841  )
        43           H   tau(  43) = (   0.3023243   0.6814110   0.8136177  )
        44           N   tau(  44) = (   0.2948060   0.7460254   0.7649844  )
        45           C   tau(  45) = (   0.1901231   0.7342677   0.7077075  )
        46           H   tau(  46) = (   0.1900148   0.7978723   0.6513218  )
        47           H   tau(  47) = (   0.1765663   0.6582388   0.6668674  )
        48           H   tau(  48) = (   0.1360750   0.7554050   0.7748490  )
        49           Pb  tau(  49) = (   0.5005113   0.0022599   0.9925518  )
        50           I   tau(  50) = (   0.7455587   0.0475873   0.9799443  )
        51           I   tau(  51) = (   0.4681507   0.2467589   0.0566109  )
        52           I   tau(  52) = (   0.5066964   0.9523878   0.2293378  )
        53           H   tau(  53) = (   0.6615990   0.2126327   0.3315103  )
        54           H   tau(  54) = (   0.6329577   0.2550896   0.2127689  )
        55           H   tau(  55) = (   0.6893538   0.1290552   0.2342287  )
        56           N   tau(  56) = (   0.6856281   0.2085374   0.2534880  )
        57           C   tau(  57) = (   0.7859656   0.2586560   0.2470464  )
        58           H   tau(  58) = (   0.8427272   0.2009865   0.2763519  )
        59           H   tau(  59) = (   0.7835341   0.3244420   0.3090924  )
        60           H   tau(  60) = (   0.8096913   0.2856725   0.1684435  )
        61           Pb  tau(  61) = (   0.4954006   0.0055762   0.5038396  )
        62           I   tau(  62) = (   0.7487898   0.0207298   0.4897882  )
        63           I   tau(  63) = (   0.4992227   0.2413902   0.4610314  )
        64           I   tau(  64) = (   0.5037010   0.0574318   0.7478453  )
        65           H   tau(  65) = (   0.6372314   0.3039705   0.7734784  )
        66           H   tau(  66) = (   0.6642479   0.1752833   0.7577290  )
        67           H   tau(  67) = (   0.6983885   0.2687221   0.6745832  )
        68           N   tau(  68) = (   0.6966467   0.2480022   0.7508279  )
        69           C   tau(  69) = (   0.7975855   0.2688137   0.8105753  )
        70           H   tau(  70) = (   0.7646890   0.2829862   0.8914290  )
        71           H   tau(  71) = (   0.8521251   0.2024352   0.8099541  )
        72           H   tau(  72) = (   0.8278260   0.3417755   0.7812643  )
        73           Pb  tau(  73) = (   0.5057152   0.4990610   0.0033213  )
        74           I   tau(  74) = (   0.7307284   0.4719991   0.0366883  )
        75           I   tau(  75) = (   0.5243859   0.7562699   0.9480552  )
        76           I   tau(  76) = (   0.4780305   0.5397013   0.2723960  )
        77           H   tau(  77) = (   0.8144539   0.6313338   0.2421213  )
        78           H   tau(  78) = (   0.6907993   0.6797441   0.2242104  )
        79           H   tau(  79) = (   0.7453453   0.6815408   0.3420152  )
        80           N   tau(  80) = (   0.7586018   0.6934275   0.2665837  )
        81           C   tau(  81) = (   0.8092612   0.7989235   0.2349678  )
        82           H   tau(  82) = (   0.7961344   0.8137292   0.1488760  )
        83           H   tau(  83) = (   0.7764284   0.8683803   0.2817087  )
        84           H   tau(  84) = (   0.8928864   0.7917533   0.2451565  )
        85           Pb  tau(  85) = (   0.4998750   0.4841224   0.5040769  )
        86           I   tau(  86) = (   0.7463567   0.4881977   0.4944290  )
        87           I   tau(  87) = (   0.4736533   0.7468776   0.5336938  )
        88           I   tau(  88) = (   0.5072682   0.4498878   0.7503341  )
        89           H   tau(  89) = (   0.7728715   0.8957934   0.8124868  )
        90           H   tau(  90) = (   0.7074344   0.7942023   0.8555259  )
        91           H   tau(  91) = (   0.8409114   0.7839395   0.8483819  )
        92           N   tau(  92) = (   0.7732259   0.8143185   0.8095001  )
        93           C   tau(  93) = (   0.7675450   0.7698690   0.6988855  )
        94           H   tau(  94) = (   0.6990304   0.8011217   0.6638656  )
        95           H   tau(  95) = (   0.7629153   0.6855899   0.6999726  )
        96           H   tau(  96) = (   0.8360850   0.7949884   0.6453964  )

     number of k points=    64
                       cart. coord. in units 2pi/alat
        k(    1) = (   0.0000000   0.0000000   0.0000000), wk =   0.0156250
        k(    2) = (   0.0000000   0.0000000   0.2500000), wk =   0.0156250
        k(    3) = (   0.0000000   0.0000000   0.5000000), wk =   0.0156250
        k(    4) = (   0.0000000   0.0000000   0.7500000), wk =   0.0156250
        k(    5) = (   0.0000000   0.2484708   0.0000000), wk =   0.0156250
        k(    6) = (   0.0000000   0.2484708   0.2500000), wk =   0.0156250
        k(    7) = (   0.0000000   0.2484708   0.5000000), wk =   0.0156250
        k(    8) = (   0.0000000   0.2484708   0.7500000), wk =   0.0156250
        k(    9) = (   0.0000000   0.4969416   0.0000000), wk =   0.0156250
        k(   10) = (   0.0000000   0.4969416   0.2500000), wk =   0.0156250
        k(   11) = (   0.0000000   0.4969416   0.5000000), wk =   0.0156250
        k(   12) = (   0.0000000   0.4969416   0.7500000), wk =   0.0156250
        k(   13) = (   0.0000000   0.7454124   0.0000000), wk =   0.0156250
        k(   14) = (   0.0000000   0.7454124   0.2500000), wk =   0.0156250
        k(   15) = (   0.0000000   0.7454124   0.5000000), wk =   0.0156250
        k(   16) = (   0.0000000   0.7454124   0.7500000), wk =   0.0156250
        k(   17) = (   0.2500000   0.0000000   0.0000000), wk =   0.0156250
        k(   18) = (   0.2500000   0.0000000   0.2500000), wk =   0.0156250
        k(   19) = (   0.2500000   0.0000000   0.5000000), wk =   0.0156250
        k(   20) = (   0.2500000   0.0000000   0.7500000), wk =   0.0156250
        k(   21) = (   0.2500000   0.2484708   0.0000000), wk =   0.0156250
        k(   22) = (   0.2500000   0.2484708   0.2500000), wk =   0.0156250
        k(   23) = (   0.2500000   0.2484708   0.5000000), wk =   0.0156250
        k(   24) = (   0.2500000   0.2484708   0.7500000), wk =   0.0156250
        k(   25) = (   0.2500000   0.4969416   0.0000000), wk =   0.0156250
        k(   26) = (   0.2500000   0.4969416   0.2500000), wk =   0.0156250
        k(   27) = (   0.2500000   0.4969416   0.5000000), wk =   0.0156250
        k(   28) = (   0.2500000   0.4969416   0.7500000), wk =   0.0156250
        k(   29) = (   0.2500000   0.7454124   0.0000000), wk =   0.0156250
        k(   30) = (   0.2500000   0.7454124   0.2500000), wk =   0.0156250
        k(   31) = (   0.2500000   0.7454124   0.5000000), wk =   0.0156250
        k(   32) = (   0.2500000   0.7454124   0.7500000), wk =   0.0156250
        k(   33) = (   0.5000000   0.0000000   0.0000000), wk =   0.0156250
        k(   34) = (   0.5000000   0.0000000   0.2500000), wk =   0.0156250
        k(   35) = (   0.5000000   0.0000000   0.5000000), wk =   0.0156250
        k(   36) = (   0.5000000   0.0000000   0.7500000), wk =   0.0156250
        k(   37) = (   0.5000000   0.2484708   0.0000000), wk =   0.0156250
        k(   38) = (   0.5000000   0.2484708   0.2500000), wk =   0.0156250
        k(   39) = (   0.5000000   0.2484708   0.5000000), wk =   0.0156250
        k(   40) = (   0.5000000   0.2484708   0.7500000), wk =   0.0156250
        k(   41) = (   0.5000000   0.4969416   0.0000000), wk =   0.0156250
        k(   42) = (   0.5000000   0.4969416   0.2500000), wk =   0.0156250
        k(   43) = (   0.5000000   0.4969416   0.5000000), wk =   0.0156250
        k(   44) = (   0.5000000   0.4969416   0.7500000), wk =   0.0156250
        k(   45) = (   0.5000000   0.7454124   0.0000000), wk =   0.0156250
        k(   46) = (   0.5000000   0.7454124   0.2500000), wk =   0.0156250
        k(   47) = (   0.5000000   0.7454124   0.5000000), wk =   0.0156250
        k(   48) = (   0.5000000   0.7454124   0.7500000), wk =   0.0156250
        k(   49) = (   0.7500000   0.0000000   0.0000000), wk =   0.0156250
        k(   50) = (   0.7500000   0.0000000   0.2500000), wk =   0.0156250
        k(   51) = (   0.7500000   0.0000000   0.5000000), wk =   0.0156250
        k(   52) = (   0.7500000   0.0000000   0.7500000), wk =   0.0156250
        k(   53) = (   0.7500000   0.2484708   0.0000000), wk =   0.0156250
        k(   54) = (   0.7500000   0.2484708   0.2500000), wk =   0.0156250
        k(   55) = (   0.7500000   0.2484708   0.5000000), wk =   0.0156250
        k(   56) = (   0.7500000   0.2484708   0.7500000), wk =   0.0156250
        k(   57) = (   0.7500000   0.4969416   0.0000000), wk =   0.0156250
        k(   58) = (   0.7500000   0.4969416   0.2500000), wk =   0.0156250
        k(   59) = (   0.7500000   0.4969416   0.5000000), wk =   0.0156250
        k(   60) = (   0.7500000   0.4969416   0.7500000), wk =   0.0156250
        k(   61) = (   0.7500000   0.7454124   0.0000000), wk =   0.0156250
        k(   62) = (   0.7500000   0.7454124   0.2500000), wk =   0.0156250
        k(   63) = (   0.7500000   0.7454124   0.5000000), wk =   0.0156250
        k(   64) = (   0.7500000   0.7454124   0.7500000), wk =   0.0156250

     Dense  grid:   642083 G-vectors     FFT dimensions: ( 108, 108, 108)

     Estimated max dynamical RAM per process >       2.13 GB

     Estimated total dynamical RAM >     136.52 GB

     The potential is recalculated from file :
     /global/cscratch1/sd/d_abram/T320dft/T320_ts3000_out/pwscf.save/charge-density

     Starting wfcs are  800 randomized atomic wfcs

     Band Structure Calculation
     Davidson diagonalization with overlap

     ethr =  1.56E-08,  avg # of iterations = 35.0

     total cpu time spent up to now is     3528.3 secs

     End of band structure calculation

          k = 0.0000 0.0000 0.0000 ( 80285 PWs)   bands (ev):

   -41.9204 -41.9204 -41.8161 -41.8161 -41.6491 -41.6491 -41.6121 -41.6121
   -41.5356 -41.5356 -41.5009 -41.5009 -41.4619 -41.4619 -41.4553 -41.4553
   -41.4361 -41.4361 -41.4198 -41.4198 -41.4072 -41.4072 -41.3950 -41.3950
   -41.3924 -41.3924 -41.3920 -41.3920 -41.3550 -41.3550 -41.3315 -41.3315
   -41.3292 -41.3292 -41.3265 -41.3265 -41.3136 -41.3136 -41.3082 -41.3082
   -41.2872 -41.2872 -41.2777 -41.2777 -41.2711 -41.2711 -41.2597 -41.2597
   -41.2399 -41.2399 -41.2365 -41.2365 -41.2292 -41.2292 -41.2226 -41.2226
   -41.2138 -41.2138 -41.1767 -41.1767 -41.1664 -41.1664 -41.1659 -41.1659
   -41.1516 -41.1516 -41.1057 -41.1057 -41.1055 -41.1055 -41.1028 -41.1028
   -41.0982 -41.0982 -41.0673 -41.0673 -41.0551 -41.0551 -41.0447 -41.0447
   -40.9882 -40.9882 -40.9796 -40.9796 -40.9775 -40.9775 -40.9546 -40.9546
   -40.8936 -40.8936 -40.8589 -40.8589 -40.8509 -40.8509 -40.7394 -40.7394
   -40.2217 -40.2217 -40.1726 -40.1726 -40.0847 -40.0847 -39.9513 -39.9513
   -39.9141 -39.9141 -39.8968 -39.8968 -39.8606 -39.8606 -39.8021 -39.8021
   -39.7678 -39.7678 -39.7641 -39.7641 -39.7595 -39.7595 -39.7401 -39.7401
   -39.7206 -39.7206 -39.7112 -39.7112 -39.7082 -39.7082 -39.6974 -39.6974
   -39.6954 -39.6954 -39.6931 -39.6931 -39.6917 -39.6917 -39.6819 -39.6819
   -39.6759 -39.6759 -39.6605 -39.6605 -39.6435 -39.6435 -39.6412 -39.6412
   -39.6359 -39.6359 -39.6270 -39.6270 -39.6235 -39.6235 -39.6045 -39.6045
   -39.5991 -39.5991 -39.5825 -39.5825 -39.5782 -39.5782 -39.5728 -39.5728
   -39.5620 -39.5620 -39.5554 -39.5554 -39.5430 -39.5430 -39.5399 -39.5399
   -39.5358 -39.5358 -39.5318 -39.5318 -39.5245 -39.5245 -39.5174 -39.5174
   -39.5121 -39.5121 -39.5089 -39.5089 -39.4973 -39.4973 -39.4795 -39.4795
   -39.4731 -39.4731 -39.4692 -39.4692 -39.4682 -39.4682 -39.4593 -39.4593
   -39.4392 -39.4392 -39.4240 -39.4240 -39.4205 -39.4205 -39.4105 -39.4105
   -39.4001 -39.4001 -39.3711 -39.3711 -39.3706 -39.3706 -39.3695 -39.3695
   -39.3689 -39.3689 -39.3465 -39.3465 -39.3221 -39.3221 -39.3196 -39.3196
   -39.3091 -39.3091 -39.2774 -39.2774 -39.2560 -39.2560 -39.2556 -39.2556
   -39.2534 -39.2534 -39.2362 -39.2362 -39.2071 -39.2071 -39.1675 -39.1675
   -39.1520 -39.1520 -39.1302 -39.1302 -39.0999 -39.0999 -39.0059 -39.0059
   -16.9525 -16.9525 -16.7214 -16.7214 -16.3804 -16.3804 -16.3469 -16.3469
   -16.3221 -16.3221 -16.2816 -16.2816 -16.2410 -16.2410 -15.8895 -15.8895
   -14.2875 -14.2875 -14.2805 -14.2805 -14.2573 -14.2573 -14.2394 -14.2394
   -14.2330 -14.2330 -14.2212 -14.2212 -14.1849 -14.1849 -14.1643 -14.1643
   -14.1212 -14.1212 -14.1010 -14.1010 -14.0884 -14.0884 -14.0815 -14.0815
   -14.0437 -14.0437 -14.0335 -14.0335 -14.0200 -14.0200 -14.0060 -14.0060
   -11.7573 -11.7573 -11.7335 -11.7335 -11.7230 -11.7230 -11.6999 -11.6999
   -11.6987 -11.6987 -11.6973 -11.6973 -11.6836 -11.6836 -11.6627 -11.6627
   -11.6498 -11.6498 -11.6412 -11.6412 -11.6204 -11.6204 -11.5940 -11.5940
   -11.5889 -11.5889 -11.5696 -11.5696 -11.5543 -11.5543 -11.5509 -11.5509
   -11.5235 -11.5235 -11.5091 -11.5091 -11.4993 -11.4993 -11.4943 -11.4943
   -11.4815 -11.4815 -11.4658 -11.4658 -11.4541 -11.4541 -11.4275 -11.4275
    -9.3174  -9.3174  -9.2505  -9.2505  -9.2099  -9.2099  -9.1030  -9.1030
    -9.0876  -9.0876  -9.0773  -9.0773  -8.9821  -8.9821  -8.9701  -8.9701
    -8.6412  -8.6412  -8.4332  -8.4332  -8.3089  -8.3089  -8.1739  -8.1739
    -8.1224  -8.1224  -8.0911  -8.0911  -8.0313  -8.0313  -7.9767  -7.9767
    -7.9464  -7.9464  -7.9190  -7.9190  -7.8908  -7.8908  -7.8727  -7.8727
    -7.8434  -7.8434  -7.8211  -7.8211  -7.7363  -7.7363  -7.7057  -7.7057
    -7.6736  -7.6736  -7.6451  -7.6451  -7.6236  -7.6236  -7.5939  -7.5939
    -7.5078  -7.5078  -7.4277  -7.4277  -7.3924  -7.3924  -7.2990  -7.2990
    -6.5985  -6.5985  -6.4729  -6.4729  -6.1876  -6.1876  -6.1341  -6.1341
    -6.1077  -6.1077  -6.0934  -6.0934  -6.0053  -6.0053  -5.9938  -5.9938
    -5.8549  -5.8549  -5.7616  -5.7616  -5.7026  -5.7026  -5.5445  -5.5445
    -5.5338  -5.5338  -5.4663  -5.4663  -5.1703  -5.1703  -5.1317  -5.1317
    -4.4825  -4.4825  -3.9879  -3.9879  -3.9503  -3.9503  -3.8591  -3.8591
    -3.8146  -3.8146  -3.6620  -3.6620  -3.5259  -3.5259  -3.5048  -3.5048
    -3.4550  -3.4550  -3.4265  -3.4265  -3.4133  -3.4133  -3.3679  -3.3679
    -3.3625  -3.3625  -3.3300  -3.3300  -3.1721  -3.1721  -2.7840  -2.7840
    -1.7586  -1.7586  -1.6367  -1.6367  -1.6031  -1.6031  -1.5172  -1.5172
    -1.4576  -1.4576  -1.4267  -1.4267  -1.3968  -1.3968  -1.3696  -1.3696
    -1.3431  -1.3431  -1.2257  -1.2257  -1.2128  -1.2128  -1.1254  -1.1254
    -1.1132  -1.1132  -1.0995  -1.0995  -1.0893  -1.0893  -1.0161  -1.0161
     0.1547   0.1547   0.2178   0.2178   0.2574   0.2574   0.3068   0.3068
     0.3413   0.3413   0.3905   0.3905   0.4125   0.4125   0.4351   0.4351
     0.4817   0.4817   0.5460   0.5460   0.5853   0.5853   0.6530   0.6530
     1.1542   1.1542   1.2649   1.2649   1.3036   1.3036   1.3227   1.3227
     1.5163   1.5163   1.5805   1.5805   1.6156   1.6156   1.6726   1.6726
     1.7388   1.7388   1.7759   1.7759   1.8187   1.8187   1.8450   1.8450
     1.8791   1.8791   1.9252   1.9252   1.9664   1.9664   2.0434   2.0434
     2.0684   2.0684   2.0909   2.0909   2.1204   2.1204   2.1619   2.1619
     2.1878   2.1878   2.2374   2.2374   2.2749   2.2749   2.3192   2.3192
     2.3569   2.3569   2.3828   2.3828   2.4076   2.4076   2.4433   2.4433
     2.4502   2.4502   2.4799   2.4799   2.5262   2.5262   2.5386   2.5386
     2.5662   2.5662   2.5881   2.5881   2.6141   2.6141   2.6282   2.6282
     2.6612   2.6612   2.6903   2.6903   2.7188   2.7188   2.7517   2.7517
     2.7844   2.7844   2.8263   2.8263   2.8694   2.8694   2.9023   2.9023
     2.9199   2.9199   2.9798   2.9798   3.0185   3.0185   3.0528   3.0528
     3.0911   3.0911   3.1147   3.1147   3.1536   3.1536   3.1947   3.1947
     3.2360   3.2360   3.2859   3.2859   3.3156   3.3156   3.3937   3.3937
     3.6200   3.6200   3.6593   3.6593   3.7226   3.7226   4.1036   4.1036
     4.5747   4.5747   5.2394   5.2394   5.2852   5.2852   5.3689   5.3689
     5.9432   5.9432   5.9835   5.9835   6.0778   6.0778   6.1436   6.1436
     6.2253   6.2253   6.4480   6.4480   6.4950   6.4950   6.5397   6.5397
     7.2120   7.2120   7.8664   7.8664   7.9130   7.9130   8.0397   8.0397
     8.1704   8.1704   8.2568   8.2568   8.2817   8.2817   8.4271   8.4271
     8.4443   8.4443   8.5177   8.5177   8.5559   8.5559   8.5925   8.5925
     8.6452   8.6452   8.7034   8.7034   8.7775   8.7775   8.8388   8.8388
     8.8723   8.8723   8.9204   8.9204

          k = 0.0000 0.0000 0.2500 ( 80189 PWs)   bands (ev):

   -41.9204 -41.9204 -41.8161 -41.8161 -41.6491 -41.6491 -41.6121 -41.6121
   -41.5356 -41.5356 -41.5009 -41.5009 -41.4619 -41.4619 -41.4553 -41.4553
   -41.4361 -41.4361 -41.4198 -41.4198 -41.4072 -41.4072 -41.3950 -41.3950
   -41.3924 -41.3924 -41.3920 -41.3920 -41.3550 -41.3550 -41.3315 -41.3315
   -41.3292 -41.3292 -41.3265 -41.3265 -41.3136 -41.3136 -41.3082 -41.3082
   -41.2872 -41.2872 -41.2777 -41.2777 -41.2711 -41.2711 -41.2596 -41.2596
   -41.2399 -41.2399 -41.2365 -41.2365 -41.2292 -41.2292 -41.2226 -41.2226
   -41.2138 -41.2138 -41.1766 -41.1766 -41.1664 -41.1664 -41.1658 -41.1658
   -41.1516 -41.1516 -41.1057 -41.1057 -41.1055 -41.1055 -41.1027 -41.1027
   -41.0981 -41.0981 -41.0673 -41.0673 -41.0551 -41.0551 -41.0446 -41.0446
   -40.9882 -40.9882 -40.9795 -40.9795 -40.9775 -40.9775 -40.9546 -40.9546
   -40.8936 -40.8936 -40.8588 -40.8588 -40.8508 -40.8508 -40.7393 -40.7393
   -40.2217 -40.2217 -40.1726 -40.1726 -40.0847 -40.0847 -39.9513 -39.9513
   -39.9141 -39.9141 -39.8968 -39.8968 -39.8606 -39.8606 -39.8021 -39.8021
   -39.7678 -39.7678 -39.7640 -39.7640 -39.7595 -39.7595 -39.7401 -39.7401
   -39.7205 -39.7205 -39.7112 -39.7112 -39.7081 -39.7081 -39.6974 -39.6974
   -39.6954 -39.6954 -39.6930 -39.6930 -39.6917 -39.6917 -39.6819 -39.6819
   -39.6759 -39.6759 -39.6605 -39.6605 -39.6435 -39.6435 -39.6412 -39.6412
   -39.6359 -39.6359 -39.6270 -39.6270 -39.6235 -39.6235 -39.6045 -39.6045
   -39.5991 -39.5991 -39.5824 -39.5824 -39.5781 -39.5781 -39.5728 -39.5728
   -39.5620 -39.5620 -39.5554 -39.5554 -39.5430 -39.5430 -39.5399 -39.5399
   -39.5358 -39.5358 -39.5318 -39.5318 -39.5245 -39.5245 -39.5174 -39.5174
   -39.5121 -39.5121 -39.5089 -39.5089 -39.4973 -39.4973 -39.4795 -39.4795
   -39.4731 -39.4731 -39.4692 -39.4692 -39.4682 -39.4682 -39.4592 -39.4592
   -39.4392 -39.4392 -39.4240 -39.4240 -39.4205 -39.4205 -39.4105 -39.4105
   -39.4000 -39.4000 -39.3711 -39.3711 -39.3706 -39.3706 -39.3695 -39.3695
   -39.3689 -39.3689 -39.3465 -39.3465 -39.3221 -39.3221 -39.3196 -39.3196
   -39.3091 -39.3091 -39.2774 -39.2774 -39.2560 -39.2560 -39.2556 -39.2556
   -39.2534 -39.2534 -39.2362 -39.2362 -39.2071 -39.2071 -39.1674 -39.1674
   -39.1520 -39.1520 -39.1302 -39.1302 -39.0999 -39.0999 -39.0059 -39.0059
   -16.9525 -16.9525 -16.7214 -16.7214 -16.3804 -16.3804 -16.3469 -16.3469
   -16.3220 -16.3220 -16.2815 -16.2815 -16.2410 -16.2410 -15.8895 -15.8895
   -14.2874 -14.2874 -14.2805 -14.2805 -14.2573 -14.2573 -14.2393 -14.2393
   -14.2330 -14.2330 -14.2212 -14.2212 -14.1849 -14.1849 -14.1643 -14.1643
   -14.1212 -14.1212 -14.1010 -14.1010 -14.0884 -14.0884 -14.0815 -14.0815
   -14.0436 -14.0436 -14.0335 -14.0335 -14.0199 -14.0199 -14.0060 -14.0060
   -11.7572 -11.7572 -11.7332 -11.7331 -11.7230 -11.7230 -11.7000 -11.6999
   -11.6986 -11.6985 -11.6978 -11.6974 -11.6837 -11.6836 -11.6627 -11.6627
   -11.6497 -11.6497 -11.6411 -11.6411 -11.6203 -11.6202 -11.5940 -11.5940
   -11.5889 -11.5889 -11.5694 -11.5694 -11.5543 -11.5543 -11.5509 -11.5509
   -11.5235 -11.5235 -11.5092 -11.5092 -11.4993 -11.4993 -11.4943 -11.4943
   -11.4816 -11.4815 -11.4659 -11.4659 -11.4541 -11.4541 -11.4275 -11.4275
    -9.3170  -9.3170  -9.2505  -9.2505  -9.2102  -9.2102  -9.1032  -9.1032
    -9.0875  -9.0875  -9.0772  -9.0772  -8.9820  -8.9820  -8.9701  -8.9701
    -8.6388  -8.6388  -8.4345  -8.4344  -8.3009  -8.3007  -8.1719  -8.1709
    -8.1406  -8.1399  -8.1027  -8.1023  -8.0414  -8.0398  -7.9791  -7.9779
    -7.9398  -7.9385  -7.9125  -7.9120  -7.8871  -7.8854  -7.8711  -7.8699
    -7.8417  -7.8412  -7.8215  -7.8208  -7.7444  -7.7436  -7.6904  -7.6895
    -7.6741  -7.6722  -7.6406  -7.6391  -7.6226  -7.6222  -7.5922  -7.5914
    -7.5084  -7.5081  -7.4325  -7.4322  -7.3942  -7.3942  -7.3030  -7.3029
    -6.5986  -6.5986  -6.4731  -6.4730  -6.1876  -6.1876  -6.1340  -6.1340
    -6.1076  -6.1076  -6.0936  -6.0936  -6.0039  -6.0038  -5.9951  -5.9949
    -5.8544  -5.8544  -5.7612  -5.7612  -5.7027  -5.7027  -5.5445  -5.5445
    -5.5337  -5.5337  -5.4663  -5.4663  -5.1703  -5.1703  -5.1319  -5.1318
    -4.4151  -4.4149  -4.0533  -4.0527  -3.8929  -3.8925  -3.8217  -3.8202
    -3.8098  -3.8083  -3.6627  -3.6624  -3.5539  -3.5523  -3.5078  -3.5074
    -3.4936  -3.4919  -3.4564  -3.4555  -3.4366  -3.4359  -3.4226  -3.4223
    -3.3504  -3.3498  -3.2833  -3.2824  -3.1704  -3.1701  -2.8835  -2.8829
    -1.7585  -1.7584  -1.6353  -1.6352  -1.6039  -1.6037  -1.5169  -1.5168
    -1.4576  -1.4571  -1.4276  -1.4271  -1.3966  -1.3965  -1.3699  -1.3698
    -1.3417  -1.3416  -1.2250  -1.2246  -1.2130  -1.2129  -1.1207  -1.1200
    -1.1120  -1.1115  -1.1012  -1.0997  -1.0880  -1.0875  -1.0216  -1.0212
     0.1738   0.1771   0.2183   0.2310   0.2937   0.3024   0.3143   0.3200
     0.3810   0.3945   0.4151   0.4208   0.4736   0.4822   0.5347   0.5412
     0.5736   0.5795   0.6300   0.6395   0.7047   0.7144   0.7934   0.8034
     1.1498   1.1577   1.2567   1.2626   1.2913   1.2996   1.3203   1.3366
     1.4446   1.4916   1.5225   1.5446   1.5755   1.5876   1.6134   1.6461
     1.6690   1.6876   1.7329   1.7714   1.7815   1.8056   1.8266   1.8559
     1.8621   1.8760   1.8901   1.9085   1.9391   1.9673   1.9838   2.0099
     2.0197   2.0442   2.0639   2.0776   2.0913   2.1050   2.1149   2.1552
     2.1772   2.1952   2.2131   2.2240   2.2436   2.2630   2.2896   2.2962
     2.3219   2.3291   2.3483   2.3735   2.3830   2.3861   2.4157   2.4220
     2.4353   2.4455   2.4600   2.4722   2.4828   2.4957   2.5051   2.5232
     2.5365   2.5474   2.5561   2.5807   2.5977   2.6082   2.6364   2.6473
     2.6513   2.6763   2.6858   2.7021   2.7112   2.7312   2.7382   2.7518
     2.7974   2.8055   2.8163   2.8328   2.8558   2.8678   2.8907   2.8999
     2.9182   2.9395   2.9520   2.9702   2.9850   3.0060   3.0184   3.0340
     3.0624   3.0797   3.0877   3.0935   3.1284   3.1438   3.1709   3.1859
     3.2059   3.2200   3.2437   3.2687   3.2841   3.2980   3.3425   3.3601
     3.4564   3.5044   3.5180   3.5460   3.6585   3.6787   3.8749   3.8902
     4.8371   4.8544   5.2485   5.2571   5.4996   5.5249   5.5722   5.6080
     5.9507   5.9771   6.0702   6.0812   6.1654   6.1716   6.3695   6.3920
     6.4226   6.4480   6.4973   6.5174   6.7582   6.7741   6.7953   6.8570
     7.3099   7.3125   7.7676   7.7829   7.9085   7.9157   7.9598   7.9687
     8.0420   8.0624   8.1117   8.1311   8.2069   8.2152   8.3198   8.3397
     8.3831   8.3910   8.4172   8.4471   8.4929   8.5330   8.5744   8.5950
     8.6197   8.6233   8.6481   8.6660   8.7114   8.7438   8.7880   8.8177
     8.8451   8.8576   8.8713   8.8918

          k = 0.0000 0.0000 0.5000 ( 80218 PWs)   bands (ev):

   -41.9204 -41.9204 -41.8161 -41.8161 -41.6491 -41.6491 -41.6121 -41.6121
   -41.5356 -41.5356 -41.5009 -41.5009 -41.4619 -41.4619 -41.4553 -41.4553
   -41.4361 -41.4361 -41.4198 -41.4198 -41.4072 -41.4072 -41.3950 -41.3950
   -41.3924 -41.3924 -41.3920 -41.3920 -41.3550 -41.3550 -41.3315 -41.3315
   -41.3292 -41.3292 -41.3265 -41.3265 -41.3135 -41.3135 -41.3082 -41.3082
   -41.2872 -41.2872 -41.2777 -41.2777 -41.2711 -41.2711 -41.2596 -41.2596
   -41.2399 -41.2399 -41.2365 -41.2365 -41.2292 -41.2292 -41.2226 -41.2226
   -41.2138 -41.2138 -41.1766 -41.1766 -41.1664 -41.1664 -41.1658 -41.1658
   -41.1516 -41.1516 -41.1057 -41.1057 -41.1055 -41.1055 -41.1027 -41.1027
   -41.0981 -41.0981 -41.0673 -41.0673 -41.0551 -41.0551 -41.0447 -41.0447
   -40.9882 -40.9882 -40.9795 -40.9795 -40.9775 -40.9775 -40.9546 -40.9546
   -40.8936 -40.8936 -40.8588 -40.8588 -40.8509 -40.8509 -40.7393 -40.7393
   -40.2217 -40.2217 -40.1726 -40.1726 -40.0847 -40.0847 -39.9513 -39.9513
   -39.9141 -39.9141 -39.8968 -39.8968 -39.8606 -39.8606 -39.8021 -39.8021
   -39.7678 -39.7678 -39.7640 -39.7640 -39.7595 -39.7595 -39.7401 -39.7401
   -39.7205 -39.7205 -39.7112 -39.7112 -39.7081 -39.7081 -39.6974 -39.6974
   -39.6954 -39.6954 -39.6930 -39.6930 -39.6917 -39.6917 -39.6819 -39.6819
   -39.6759 -39.6759 -39.6605 -39.6605 -39.6435 -39.6435 -39.6412 -39.6412
   -39.6359 -39.6359 -39.6270 -39.6270 -39.6235 -39.6235 -39.6045 -39.6045
   -39.5991 -39.5991 -39.5824 -39.5824 -39.5782 -39.5782 -39.5728 -39.5728
   -39.5620 -39.5620 -39.5554 -39.5554 -39.5430 -39.5430 -39.5399 -39.5399
   -39.5358 -39.5358 -39.5318 -39.5318 -39.5245 -39.5245 -39.5174 -39.5174
   -39.5121 -39.5121 -39.5089 -39.5089 -39.4973 -39.4973 -39.4795 -39.4795
   -39.4731 -39.4731 -39.4692 -39.4692 -39.4682 -39.4682 -39.4592 -39.4592
   -39.4392 -39.4392 -39.4240 -39.4240 -39.4205 -39.4205 -39.4105 -39.4105
   -39.4000 -39.4000 -39.3711 -39.3711 -39.3706 -39.3706 -39.3695 -39.3695
   -39.3689 -39.3689 -39.3465 -39.3465 -39.3221 -39.3221 -39.3196 -39.3196
   -39.3091 -39.3091 -39.2774 -39.2774 -39.2560 -39.2560 -39.2556 -39.2556
   -39.2534 -39.2534 -39.2362 -39.2362 -39.2071 -39.2071 -39.1675 -39.1675
   -39.1520 -39.1520 -39.1302 -39.1302 -39.0999 -39.0999 -39.0059 -39.0059
   -16.9525 -16.9525 -16.7214 -16.7214 -16.3804 -16.3804 -16.3469 -16.3469
   -16.3221 -16.3221 -16.2815 -16.2815 -16.2410 -16.2410 -15.8895 -15.8895
   -14.2874 -14.2874 -14.2805 -14.2805 -14.2573 -14.2573 -14.2393 -14.2393
   -14.2330 -14.2330 -14.2212 -14.2212 -14.1849 -14.1849 -14.1643 -14.1643
   -14.1212 -14.1212 -14.1010 -14.1010 -14.0884 -14.0884 -14.0815 -14.0815
   -14.0436 -14.0436 -14.0335 -14.0335 -14.0199 -14.0199 -14.0060 -14.0060
   -11.7572 -11.7572 -11.7328 -11.7328 -11.7231 -11.7231 -11.7000 -11.7000
   -11.6985 -11.6985 -11.6978 -11.6978 -11.6837 -11.6837 -11.6627 -11.6627
   -11.6497 -11.6497 -11.6411 -11.6411 -11.6201 -11.6201 -11.5940 -11.5940
   -11.5889 -11.5889 -11.5693 -11.5693 -11.5543 -11.5543 -11.5509 -11.5509
   -11.5235 -11.5235 -11.5093 -11.5093 -11.4993 -11.4993 -11.4944 -11.4944
   -11.4816 -11.4816 -11.4660 -11.4660 -11.4541 -11.4541 -11.4275 -11.4275
    -9.3167  -9.3167  -9.2506  -9.2506  -9.2106  -9.2106  -9.1033  -9.1033
    -9.0875  -9.0875  -9.0772  -9.0772  -8.9819  -8.9819  -8.9702  -8.9702
    -8.6364  -8.6364  -8.4357  -8.4357  -8.2909  -8.2909  -8.1696  -8.1696
    -8.1583  -8.1583  -8.1153  -8.1153  -8.0418  -8.0418  -7.9838  -7.9838
    -7.9383  -7.9383  -7.9070  -7.9070  -7.8814  -7.8814  -7.8655  -7.8655
    -7.8392  -7.8392  -7.8207  -7.8207  -7.7459  -7.7459  -7.6778  -7.6778
    -7.6738  -7.6738  -7.6375  -7.6375  -7.6233  -7.6233  -7.5850  -7.5850
    -7.5085  -7.5085  -7.4375  -7.4375  -7.3962  -7.3962  -7.3071  -7.3071
    -6.5987  -6.5987  -6.4732  -6.4732  -6.1876  -6.1876  -6.1339  -6.1339
    -6.1074  -6.1074  -6.0939  -6.0939  -6.0018  -6.0018  -5.9969  -5.9969
    -5.8539  -5.8539  -5.7609  -5.7609  -5.7028  -5.7028  -5.5444  -5.5444
    -5.5337  -5.5337  -5.4663  -5.4663  -5.1705  -5.1705  -5.1321  -5.1321
    -4.2705  -4.2705  -4.2072  -4.2072  -3.8327  -3.8327  -3.7495  -3.7495
    -3.7034  -3.7034  -3.6738  -3.6738  -3.6468  -3.6468  -3.6294  -3.6294
    -3.5124  -3.5124  -3.5013  -3.5013  -3.4402  -3.4402  -3.4251  -3.4251
    -3.3489  -3.3489  -3.1997  -3.1997  -3.1224  -3.1224  -3.0494  -3.0494
    -1.7585  -1.7585  -1.6339  -1.6339  -1.6047  -1.6047  -1.5165  -1.5165
    -1.4572  -1.4572  -1.4281  -1.4281  -1.3964  -1.3964  -1.3703  -1.3703
    -1.3404  -1.3404  -1.2242  -1.2242  -1.2131  -1.2131  -1.1173  -1.1173
    -1.1085  -1.1085  -1.1011  -1.1011  -1.0864  -1.0864  -1.0274  -1.0274
     0.1914   0.1914   0.2547   0.2547   0.2653   0.2653   0.3185   0.3185
     0.3992   0.3992   0.4135   0.4135   0.5642   0.5642   0.5698   0.5698
     0.7688   0.7688   0.8729   0.8729   1.0777   1.0777   1.1408   1.1408
     1.1712   1.1712   1.1853   1.1853   1.2272   1.2272   1.2767   1.2767
     1.3253   1.3253   1.3960   1.3960   1.4971   1.4971   1.5634   1.5634
     1.5882   1.5882   1.6545   1.6545   1.7457   1.7457   1.8145   1.8145
     1.8495   1.8495   1.8898   1.8898   1.9075   1.9075   1.9358   1.9358
     1.9910   1.9910   2.0100   2.0100   2.0638   2.0638   2.0927   2.0927
     2.1479   2.1479   2.1895   2.1895   2.2496   2.2496   2.2962   2.2962
     2.3186   2.3186   2.3388   2.3388   2.3675   2.3675   2.4014   2.4014
     2.4295   2.4295   2.4487   2.4487   2.4750   2.4750   2.4988   2.4988
     2.5295   2.5295   2.5555   2.5555   2.5970   2.5970   2.6257   2.6257
     2.6722   2.6722   2.7007   2.7007   2.7247   2.7247   2.7631   2.7631
     2.7888   2.7888   2.8250   2.8250   2.8647   2.8647   2.9163   2.9163
     2.9322   2.9322   2.9514   2.9514   2.9842   2.9842   3.0204   3.0204
     3.0481   3.0481   3.0766   3.0766   3.1150   3.1150   3.1681   3.1681
     3.1956   3.1956   3.2280   3.2280   3.2908   3.2908   3.3255   3.3255
     3.3589   3.3589   3.4331   3.4331   3.6487   3.6487   3.8005   3.8005
     5.0481   5.0481   5.1602   5.1602   5.7363   5.7363   5.7554   5.7554
     5.9387   5.9387   6.0286   6.0286   6.2583   6.2583   6.3285   6.3285
     6.9380   6.9380   7.0195   7.0195   7.3535   7.3535   7.4332   7.4332
     7.5348   7.5348   7.5771   7.5771   7.6454   7.6454   7.7020   7.7020
     7.7825   7.7825   7.8110   7.8110   8.0129   8.0129   8.1202   8.1202
     8.1645   8.1645   8.3611   8.3611   8.4529   8.4529   8.5264   8.5264
     8.6197   8.6197   8.6581   8.6581   8.7429   8.7429   8.7925   8.7925
     8.8216   8.8216   8.9107   8.9107

          k = 0.0000 0.0000 0.7500 ( 80189 PWs)   bands (ev):

   -41.9204 -41.9204 -41.8161 -41.8161 -41.6491 -41.6491 -41.6121 -41.6121
   -41.5356 -41.5356 -41.5009 -41.5009 -41.4619 -41.4619 -41.4553 -41.4553
   -41.4361 -41.4361 -41.4198 -41.4198 -41.4072 -41.4072 -41.3950 -41.3950
   -41.3924 -41.3924 -41.3920 -41.3920 -41.3550 -41.3550 -41.3315 -41.3315
   -41.3292 -41.3292 -41.3265 -41.3265 -41.3136 -41.3136 -41.3082 -41.3082
   -41.2872 -41.2872 -41.2777 -41.2777 -41.2711 -41.2711 -41.2596 -41.2596
   -41.2399 -41.2399 -41.2365 -41.2365 -41.2292 -41.2292 -41.2226 -41.2226
   -41.2138 -41.2138 -41.1766 -41.1766 -41.1664 -41.1664 -41.1658 -41.1658
   -41.1516 -41.1516 -41.1057 -41.1057 -41.1055 -41.1055 -41.1027 -41.1027
   -41.0981 -41.0981 -41.0673 -41.0673 -41.0551 -41.0551 -41.0446 -41.0446
   -40.9882 -40.9882 -40.9795 -40.9795 -40.9775 -40.9775 -40.9546 -40.9546
   -40.8936 -40.8936 -40.8588 -40.8588 -40.8508 -40.8508 -40.7393 -40.7393
   -40.2217 -40.2217 -40.1726 -40.1726 -40.0847 -40.0847 -39.9513 -39.9513
   -39.9141 -39.9141 -39.8968 -39.8968 -39.8606 -39.8606 -39.8021 -39.8021
   -39.7678 -39.7678 -39.7640 -39.7640 -39.7595 -39.7595 -39.7401 -39.7401
   -39.7205 -39.7205 -39.7112 -39.7112 -39.7081 -39.7081 -39.6974 -39.6974
   -39.6954 -39.6954 -39.6930 -39.6930 -39.6917 -39.6917 -39.6819 -39.6819
   -39.6759 -39.6759 -39.6605 -39.6605 -39.6435 -39.6435 -39.6412 -39.6412
   -39.6359 -39.6359 -39.6270 -39.6270 -39.6235 -39.6235 -39.6045 -39.6045
   -39.5991 -39.5991 -39.5824 -39.5824 -39.5781 -39.5781 -39.5728 -39.5728
   -39.5620 -39.5620 -39.5554 -39.5554 -39.5430 -39.5430 -39.5399 -39.5399
   -39.5358 -39.5358 -39.5318 -39.5318 -39.5245 -39.5245 -39.5174 -39.5174
   -39.5121 -39.5121 -39.5089 -39.5089 -39.4973 -39.4973 -39.4795 -39.4795
   -39.4731 -39.4731 -39.4692 -39.4692 -39.4682 -39.4682 -39.4592 -39.4592
   -39.4392 -39.4392 -39.4240 -39.4240 -39.4205 -39.4205 -39.4105 -39.4105
   -39.4000 -39.4000 -39.3711 -39.3711 -39.3706 -39.3706 -39.3695 -39.3695
   -39.3689 -39.3689 -39.3465 -39.3465 -39.3221 -39.3221 -39.3196 -39.3196
   -39.3091 -39.3091 -39.2774 -39.2774 -39.2560 -39.2560 -39.2556 -39.2556
   -39.2534 -39.2534 -39.2362 -39.2362 -39.2071 -39.2071 -39.1674 -39.1674
   -39.1520 -39.1520 -39.1302 -39.1302 -39.0999 -39.0999 -39.0059 -39.0059
   -16.9525 -16.9525 -16.7214 -16.7214 -16.3804 -16.3804 -16.3469 -16.3469
   -16.3220 -16.3220 -16.2815 -16.2815 -16.2410 -16.2410 -15.8895 -15.8895
   -14.2874 -14.2874 -14.2805 -14.2805 -14.2573 -14.2573 -14.2393 -14.2393
   -14.2330 -14.2330 -14.2212 -14.2212 -14.1849 -14.1849 -14.1643 -14.1643
   -14.1212 -14.1212 -14.1010 -14.1010 -14.0884 -14.0884 -14.0815 -14.0815
   -14.0436 -14.0436 -14.0335 -14.0335 -14.0199 -14.0199 -14.0060 -14.0060
   -11.7572 -11.7572 -11.7332 -11.7331 -11.7230 -11.7230 -11.7000 -11.6999
   -11.6986 -11.6985 -11.6978 -11.6974 -11.6837 -11.6836 -11.6627 -11.6627
   -11.6497 -11.6497 -11.6411 -11.6411 -11.6203 -11.6202 -11.5940 -11.5940
   -11.5889 -11.5889 -11.5694 -11.5694 -11.5543 -11.5543 -11.5509 -11.5509
   -11.5235 -11.5235 -11.5092 -11.5092 -11.4993 -11.4993 -11.4943 -11.4943
   -11.4816 -11.4815 -11.4659 -11.4659 -11.4541 -11.4541 -11.4275 -11.4275
    -9.3170  -9.3170  -9.2505  -9.2505  -9.2102  -9.2102  -9.1032  -9.1032
    -9.0875  -9.0875  -9.0772  -9.0772  -8.9820  -8.9820  -8.9701  -8.9701
    -8.6388  -8.6388  -8.4345  -8.4344  -8.3009  -8.3007  -8.1719  -8.1709
    -8.1406  -8.1399  -8.1027  -8.1023  -8.0414  -8.0398  -7.9791  -7.9779
    -7.9398  -7.9385  -7.9125  -7.9120  -7.8871  -7.8854  -7.8711  -7.8699
    -7.8417  -7.8412  -7.8215  -7.8208  -7.7444  -7.7436  -7.6904  -7.6895
    -7.6741  -7.6722  -7.6406  -7.6391  -7.6226  -7.6222  -7.5922  -7.5914
    -7.5084  -7.5081  -7.4325  -7.4322  -7.3942  -7.3942  -7.3030  -7.3029
    -6.5986  -6.5986  -6.4731  -6.4730  -6.1876  -6.1876  -6.1340  -6.1340
    -6.1076  -6.1076  -6.0936  -6.0936  -6.0039  -6.0038  -5.9951  -5.9949
    -5.8544  -5.8544  -5.7612  -5.7612  -5.7027  -5.7027  -5.5445  -5.5445
    -5.5337  -5.5337  -5.4663  -5.4663  -5.1703  -5.1703  -5.1319  -5.1318
    -4.4151  -4.4149  -4.0533  -4.0527  -3.8929  -3.8925  -3.8217  -3.8202
    -3.8098  -3.8083  -3.6627  -3.6624  -3.5539  -3.5523  -3.5078  -3.5074
    -3.4936  -3.4919  -3.4564  -3.4555  -3.4366  -3.4359  -3.4226  -3.4223
    -3.3504  -3.3498  -3.2833  -3.2824  -3.1704  -3.1701  -2.8835  -2.8829
    -1.7585  -1.7584  -1.6353  -1.6352  -1.6039  -1.6037  -1.5169  -1.5168
    -1.4576  -1.4571  -1.4276  -1.4271  -1.3966  -1.3965  -1.3699  -1.3698
    -1.3417  -1.3416  -1.2250  -1.2246  -1.2130  -1.2129  -1.1207  -1.1200
    -1.1120  -1.1115  -1.1012  -1.0997  -1.0880  -1.0875  -1.0216  -1.0212
     0.1738   0.1771   0.2183   0.2310   0.2937   0.3024   0.3143   0.3200
     0.3810   0.3945   0.4151   0.4208   0.4736   0.4822   0.5347   0.5412
     0.5736   0.5795   0.6300   0.6395   0.7047   0.7144   0.7934   0.8034
     1.1498   1.1577   1.2567   1.2626   1.2913   1.2996   1.3203   1.3366
     1.4446   1.4916   1.5225   1.5446   1.5755   1.5876   1.6134   1.6461
     1.6690   1.6876   1.7329   1.7714   1.7815   1.8056   1.8266   1.8559
     1.8621   1.8760   1.8901   1.9085   1.9391   1.9673   1.9838   2.0099
     2.0197   2.0442   2.0639   2.0776   2.0913   2.1050   2.1149   2.1552
     2.1772   2.1952   2.2131   2.2240   2.2436   2.2630   2.2896   2.2962
     2.3219   2.3291   2.3483   2.3735   2.3830   2.3861   2.4157   2.4220
     2.4353   2.4455   2.4600   2.4722   2.4828   2.4957   2.5051   2.5232
     2.5365   2.5474   2.5561   2.5807   2.5977   2.6082   2.6364   2.6473
     2.6513   2.6763   2.6858   2.7021   2.7112   2.7312   2.7382   2.7518
     2.7974   2.8055   2.8163   2.8328   2.8558   2.8678   2.8907   2.8999
     2.9182   2.9395   2.9520   2.9702   2.9850   3.0060   3.0184   3.0340
     3.0624   3.0797   3.0877   3.0935   3.1284   3.1438   3.1709   3.1859
     3.2059   3.2200   3.2437   3.2687   3.2841   3.2980   3.3425   3.3601
     3.4564   3.5044   3.5180   3.5460   3.6585   3.6787   3.8749   3.8902
     4.8371   4.8544   5.2485   5.2571   5.4996   5.5249   5.5722   5.6080
     5.9507   5.9771   6.0702   6.0812   6.1654   6.1716   6.3695   6.3920
     6.4226   6.4480   6.4973   6.5174   6.7582   6.7741   6.7953   6.8570
     7.3099   7.3125   7.7676   7.7829   7.9085   7.9157   7.9598   7.9687
     8.0420   8.0624   8.1117   8.1311   8.2069   8.2152   8.3198   8.3397
     8.3831   8.3910   8.4172   8.4471   8.4929   8.5330   8.5744   8.5950
     8.6197   8.6233   8.6481   8.6660   8.7114   8.7438   8.7880   8.8177
     8.8451   8.8576   8.8713   8.8918

          k = 0.0000 0.2485 0.0000 ( 80274 PWs)   bands (ev):

   -41.9204 -41.9204 -41.8161 -41.8161 -41.6491 -41.6491 -41.6121 -41.6121
   -41.5356 -41.5356 -41.5009 -41.5009 -41.4619 -41.4619 -41.4553 -41.4553
   -41.4361 -41.4361 -41.4198 -41.4198 -41.4072 -41.4072 -41.3950 -41.3950
   -41.3924 -41.3924 -41.3920 -41.3920 -41.3550 -41.3550 -41.3315 -41.3315
   -41.3292 -41.3292 -41.3265 -41.3265 -41.3136 -41.3136 -41.3082 -41.3082
   -41.2872 -41.2872 -41.2777 -41.2777 -41.2711 -41.2711 -41.2597 -41.2597
   -41.2399 -41.2399 -41.2365 -41.2365 -41.2292 -41.2292 -41.2226 -41.2226
   -41.2138 -41.2138 -41.1767 -41.1767 -41.1664 -41.1664 -41.1659 -41.1659
   -41.1516 -41.1516 -41.1057 -41.1057 -41.1055 -41.1055 -41.1028 -41.1028
   -41.0982 -41.0982 -41.0673 -41.0673 -41.0551 -41.0551 -41.0447 -41.0447
   -40.9882 -40.9882 -40.9796 -40.9796 -40.9775 -40.9775 -40.9546 -40.9546
   -40.8936 -40.8936 -40.8588 -40.8588 -40.8509 -40.8509 -40.7394 -40.7394
   -40.2217 -40.2217 -40.1726 -40.1726 -40.0847 -40.0847 -39.9513 -39.9513
   -39.9141 -39.9141 -39.8968 -39.8968 -39.8606 -39.8606 -39.8021 -39.8021
   -39.7678 -39.7678 -39.7641 -39.7641 -39.7595 -39.7595 -39.7401 -39.7401
   -39.7206 -39.7206 -39.7112 -39.7112 -39.7081 -39.7081 -39.6974 -39.6974
   -39.6954 -39.6954 -39.6930 -39.6930 -39.6917 -39.6917 -39.6819 -39.6819
   -39.6759 -39.6759 -39.6605 -39.6605 -39.6435 -39.6435 -39.6412 -39.6412
   -39.6359 -39.6359 -39.6270 -39.6270 -39.6235 -39.6235 -39.6045 -39.6045
   -39.5991 -39.5991 -39.5824 -39.5824 -39.5782 -39.5782 -39.5728 -39.5728
   -39.5620 -39.5620 -39.5554 -39.5554 -39.5430 -39.5430 -39.5399 -39.5399
   -39.5358 -39.5358 -39.5318 -39.5318 -39.5245 -39.5245 -39.5174 -39.5174
   -39.5121 -39.5121 -39.5089 -39.5089 -39.4973 -39.4973 -39.4795 -39.4795
   -39.4731 -39.4731 -39.4692 -39.4692 -39.4682 -39.4682 -39.4593 -39.4593
   -39.4392 -39.4392 -39.4240 -39.4240 -39.4205 -39.4205 -39.4105 -39.4105
   -39.4001 -39.4001 -39.3711 -39.3711 -39.3706 -39.3706 -39.3695 -39.3695
   -39.3689 -39.3689 -39.3465 -39.3465 -39.3221 -39.3221 -39.3196 -39.3196
   -39.3091 -39.3091 -39.2774 -39.2774 -39.2560 -39.2560 -39.2556 -39.2556
   -39.2534 -39.2534 -39.2362 -39.2362 -39.2071 -39.2071 -39.1675 -39.1675
   -39.1520 -39.1520 -39.1302 -39.1302 -39.0999 -39.0999 -39.0059 -39.0059
   -16.9525 -16.9525 -16.7214 -16.7214 -16.3804 -16.3804 -16.3469 -16.3469
   -16.3221 -16.3221 -16.2816 -16.2816 -16.2410 -16.2410 -15.8895 -15.8895
   -14.2874 -14.2874 -14.2805 -14.2805 -14.2573 -14.2573 -14.2394 -14.2394
   -14.2331 -14.2331 -14.2212 -14.2212 -14.1849 -14.1849 -14.1643 -14.1643
   -14.1213 -14.1212 -14.1010 -14.1010 -14.0884 -14.0884 -14.0815 -14.0815
   -14.0437 -14.0437 -14.0335 -14.0335 -14.0200 -14.0200 -14.0060 -14.0060
   -11.7573 -11.7573 -11.7335 -11.7334 -11.7226 -11.7224 -11.7002 -11.7000
   -11.6987 -11.6987 -11.6975 -11.6974 -11.6838 -11.6837 -11.6627 -11.6627
   -11.6497 -11.6497 -11.6412 -11.6412 -11.6202 -11.6200 -11.5944 -11.5942
   -11.5891 -11.5889 -11.5696 -11.5696 -11.5543 -11.5543 -11.5509 -11.5509
   -11.5235 -11.5235 -11.5091 -11.5091 -11.4993 -11.4993 -11.4938 -11.4934
   -11.4819 -11.4817 -11.4662 -11.4661 -11.4541 -11.4541 -11.4275 -11.4275
    -9.3174  -9.3174  -9.2505  -9.2505  -9.2099  -9.2099  -9.1021  -9.1021
    -9.0880  -9.0880  -9.0777  -9.0777  -8.9811  -8.9811  -8.9712  -8.9712
    -8.6392  -8.6391  -8.4274  -8.4273  -8.3225  -8.3223  -8.1717  -8.1708
    -8.1245  -8.1240  -8.0871  -8.0863  -8.0428  -8.0419  -7.9775  -7.9773
    -7.9526  -7.9521  -7.9160  -7.9148  -7.8898  -7.8877  -7.8738  -7.8735
    -7.8446  -7.8420  -7.8174  -7.8151  -7.7360  -7.7353  -7.7034  -7.7021
    -7.6712  -7.6706  -7.6435  -7.6430  -7.6195  -7.6190  -7.5815  -7.5802
    -7.5163  -7.5157  -7.4277  -7.4277  -7.3953  -7.3952  -7.3054  -7.3051
    -6.5985  -6.5985  -6.4729  -6.4729  -6.1872  -6.1872  -6.1341  -6.1341
    -6.1058  -6.1058  -6.0948  -6.0948  -6.0053  -6.0053  -5.9937  -5.9937
    -5.8550  -5.8550  -5.7617  -5.7617  -5.7027  -5.7027  -5.5446  -5.5446
    -5.5339  -5.5339  -5.4663  -5.4663  -5.1703  -5.1703  -5.1316  -5.1316
    -4.4241  -4.4237  -4.0300  -4.0295  -3.9386  -3.9379  -3.8258  -3.8251
    -3.7941  -3.7933  -3.6629  -3.6629  -3.5488  -3.5478  -3.5089  -3.5087
    -3.4854  -3.4849  -3.4468  -3.4459  -3.4330  -3.4322  -3.4124  -3.4118
    -3.3496  -3.3491  -3.3043  -3.3038  -3.1647  -3.1646  -2.8681  -2.8667
    -1.7577  -1.7577  -1.6353  -1.6349  -1.6036  -1.6033  -1.5181  -1.5180
    -1.4574  -1.4572  -1.4265  -1.4263  -1.3967  -1.3964  -1.3693  -1.3692
    -1.3428  -1.3427  -1.2252  -1.2250  -1.2131  -1.2129  -1.1249  -1.1243
    -1.1153  -1.1144  -1.0995  -1.0992  -1.0898  -1.0897  -1.0159  -1.0158
     0.1767   0.1890   0.2486   0.2564   0.2849   0.2896   0.3376   0.3410
     0.3662   0.3765   0.3882   0.4054   0.4425   0.4482   0.4637   0.4760
     0.5363   0.5391   0.6259   0.6274   0.7541   0.7666   0.8101   0.8153
     1.1511   1.1913   1.2498   1.2738   1.2862   1.3114   1.3181   1.3278
     1.4182   1.4902   1.5279   1.5445   1.5837   1.6007   1.6235   1.6425
     1.6819   1.7025   1.7334   1.7683   1.7937   1.8031   1.8140   1.8398
     1.8574   1.8724   1.8916   1.9084   1.9446   1.9659   1.9958   2.0174
     2.0382   2.0516   2.0583   2.0687   2.0991   2.1088   2.1227   2.1513
     2.1667   2.1926   2.2029   2.2270   2.2488   2.2645   2.2886   2.3004
     2.3130   2.3340   2.3465   2.3595   2.3774   2.3869   2.4038   2.4250
     2.4287   2.4378   2.4552   2.4726   2.4819   2.4967   2.5147   2.5319
     2.5500   2.5573   2.5689   2.5864   2.5897   2.5978   2.6162   2.6292
     2.6397   2.6606   2.6740   2.6947   2.7102   2.7319   2.7442   2.7559
     2.7782   2.8040   2.8156   2.8393   2.8591   2.8746   2.9000   2.9041
     2.9096   2.9330   2.9659   2.9832   2.9979   3.0138   3.0375   3.0435
     3.0705   3.0841   3.0935   3.1141   3.1412   3.1543   3.1708   3.1924
     3.2172   3.2296   3.2500   3.2611   3.2730   3.3066   3.3313   3.3625
     3.4733   3.5086   3.5259   3.5653   3.6980   3.7044   3.8996   3.9104
     4.7835   4.8965   5.2363   5.2699   5.4341   5.5262   5.5668   5.6125
     5.9464   5.9752   6.0620   6.0908   6.1648   6.1923   6.3354   6.3741
     6.4141   6.4563   6.4718   6.4957   6.6777   6.7357   6.8320   6.8443
     7.2965   7.2995   7.6933   7.7057   7.8023   7.8308   7.9802   8.0016
     8.0332   8.0516   8.1665   8.1956   8.2330   8.2642   8.3055   8.3305
     8.3726   8.4053   8.4352   8.4507   8.5037   8.5240   8.5464   8.5704
     8.5985   8.6146   8.6322   8.6568   8.7451   8.7636   8.8147   8.8320
     8.8549   8.8654   8.8893   8.9223

          k = 0.0000 0.2485 0.2500 ( 80251 PWs)   bands (ev):

   -41.9204 -41.9204 -41.8161 -41.8161 -41.6491 -41.6491 -41.6121 -41.6121
   -41.5356 -41.5356 -41.5009 -41.5009 -41.4619 -41.4619 -41.4553 -41.4553
   -41.4361 -41.4361 -41.4198 -41.4198 -41.4072 -41.4072 -41.3950 -41.3950
   -41.3924 -41.3924 -41.3920 -41.3920 -41.3550 -41.3550 -41.3315 -41.3315
   -41.3292 -41.3292 -41.3265 -41.3265 -41.3136 -41.3136 -41.3082 -41.3082
   -41.2872 -41.2872 -41.2777 -41.2777 -41.2711 -41.2711 -41.2597 -41.2597
   -41.2399 -41.2399 -41.2365 -41.2365 -41.2292 -41.2292 -41.2226 -41.2226
   -41.2138 -41.2138 -41.1766 -41.1766 -41.1664 -41.1664 -41.1658 -41.1658
   -41.1516 -41.1516 -41.1057 -41.1057 -41.1055 -41.1055 -41.1028 -41.1028
   -41.0982 -41.0982 -41.0673 -41.0673 -41.0551 -41.0551 -41.0447 -41.0447
   -40.9882 -40.9882 -40.9795 -40.9795 -40.9775 -40.9775 -40.9546 -40.9546
   -40.8936 -40.8936 -40.8588 -40.8588 -40.8509 -40.8509 -40.7393 -40.7393
   -40.2217 -40.2217 -40.1726 -40.1726 -40.0847 -40.0847 -39.9513 -39.9513
   -39.9141 -39.9141 -39.8968 -39.8968 -39.8606 -39.8606 -39.8021 -39.8021
   -39.7678 -39.7678 -39.7640 -39.7640 -39.7595 -39.7595 -39.7401 -39.7401
   -39.7206 -39.7206 -39.7112 -39.7112 -39.7081 -39.7081 -39.6974 -39.6974
   -39.6954 -39.6954 -39.6930 -39.6930 -39.6917 -39.6917 -39.6819 -39.6819
   -39.6759 -39.6759 -39.6605 -39.6605 -39.6435 -39.6435 -39.6412 -39.6412
   -39.6359 -39.6359 -39.6270 -39.6270 -39.6235 -39.6235 -39.6045 -39.6045
   -39.5991 -39.5991 -39.5824 -39.5824 -39.5782 -39.5782 -39.5728 -39.5728
   -39.5620 -39.5620 -39.5554 -39.5554 -39.5430 -39.5430 -39.5399 -39.5399
   -39.5358 -39.5358 -39.5318 -39.5318 -39.5245 -39.5245 -39.5174 -39.5174
   -39.5121 -39.5121 -39.5089 -39.5089 -39.4973 -39.4973 -39.4795 -39.4795
   -39.4731 -39.4731 -39.4692 -39.4692 -39.4682 -39.4682 -39.4592 -39.4592
   -39.4392 -39.4392 -39.4240 -39.4240 -39.4205 -39.4205 -39.4105 -39.4105
   -39.4000 -39.4000 -39.3711 -39.3711 -39.3706 -39.3706 -39.3695 -39.3695
   -39.3689 -39.3689 -39.3465 -39.3465 -39.3221 -39.3221 -39.3196 -39.3196
   -39.3091 -39.3091 -39.2774 -39.2774 -39.2560 -39.2560 -39.2556 -39.2556
   -39.2534 -39.2534 -39.2362 -39.2362 -39.2071 -39.2071 -39.1675 -39.1675
   -39.1520 -39.1520 -39.1302 -39.1302 -39.0999 -39.0999 -39.0059 -39.0059
   -16.9525 -16.9525 -16.7214 -16.7214 -16.3804 -16.3804 -16.3469 -16.3469
   -16.3221 -16.3221 -16.2816 -16.2816 -16.2410 -16.2410 -15.8895 -15.8895
   -14.2874 -14.2874 -14.2805 -14.2805 -14.2573 -14.2573 -14.2393 -14.2393
   -14.2331 -14.2331 -14.2212 -14.2212 -14.1849 -14.1849 -14.1643 -14.1643
   -14.1213 -14.1212 -14.1010 -14.1010 -14.0884 -14.0884 -14.0815 -14.0815
   -14.0436 -14.0436 -14.0335 -14.0335 -14.0200 -14.0200 -14.0060 -14.0060
   -11.7572 -11.7572 -11.7331 -11.7331 -11.7226 -11.7225 -11.7003 -11.7001
   -11.6987 -11.6986 -11.6978 -11.6975 -11.6838 -11.6838 -11.6627 -11.6627
   -11.6497 -11.6496 -11.6412 -11.6412 -11.6200 -11.6199 -11.5944 -11.5942
   -11.5891 -11.5889 -11.5695 -11.5694 -11.5543 -11.5543 -11.5509 -11.5509
   -11.5235 -11.5235 -11.5092 -11.5092 -11.4993 -11.4993 -11.4938 -11.4935
   -11.4819 -11.4818 -11.4663 -11.4662 -11.4541 -11.4541 -11.4275 -11.4275
    -9.3171  -9.3171  -9.2506  -9.2506  -9.2102  -9.2102  -9.1023  -9.1023
    -9.0879  -9.0879  -9.0776  -9.0776  -8.9811  -8.9811  -8.9711  -8.9710
    -8.6373  -8.6373  -8.4269  -8.4268  -8.3158  -8.3156  -8.1698  -8.1686
    -8.1478  -8.1462  -8.0952  -8.0948  -8.0469  -8.0453  -7.9818  -7.9802
    -7.9451  -7.9439  -7.9072  -7.9056  -7.8863  -7.8843  -7.8706  -7.8696
    -7.8441  -7.8416  -7.8232  -7.8209  -7.7395  -7.7372  -7.6940  -7.6931
    -7.6677  -7.6654  -7.6330  -7.6314  -7.6200  -7.6189  -7.5850  -7.5842
    -7.5166  -7.5155  -7.4326  -7.4324  -7.3962  -7.3961  -7.3084  -7.3082
    -6.5985  -6.5985  -6.4730  -6.4730  -6.1872  -6.1872  -6.1340  -6.1340
    -6.1057  -6.1056  -6.0951  -6.0951  -6.0040  -6.0039  -5.9949  -5.9947
    -5.8545  -5.8544  -5.7614  -5.7614  -5.7028  -5.7028  -5.5445  -5.5445
    -5.5338  -5.5338  -5.4663  -5.4663  -5.1705  -5.1705  -5.1319  -5.1319
    -4.3583  -4.3577  -4.0082  -4.0076  -3.9617  -3.9609  -3.8215  -3.8213
    -3.7691  -3.7677  -3.6620  -3.6618  -3.6029  -3.6018  -3.5148  -3.5139
    -3.4989  -3.4981  -3.4452  -3.4446  -3.4289  -3.4284  -3.4005  -3.3998
    -3.3674  -3.3665  -3.3342  -3.3340  -3.1701  -3.1699  -2.9623  -2.9606
    -1.7577  -1.7576  -1.6344  -1.6342  -1.6037  -1.6034  -1.5178  -1.5176
    -1.4573  -1.4570  -1.4276  -1.4268  -1.3967  -1.3963  -1.3696  -1.3695
    -1.3414  -1.3413  -1.2242  -1.2236  -1.2138  -1.2136  -1.1204  -1.1190
    -1.1129  -1.1124  -1.1015  -1.1000  -1.0882  -1.0877  -1.0214  -1.0210
     0.2003   0.2098   0.2661   0.2703   0.3254   0.3309   0.3539   0.3645
     0.3878   0.4068   0.4936   0.5050   0.5598   0.5738   0.5932   0.6132
     0.6460   0.6535   0.6845   0.6911   0.7994   0.8089   0.8704   0.8858
     1.1467   1.1870   1.2528   1.2682   1.2810   1.2991   1.3166   1.3348
     1.4155   1.4365   1.4889   1.5139   1.5284   1.5566   1.5873   1.6109
     1.6503   1.6557   1.7130   1.7316   1.7693   1.7837   1.7981   1.8109
     1.8535   1.8601   1.8772   1.8971   1.9275   1.9455   1.9730   1.9830
     1.9978   2.0052   2.0473   2.0511   2.0619   2.0909   2.1101   2.1205
     2.1536   2.1586   2.1918   2.2089   2.2324   2.2424   2.2591   2.2717
     2.2858   2.2974   2.3207   2.3414   2.3602   2.3703   2.3914   2.3962
     2.4087   2.4220   2.4286   2.4426   2.4626   2.4843   2.4976   2.5109
     2.5222   2.5362   2.5453   2.5513   2.5839   2.5886   2.6015   2.6315
     2.6428   2.6599   2.6751   2.6989   2.7163   2.7318   2.7386   2.7645
     2.7879   2.8044   2.8103   2.8284   2.8527   2.8672   2.8873   2.8983
     2.9170   2.9255   2.9494   2.9659   2.9866   3.0018   3.0130   3.0287
     3.0583   3.0656   3.0807   3.1001   3.1127   3.1398   3.1513   3.1639
     3.1832   3.1971   3.2129   3.2457   3.2513   3.2697   3.2998   3.3264
     3.3962   3.4424   3.4597   3.4872   3.5480   3.5725   3.6835   3.7241
     5.0469   5.1504   5.4393   5.4864   5.5525   5.5971   5.7625   5.7888
     6.0345   6.1058   6.2687   6.2967   6.3319   6.4162   6.4244   6.4568
     6.5424   6.6026   6.6844   6.7222   6.7609   6.8014   6.9093   7.0472
     7.3691   7.3803   7.6162   7.6328   7.8255   7.8526   7.9505   7.9602
     8.0097   8.0481   8.0641   8.0887   8.1303   8.1725   8.1988   8.2147
     8.2637   8.3173   8.3621   8.3872   8.4407   8.4695   8.4956   8.5171
     8.5546   8.5706   8.5933   8.6164   8.6480   8.6790   8.7236   8.7521
     8.8096   8.8441   8.8796   8.9092

          k = 0.0000 0.2485 0.5000 ( 80228 PWs)   bands (ev):

   -41.9204 -41.9204 -41.8161 -41.8161 -41.6491 -41.6491 -41.6121 -41.6121
   -41.5356 -41.5356 -41.5009 -41.5009 -41.4619 -41.4619 -41.4553 -41.4553
   -41.4361 -41.4361 -41.4198 -41.4198 -41.4072 -41.4072 -41.3950 -41.3950
   -41.3924 -41.3924 -41.3920 -41.3920 -41.3550 -41.3550 -41.3315 -41.3315
   -41.3292 -41.3292 -41.3265 -41.3265 -41.3136 -41.3136 -41.3082 -41.3082
   -41.2872 -41.2872 -41.2777 -41.2777 -41.2711 -41.2711 -41.2596 -41.2596
   -41.2399 -41.2399 -41.2365 -41.2365 -41.2292 -41.2292 -41.2226 -41.2226
   -41.2138 -41.2138 -41.1766 -41.1766 -41.1664 -41.1664 -41.1658 -41.1658
   -41.1516 -41.1516 -41.1057 -41.1057 -41.1055 -41.1055 -41.1027 -41.1027
   -41.0981 -41.0981 -41.0673 -41.0673 -41.0551 -41.0551 -41.0447 -41.0447
   -40.9882 -40.9882 -40.9795 -40.9795 -40.9775 -40.9775 -40.9546 -40.9546
   -40.8936 -40.8936 -40.8588 -40.8588 -40.8508 -40.8508 -40.7393 -40.7393
   -40.2217 -40.2217 -40.1726 -40.1726 -40.0847 -40.0847 -39.9513 -39.9513
   -39.9141 -39.9141 -39.8968 -39.8968 -39.8606 -39.8606 -39.8021 -39.8021
   -39.7678 -39.7678 -39.7640 -39.7640 -39.7595 -39.7595 -39.7401 -39.7401
   -39.7205 -39.7205 -39.7112 -39.7112 -39.7081 -39.7081 -39.6974 -39.6974
   -39.6954 -39.6954 -39.6930 -39.6930 -39.6917 -39.6917 -39.6819 -39.6819
   -39.6759 -39.6759 -39.6605 -39.6605 -39.6435 -39.6435 -39.6412 -39.6412
   -39.6359 -39.6359 -39.6270 -39.6270 -39.6235 -39.6235 -39.6045 -39.6045
   -39.5991 -39.5991 -39.5824 -39.5824 -39.5781 -39.5781 -39.5728 -39.5728
   -39.5620 -39.5620 -39.5554 -39.5554 -39.5430 -39.5430 -39.5399 -39.5399
   -39.5358 -39.5358 -39.5318 -39.5318 -39.5245 -39.5245 -39.5174 -39.5174
   -39.5121 -39.5121 -39.5089 -39.5089 -39.4973 -39.4973 -39.4795 -39.4795
   -39.4731 -39.4731 -39.4692 -39.4692 -39.4682 -39.4682 -39.4592 -39.4592
   -39.4392 -39.4392 -39.4240 -39.4240 -39.4205 -39.4205 -39.4105 -39.4105
   -39.4000 -39.4000 -39.3711 -39.3711 -39.3706 -39.3706 -39.3695 -39.3695
   -39.3689 -39.3689 -39.3465 -39.3465 -39.3221 -39.3221 -39.3196 -39.3196
   -39.3091 -39.3091 -39.2774 -39.2774 -39.2560 -39.2560 -39.2556 -39.2556
   -39.2534 -39.2534 -39.2362 -39.2362 -39.2071 -39.2071 -39.1674 -39.1674
   -39.1520 -39.1520 -39.1302 -39.1302 -39.0999 -39.0999 -39.0059 -39.0059
   -16.9525 -16.9525 -16.7214 -16.7214 -16.3804 -16.3804 -16.3469 -16.3469
   -16.3221 -16.3221 -16.2816 -16.2816 -16.2410 -16.2410 -15.8895 -15.8895
   -14.2874 -14.2874 -14.2805 -14.2805 -14.2572 -14.2572 -14.2393 -14.2393
   -14.2331 -14.2331 -14.2212 -14.2212 -14.1849 -14.1849 -14.1643 -14.1643
   -14.1212 -14.1212 -14.1010 -14.1010 -14.0884 -14.0884 -14.0815 -14.0815
   -14.0436 -14.0436 -14.0335 -14.0335 -14.0200 -14.0199 -14.0060 -14.0060
   -11.7572 -11.7572 -11.7328 -11.7328 -11.7227 -11.7225 -11.7004 -11.7002
   -11.6986 -11.6985 -11.6979 -11.6979 -11.6839 -11.6838 -11.6627 -11.6627
   -11.6496 -11.6496 -11.6412 -11.6412 -11.6199 -11.6197 -11.5944 -11.5942
   -11.5891 -11.5889 -11.5693 -11.5693 -11.5543 -11.5543 -11.5510 -11.5509
   -11.5235 -11.5235 -11.5093 -11.5093 -11.4993 -11.4993 -11.4939 -11.4935
   -11.4819 -11.4818 -11.4665 -11.4663 -11.4541 -11.4540 -11.4275 -11.4275
    -9.3167  -9.3167  -9.2506  -9.2506  -9.2106  -9.2106  -9.1025  -9.1025
    -9.0879  -9.0878  -9.0776  -9.0776  -8.9810  -8.9810  -8.9711  -8.9711
    -8.6351  -8.6350  -8.4282  -8.4281  -8.3052  -8.3050  -8.1793  -8.1787
    -8.1537  -8.1528  -8.1086  -8.1079  -8.0491  -8.0478  -7.9875  -7.9869
    -7.9381  -7.9372  -7.9030  -7.9011  -7.8822  -7.8813  -7.8662  -7.8654
    -7.8357  -7.8333  -7.8291  -7.8277  -7.7438  -7.7421  -7.6837  -7.6822
    -7.6649  -7.6637  -7.6277  -7.6265  -7.6199  -7.6190  -7.5821  -7.5808
    -7.5180  -7.5170  -7.4378  -7.4378  -7.3975  -7.3974  -7.3112  -7.3109
    -6.5986  -6.5986  -6.4732  -6.4732  -6.1872  -6.1872  -6.1339  -6.1339
    -6.1057  -6.1057  -6.0951  -6.0950  -6.0018  -6.0018  -5.9967  -5.9967
    -5.8540  -5.8540  -5.7610  -5.7610  -5.7029  -5.7029  -5.5445  -5.5445
    -5.5338  -5.5338  -5.4663  -5.4663  -5.1706  -5.1706  -5.1321  -5.1321
    -4.2174  -4.2168  -4.1544  -4.1540  -3.8579  -3.8570  -3.7992  -3.7985
    -3.7737  -3.7720  -3.6709  -3.6704  -3.6044  -3.6030  -3.5843  -3.5820
    -3.5157  -3.5150  -3.4947  -3.4940  -3.4408  -3.4406  -3.4270  -3.4265
    -3.3485  -3.3480  -3.2324  -3.2315  -3.1697  -3.1689  -3.1204  -3.1187
    -1.7575  -1.7575  -1.6336  -1.6336  -1.6037  -1.6037  -1.5175  -1.5174
    -1.4571  -1.4569  -1.4278  -1.4275  -1.3967  -1.3963  -1.3701  -1.3699
    -1.3401  -1.3400  -1.2234  -1.2231  -1.2140  -1.2137  -1.1177  -1.1171
    -1.1094  -1.1083  -1.1014  -1.1007  -1.0862  -1.0862  -1.0271  -1.0270
     0.2338   0.2389   0.2602   0.2732   0.3263   0.3338   0.3361   0.3438
     0.4161   0.4403   0.5624   0.5699   0.6853   0.6943   0.7274   0.7401
     0.7829   0.7937   0.8910   0.9018   1.0728   1.0810   1.1282   1.1369
     1.1565   1.1712   1.1917   1.2085   1.2294   1.2472   1.2622   1.2935
     1.3047   1.3289   1.3643   1.4002   1.4406   1.4814   1.5274   1.5536
     1.5691   1.5884   1.6282   1.6392   1.6988   1.7346   1.7669   1.8005
     1.8249   1.8356   1.8410   1.8630   1.8878   1.8975   1.9139   1.9196
     1.9543   1.9838   1.9936   2.0119   2.0325   2.0381   2.0730   2.0931
     2.1202   2.1333   2.1714   2.1835   2.2045   2.2271   2.2304   2.2529
     2.2852   2.3031   2.3126   2.3298   2.3444   2.3480   2.3669   2.3793
     2.3945   2.4069   2.4139   2.4280   2.4407   2.4594   2.4836   2.4966
     2.5056   2.5115   2.5304   2.5464   2.5649   2.5894   2.6149   2.6208
     2.6334   2.6501   2.6741   2.6974   2.7164   2.7273   2.7514   2.7758
     2.7838   2.7983   2.8223   2.8320   2.8561   2.8766   2.8836   2.9107
     2.9142   2.9185   2.9334   2.9545   2.9677   2.9844   3.0072   3.0179
     3.0394   3.0584   3.0650   3.0968   3.1012   3.1242   3.1384   3.1588
     3.1657   3.1781   3.1885   3.2167   3.2264   3.2464   3.2729   3.3012
     3.3390   3.3668   3.3845   3.4100   3.5103   3.5376   3.5656   3.6420
     5.2574   5.3628   5.3772   5.4547   5.7596   5.7922   5.8254   5.9031
     6.1410   6.1934   6.2090   6.2827   6.5086   6.5330   6.6073   6.6290
     6.9043   6.9464   6.9992   7.0698   7.3128   7.3378   7.3545   7.4653
     7.5301   7.5479   7.5654   7.5918   7.6311   7.6683   7.7166   7.7483
     7.7622   7.7861   7.8122   7.8905   7.9874   8.0081   8.0706   8.1009
     8.1226   8.1544   8.1648   8.1986   8.3187   8.3652   8.3847   8.4062
     8.4700   8.4828   8.5414   8.5673   8.5939   8.6620   8.6976   8.7709
     8.7908   8.8229   8.8533   8.8825

          k = 0.0000 0.2485 0.7500 ( 80251 PWs)   bands (ev):

   -41.9204 -41.9204 -41.8161 -41.8161 -41.6491 -41.6491 -41.6121 -41.6121
   -41.5356 -41.5356 -41.5009 -41.5009 -41.4619 -41.4619 -41.4553 -41.4553
   -41.4361 -41.4361 -41.4198 -41.4198 -41.4072 -41.4072 -41.3950 -41.3950
   -41.3924 -41.3924 -41.3920 -41.3920 -41.3550 -41.3550 -41.3315 -41.3315
   -41.3292 -41.3292 -41.3265 -41.3265 -41.3136 -41.3136 -41.3082 -41.3082
   -41.2872 -41.2872 -41.2777 -41.2777 -41.2711 -41.2711 -41.2597 -41.2597
   -41.2399 -41.2399 -41.2365 -41.2365 -41.2292 -41.2292 -41.2226 -41.2226
   -41.2138 -41.2138 -41.1766 -41.1766 -41.1664 -41.1664 -41.1658 -41.1658
   -41.1516 -41.1516 -41.1057 -41.1057 -41.1055 -41.1055 -41.1028 -41.1028
   -41.0982 -41.0982 -41.0673 -41.0673 -41.0551 -41.0551 -41.0447 -41.0447
   -40.9882 -40.9882 -40.9795 -40.9795 -40.9775 -40.9775 -40.9546 -40.9546
   -40.8936 -40.8936 -40.8588 -40.8588 -40.8509 -40.8509 -40.7393 -40.7393
   -40.2217 -40.2217 -40.1726 -40.1726 -40.0847 -40.0847 -39.9513 -39.9513
   -39.9141 -39.9141 -39.8968 -39.8968 -39.8606 -39.8606 -39.8021 -39.8021
   -39.7678 -39.7678 -39.7640 -39.7640 -39.7595 -39.7595 -39.7401 -39.7401
   -39.7206 -39.7206 -39.7112 -39.7112 -39.7081 -39.7081 -39.6974 -39.6974
   -39.6954 -39.6954 -39.6930 -39.6930 -39.6917 -39.6917 -39.6819 -39.6819
   -39.6759 -39.6759 -39.6605 -39.6605 -39.6435 -39.6435 -39.6412 -39.6412
   -39.6359 -39.6359 -39.6270 -39.6270 -39.6235 -39.6235 -39.6045 -39.6045
   -39.5991 -39.5991 -39.5824 -39.5824 -39.5782 -39.5782 -39.5728 -39.5728
   -39.5620 -39.5620 -39.5554 -39.5554 -39.5430 -39.5430 -39.5399 -39.5399
   -39.5358 -39.5358 -39.5318 -39.5318 -39.5245 -39.5245 -39.5174 -39.5174
   -39.5121 -39.5121 -39.5089 -39.5089 -39.4973 -39.4973 -39.4795 -39.4795
   -39.4731 -39.4731 -39.4692 -39.4692 -39.4682 -39.4682 -39.4592 -39.4592
   -39.4392 -39.4392 -39.4240 -39.4240 -39.4205 -39.4205 -39.4105 -39.4105
   -39.4000 -39.4000 -39.3711 -39.3711 -39.3706 -39.3706 -39.3695 -39.3695
   -39.3689 -39.3689 -39.3465 -39.3465 -39.3221 -39.3221 -39.3196 -39.3196
   -39.3091 -39.3091 -39.2774 -39.2774 -39.2560 -39.2560 -39.2556 -39.2556
   -39.2534 -39.2534 -39.2362 -39.2362 -39.2071 -39.2071 -39.1675 -39.1675
   -39.1520 -39.1520 -39.1302 -39.1302 -39.0999 -39.0999 -39.0059 -39.0059
   -16.9525 -16.9525 -16.7214 -16.7214 -16.3804 -16.3804 -16.3469 -16.3469
   -16.3221 -16.3221 -16.2816 -16.2816 -16.2410 -16.2410 -15.8895 -15.8895
   -14.2874 -14.2874 -14.2805 -14.2805 -14.2573 -14.2573 -14.2393 -14.2393
   -14.2331 -14.2331 -14.2212 -14.2212 -14.1849 -14.1849 -14.1643 -14.1643
   -14.1213 -14.1212 -14.1010 -14.1010 -14.0884 -14.0884 -14.0815 -14.0815
   -14.0436 -14.0436 -14.0335 -14.0335 -14.0200 -14.0200 -14.0060 -14.0060
   -11.7572 -11.7572 -11.7331 -11.7331 -11.7226 -11.7224 -11.7003 -11.7001
   -11.6987 -11.6986 -11.6978 -11.6975 -11.6838 -11.6838 -11.6627 -11.6627
   -11.6497 -11.6496 -11.6412 -11.6412 -11.6200 -11.6199 -11.5944 -11.5942
   -11.5891 -11.5889 -11.5695 -11.5694 -11.5543 -11.5543 -11.5509 -11.5509
   -11.5235 -11.5235 -11.5092 -11.5092 -11.4993 -11.4993 -11.4938 -11.4935
   -11.4819 -11.4818 -11.4664 -11.4662 -11.4541 -11.4541 -11.4275 -11.4275
    -9.3170  -9.3170  -9.2506  -9.2506  -9.2102  -9.2102  -9.1023  -9.1023
    -9.0879  -9.0879  -9.0777  -9.0777  -8.9810  -8.9809  -8.9712  -8.9712
    -8.6370  -8.6369  -8.4287  -8.4285  -8.3137  -8.3137  -8.1748  -8.1729
    -8.1369  -8.1355  -8.0997  -8.0985  -8.0529  -8.0510  -7.9816  -7.9803
    -7.9399  -7.9389  -7.9114  -7.9099  -7.8846  -7.8835  -7.8723  -7.8718
    -7.8416  -7.8393  -7.8183  -7.8164  -7.7425  -7.7420  -7.6934  -7.6922
    -7.6724  -7.6703  -7.6322  -7.6307  -7.6192  -7.6178  -7.5818  -7.5800
    -7.5179  -7.5174  -7.4327  -7.4324  -7.3964  -7.3964  -7.3082  -7.3078
    -6.5985  -6.5985  -6.4730  -6.4730  -6.1872  -6.1872  -6.1340  -6.1340
    -6.1059  -6.1059  -6.0948  -6.0948  -6.0038  -6.0036  -5.9951  -5.9950
    -5.8545  -5.8545  -5.7614  -5.7614  -5.7029  -5.7028  -5.5445  -5.5445
    -5.5339  -5.5339  -5.4663  -5.4663  -5.1704  -5.1704  -5.1319  -5.1318
    -4.3580  -4.3576  -4.0121  -4.0111  -3.9606  -3.9599  -3.8212  -3.8203
    -3.7580  -3.7575  -3.6639  -3.6637  -3.6119  -3.6104  -3.5161  -3.5153
    -3.5063  -3.5055  -3.4465  -3.4459  -3.4309  -3.4297  -3.3967  -3.3964
    -3.3642  -3.3619  -3.3258  -3.3255  -3.1674  -3.1672  -2.9674  -2.9666
    -1.7576  -1.7576  -1.6345  -1.6343  -1.6036  -1.6035  -1.5178  -1.5176
    -1.4575  -1.4568  -1.4271  -1.4267  -1.3967  -1.3965  -1.3697  -1.3694
    -1.3414  -1.3413  -1.2246  -1.2241  -1.2134  -1.2131  -1.1200  -1.1196
    -1.1144  -1.1129  -1.1009  -1.0993  -1.0881  -1.0876  -1.0211  -1.0208
     0.2004   0.2143   0.2785   0.2820   0.3210   0.3256   0.3451   0.3579
     0.4045   0.4323   0.4579   0.4823   0.5415   0.5595   0.6011   0.6096
     0.6696   0.6776   0.7119   0.7298   0.7835   0.7944   0.8457   0.8593
     1.1445   1.1972   1.2333   1.2682   1.2844   1.3004   1.3168   1.3316
     1.4088   1.4558   1.4794   1.5253   1.5439   1.5569   1.5967   1.6113
     1.6318   1.6611   1.6936   1.7309   1.7440   1.7899   1.8068   1.8300
     1.8421   1.8612   1.8853   1.9078   1.9263   1.9408   1.9609   1.9798
     1.9967   2.0125   2.0312   2.0540   2.0721   2.0899   2.1012   2.1198
     2.1484   2.1701   2.1842   2.2130   2.2191   2.2421   2.2690   2.2822
     2.2948   2.3080   2.3259   2.3408   2.3553   2.3692   2.3809   2.3920
     2.4001   2.4166   2.4327   2.4483   2.4653   2.4825   2.4941   2.5122
     2.5258   2.5358   2.5451   2.5659   2.5869   2.6023   2.6080   2.6214
     2.6522   2.6585   2.6684   2.6899   2.7115   2.7250   2.7383   2.7548
     2.7944   2.8049   2.8202   2.8384   2.8568   2.8752   2.8906   2.8982
     2.9147   2.9276   2.9417   2.9561   2.9865   2.9991   3.0213   3.0392
     3.0541   3.0693   3.0846   3.0936   3.1217   3.1384   3.1529   3.1737
     3.1819   3.2009   3.2171   3.2281   3.2489   3.2679   3.2867   3.3117
     3.4032   3.4298   3.4819   3.4932   3.5380   3.5756   3.6730   3.7151
     5.0450   5.1454   5.4445   5.4906   5.5654   5.5926   5.7641   5.7863
     6.0360   6.0887   6.2788   6.3003   6.3513   6.4058   6.4529   6.4628
     6.5240   6.5686   6.6800   6.7448   6.7688   6.7883   6.8812   7.0447
     7.3861   7.3889   7.6189   7.6397   7.8010   7.8446   7.9625   7.9860
     8.0162   8.0393   8.0556   8.0908   8.1085   8.1888   8.2024   8.2627
     8.2956   8.3189   8.3329   8.3552   8.4182   8.4405   8.4833   8.4914
     8.5456   8.5763   8.5955   8.6231   8.6576   8.6993   8.7455   8.7731
     8.8237   8.8589   8.8672   8.8909

          k = 0.0000 0.4969 0.0000 ( 80270 PWs)   bands (ev):

   -41.9204 -41.9204 -41.8161 -41.8161 -41.6491 -41.6491 -41.6121 -41.6121
   -41.5356 -41.5356 -41.5009 -41.5009 -41.4619 -41.4619 -41.4553 -41.4553
   -41.4361 -41.4361 -41.4198 -41.4198 -41.4072 -41.4072 -41.3950 -41.3950
   -41.3924 -41.3924 -41.3920 -41.3920 -41.3550 -41.3550 -41.3315 -41.3315
   -41.3292 -41.3292 -41.3265 -41.3265 -41.3136 -41.3136 -41.3082 -41.3082
   -41.2872 -41.2872 -41.2777 -41.2777 -41.2711 -41.2711 -41.2597 -41.2597
   -41.2399 -41.2399 -41.2365 -41.2365 -41.2292 -41.2292 -41.2226 -41.2226
   -41.2138 -41.2138 -41.1766 -41.1766 -41.1664 -41.1664 -41.1659 -41.1659
   -41.1516 -41.1516 -41.1057 -41.1057 -41.1055 -41.1055 -41.1027 -41.1027
   -41.0982 -41.0982 -41.0673 -41.0673 -41.0551 -41.0551 -41.0447 -41.0447
   -40.9882 -40.9882 -40.9796 -40.9796 -40.9775 -40.9775 -40.9546 -40.9546
   -40.8936 -40.8936 -40.8588 -40.8588 -40.8509 -40.8509 -40.7394 -40.7394
   -40.2217 -40.2217 -40.1726 -40.1726 -40.0847 -40.0847 -39.9513 -39.9513
   -39.9141 -39.9141 -39.8968 -39.8968 -39.8606 -39.8606 -39.8021 -39.8021
   -39.7678 -39.7678 -39.7641 -39.7641 -39.7595 -39.7595 -39.7401 -39.7401
   -39.7205 -39.7205 -39.7112 -39.7112 -39.7081 -39.7081 -39.6974 -39.6974
   -39.6954 -39.6954 -39.6930 -39.6930 -39.6917 -39.6917 -39.6819 -39.6819
   -39.6759 -39.6759 -39.6605 -39.6605 -39.6435 -39.6435 -39.6412 -39.6412
   -39.6359 -39.6359 -39.6270 -39.6270 -39.6235 -39.6235 -39.6045 -39.6045
   -39.5991 -39.5991 -39.5824 -39.5824 -39.5782 -39.5782 -39.5728 -39.5728
   -39.5620 -39.5620 -39.5554 -39.5554 -39.5430 -39.5430 -39.5399 -39.5399
   -39.5358 -39.5358 -39.5318 -39.5318 -39.5245 -39.5245 -39.5174 -39.5174
   -39.5121 -39.5121 -39.5089 -39.5089 -39.4973 -39.4973 -39.4795 -39.4795
   -39.4731 -39.4731 -39.4692 -39.4692 -39.4682 -39.4682 -39.4593 -39.4593
   -39.4392 -39.4392 -39.4240 -39.4240 -39.4205 -39.4205 -39.4105 -39.4105
   -39.4001 -39.4001 -39.3711 -39.3711 -39.3706 -39.3706 -39.3695 -39.3695
   -39.3689 -39.3689 -39.3465 -39.3465 -39.3221 -39.3221 -39.3196 -39.3196
   -39.3091 -39.3091 -39.2774 -39.2774 -39.2560 -39.2560 -39.2556 -39.2556
   -39.2534 -39.2534 -39.2362 -39.2362 -39.2071 -39.2071 -39.1675 -39.1675
   -39.1520 -39.1520 -39.1302 -39.1302 -39.0999 -39.0999 -39.0059 -39.0059
   -16.9525 -16.9525 -16.7214 -16.7214 -16.3804 -16.3804 -16.3469 -16.3469
   -16.3221 -16.3221 -16.2816 -16.2816 -16.2410 -16.2410 -15.8895 -15.8895
   -14.2874 -14.2874 -14.2805 -14.2805 -14.2572 -14.2572 -14.2393 -14.2393
   -14.2331 -14.2331 -14.2212 -14.2212 -14.1849 -14.1849 -14.1643 -14.1643
   -14.1213 -14.1213 -14.1010 -14.1010 -14.0884 -14.0884 -14.0815 -14.0815
   -14.0437 -14.0437 -14.0335 -14.0335 -14.0200 -14.0200 -14.0060 -14.0060
   -11.7573 -11.7573 -11.7334 -11.7334 -11.7220 -11.7220 -11.7003 -11.7003
   -11.6987 -11.6987 -11.6975 -11.6975 -11.6839 -11.6839 -11.6627 -11.6627
   -11.6496 -11.6496 -11.6412 -11.6412 -11.6198 -11.6198 -11.5946 -11.5946
   -11.5890 -11.5890 -11.5696 -11.5696 -11.5543 -11.5543 -11.5510 -11.5510
   -11.5235 -11.5235 -11.5091 -11.5091 -11.4993 -11.4993 -11.4929 -11.4929
   -11.4821 -11.4821 -11.4665 -11.4665 -11.4541 -11.4541 -11.4275 -11.4275
    -9.3174  -9.3174  -9.2506  -9.2506  -9.2098  -9.2098  -9.1012  -9.1012
    -9.0885  -9.0885  -9.0781  -9.0781  -8.9797  -8.9797  -8.9725  -8.9725
    -8.6370  -8.6370  -8.4200  -8.4200  -8.3370  -8.3370  -8.1702  -8.1702
    -8.1221  -8.1221  -8.0816  -8.0816  -8.0570  -8.0570  -7.9788  -7.9788
    -7.9568  -7.9568  -7.9121  -7.9121  -7.8866  -7.8866  -7.8749  -7.8749
    -7.8470  -7.8470  -7.8045  -7.8045  -7.7358  -7.7358  -7.7016  -7.7016
    -7.6714  -7.6714  -7.6433  -7.6433  -7.6126  -7.6126  -7.5568  -7.5568
    -7.5327  -7.5327  -7.4278  -7.4278  -7.3982  -7.3982  -7.3120  -7.3120
    -6.5984  -6.5984  -6.4728  -6.4728  -6.1868  -6.1868  -6.1341  -6.1341
    -6.1031  -6.1031  -6.0970  -6.0970  -6.0052  -6.0052  -5.9936  -5.9936
    -5.8551  -5.8551  -5.7618  -5.7618  -5.7029  -5.7029  -5.5446  -5.5446
    -5.5340  -5.5340  -5.4663  -5.4663  -5.1704  -5.1704  -5.1316  -5.1316
    -4.3275  -4.3275  -4.1422  -4.1422  -3.8747  -3.8747  -3.8177  -3.8177
    -3.6913  -3.6913  -3.6631  -3.6631  -3.6360  -3.6360  -3.5574  -3.5574
    -3.5046  -3.5046  -3.4975  -3.4975  -3.4382  -3.4382  -3.4195  -3.4195
    -3.3497  -3.3497  -3.2497  -3.2497  -3.1305  -3.1305  -2.9841  -2.9841
    -1.7567  -1.7567  -1.6335  -1.6335  -1.6039  -1.6039  -1.5189  -1.5189
    -1.4570  -1.4570  -1.4261  -1.4261  -1.3963  -1.3963  -1.3689  -1.3689
    -1.3425  -1.3425  -1.2245  -1.2245  -1.2133  -1.2133  -1.1234  -1.1234
    -1.1168  -1.1168  -1.0993  -1.0993  -1.0902  -1.0902  -1.0157  -1.0157
     0.2093   0.2093   0.2656   0.2656   0.2780   0.2780   0.3496   0.3496
     0.3707   0.3707   0.4048   0.4048   0.4689   0.4689   0.5193   0.5193
     0.6587   0.6587   0.9422   0.9422   1.0199   1.0199   1.0619   1.0619
     1.1387   1.1387   1.2505   1.2505   1.2886   1.2886   1.3121   1.3121
     1.3474   1.3474   1.4175   1.4175   1.4839   1.4839   1.5492   1.5492
     1.6409   1.6409   1.6773   1.6773   1.7022   1.7022   1.8143   1.8143
     1.8494   1.8494   1.8818   1.8818   1.9322   1.9322   1.9672   1.9672
     1.9974   1.9974   2.0357   2.0357   2.0644   2.0644   2.1061   2.1061
     2.1247   2.1247   2.2048   2.2048   2.2436   2.2436   2.2750   2.2750
     2.2944   2.2944   2.3379   2.3379   2.3625   2.3625   2.3915   2.3915
     2.4150   2.4150   2.4487   2.4487   2.4847   2.4847   2.5018   2.5018
     2.5402   2.5402   2.5624   2.5624   2.5914   2.5914   2.6039   2.6039
     2.6552   2.6552   2.7006   2.7006   2.7223   2.7223   2.7552   2.7552
     2.7920   2.7920   2.8369   2.8369   2.8740   2.8740   2.9052   2.9052
     2.9182   2.9182   2.9690   2.9690   3.0083   3.0083   3.0441   3.0441
     3.0762   3.0762   3.0980   3.0980   3.1348   3.1348   3.1769   3.1769
     3.2003   3.2003   3.2232   3.2232   3.2609   3.2609   3.3492   3.3492
     3.3932   3.3932   3.4454   3.4454   3.6985   3.6985   3.8150   3.8150
     5.0349   5.0349   5.1710   5.1710   5.6764   5.6764   5.7714   5.7714
     5.9149   5.9149   6.0656   6.0656   6.2513   6.2513   6.3259   6.3259
     6.9737   6.9737   7.0340   7.0340   7.1668   7.1668   7.3112   7.3112
     7.3965   7.3965   7.4541   7.4541   7.5277   7.5277   7.6237   7.6237
     7.8232   7.8232   7.9041   7.9041   8.1077   8.1077   8.2101   8.2101
     8.2451   8.2451   8.3418   8.3418   8.4554   8.4554   8.5532   8.5532
     8.6030   8.6030   8.7024   8.7024   8.7378   8.7378   8.7897   8.7897
     8.8358   8.8358   8.8794   8.8794

          k = 0.0000 0.4969 0.2500 ( 80262 PWs)   bands (ev):

   -41.9204 -41.9204 -41.8161 -41.8161 -41.6491 -41.6491 -41.6121 -41.6121
   -41.5356 -41.5356 -41.5009 -41.5009 -41.4619 -41.4619 -41.4553 -41.4553
   -41.4361 -41.4361 -41.4198 -41.4198 -41.4072 -41.4072 -41.3950 -41.3950
   -41.3924 -41.3924 -41.3920 -41.3920 -41.3550 -41.3550 -41.3315 -41.3315
   -41.3292 -41.3292 -41.3265 -41.3265 -41.3136 -41.3136 -41.3082 -41.3082
   -41.2872 -41.2872 -41.2777 -41.2777 -41.2711 -41.2711 -41.2596 -41.2596
   -41.2399 -41.2399 -41.2365 -41.2365 -41.2292 -41.2292 -41.2226 -41.2226
   -41.2138 -41.2138 -41.1766 -41.1766 -41.1664 -41.1664 -41.1658 -41.1658
   -41.1516 -41.1516 -41.1057 -41.1057 -41.1055 -41.1055 -41.1028 -41.1028
   -41.0982 -41.0982 -41.0673 -41.0673 -41.0551 -41.0551 -41.0447 -41.0447
   -40.9882 -40.9882 -40.9795 -40.9795 -40.9775 -40.9775 -40.9546 -40.9546
   -40.8936 -40.8936 -40.8588 -40.8588 -40.8509 -40.8509 -40.7393 -40.7393
   -40.2217 -40.2217 -40.1726 -40.1726 -40.0847 -40.0847 -39.9513 -39.9513
   -39.9141 -39.9141 -39.8968 -39.8968 -39.8606 -39.8606 -39.8021 -39.8021
   -39.7678 -39.7678 -39.7640 -39.7640 -39.7595 -39.7595 -39.7401 -39.7401
   -39.7206 -39.7206 -39.7112 -39.7112 -39.7081 -39.7081 -39.6974 -39.6974
   -39.6954 -39.6954 -39.6930 -39.6930 -39.6917 -39.6917 -39.6819 -39.6819
   -39.6759 -39.6759 -39.6605 -39.6605 -39.6435 -39.6435 -39.6412 -39.6412
   -39.6359 -39.6359 -39.6270 -39.6270 -39.6235 -39.6235 -39.6045 -39.6045
   -39.5991 -39.5991 -39.5824 -39.5824 -39.5782 -39.5782 -39.5728 -39.5728
   -39.5620 -39.5620 -39.5554 -39.5554 -39.5430 -39.5430 -39.5399 -39.5399
   -39.5358 -39.5358 -39.5318 -39.5318 -39.5245 -39.5245 -39.5174 -39.5174
   -39.5121 -39.5121 -39.5089 -39.5089 -39.4973 -39.4973 -39.4795 -39.4795
   -39.4731 -39.4731 -39.4692 -39.4692 -39.4682 -39.4682 -39.4592 -39.4592
   -39.4392 -39.4392 -39.4240 -39.4240 -39.4205 -39.4205 -39.4105 -39.4105
   -39.4000 -39.4000 -39.3711 -39.3711 -39.3706 -39.3706 -39.3695 -39.3695
   -39.3689 -39.3689 -39.3465 -39.3465 -39.3221 -39.3221 -39.3196 -39.3196
   -39.3091 -39.3091 -39.2774 -39.2774 -39.2560 -39.2560 -39.2556 -39.2556
   -39.2534 -39.2534 -39.2362 -39.2362 -39.2071 -39.2071 -39.1675 -39.1675
   -39.1520 -39.1520 -39.1302 -39.1302 -39.0999 -39.0999 -39.0059 -39.0059
   -16.9525 -16.9525 -16.7214 -16.7214 -16.3804 -16.3804 -16.3469 -16.3469
   -16.3221 -16.3221 -16.2816 -16.2816 -16.2410 -16.2410 -15.8895 -15.8895
   -14.2874 -14.2874 -14.2805 -14.2805 -14.2572 -14.2572 -14.2393 -14.2393
   -14.2331 -14.2331 -14.2212 -14.2212 -14.1849 -14.1849 -14.1643 -14.1643
   -14.1213 -14.1213 -14.1010 -14.1010 -14.0884 -14.0884 -14.0815 -14.0815
   -14.0436 -14.0436 -14.0335 -14.0335 -14.0200 -14.0200 -14.0060 -14.0060
   -11.7572 -11.7572 -11.7331 -11.7331 -11.7220 -11.7220 -11.7005 -11.7004
   -11.6987 -11.6987 -11.6978 -11.6976 -11.6840 -11.6840 -11.6627 -11.6627
   -11.6496 -11.6496 -11.6412 -11.6412 -11.6196 -11.6196 -11.5946 -11.5946
   -11.5890 -11.5890 -11.5695 -11.5695 -11.5543 -11.5543 -11.5510 -11.5510
   -11.5235 -11.5235 -11.5092 -11.5092 -11.4993 -11.4993 -11.4930 -11.4930
   -11.4822 -11.4822 -11.4667 -11.4667 -11.4541 -11.4541 -11.4275 -11.4275
    -9.3171  -9.3170  -9.2506  -9.2506  -9.2102  -9.2102  -9.1014  -9.1014
    -9.0884  -9.0884  -9.0780  -9.0780  -8.9798  -8.9798  -8.9724  -8.9724
    -8.6354  -8.6354  -8.4194  -8.4193  -8.3299  -8.3298  -8.1760  -8.1742
    -8.1389  -8.1368  -8.0908  -8.0903  -8.0616  -8.0603  -7.9847  -7.9832
    -7.9429  -7.9421  -7.9066  -7.9058  -7.8838  -7.8832  -7.8720  -7.8714
    -7.8453  -7.8448  -7.8139  -7.8129  -7.7331  -7.7321  -7.7013  -7.7009
    -7.6686  -7.6662  -7.6277  -7.6265  -7.6129  -7.6118  -7.5651  -7.5647
    -7.5318  -7.5314  -7.4329  -7.4326  -7.3985  -7.3985  -7.3137  -7.3135
    -6.5985  -6.5985  -6.4730  -6.4730  -6.1868  -6.1868  -6.1340  -6.1340
    -6.1032  -6.1032  -6.0970  -6.0970  -6.0038  -6.0037  -5.9949  -5.9947
    -5.8545  -5.8545  -5.7615  -5.7615  -5.7030  -5.7030  -5.5446  -5.5446
    -5.5340  -5.5340  -5.4663  -5.4663  -5.1705  -5.1705  -5.1318  -5.1318
    -4.2647  -4.2645  -4.0804  -4.0802  -3.9265  -3.9258  -3.8231  -3.8227
    -3.7201  -3.7185  -3.6762  -3.6753  -3.6430  -3.6419  -3.5344  -3.5329
    -3.5053  -3.5050  -3.4755  -3.4743  -3.4367  -3.4359  -3.4124  -3.4107
    -3.3607  -3.3601  -3.3061  -3.3057  -3.1501  -3.1500  -3.0811  -3.0805
    -1.7567  -1.7566  -1.6335  -1.6334  -1.6033  -1.6033  -1.5187  -1.5186
    -1.4572  -1.4567  -1.4270  -1.4264  -1.3966  -1.3964  -1.3693  -1.3692
    -1.3411  -1.3410  -1.2236  -1.2229  -1.2142  -1.2140  -1.1189  -1.1183
    -1.1154  -1.1147  -1.1011  -1.0996  -1.0883  -1.0878  -1.0209  -1.0206
     0.2239   0.2349   0.2699   0.2771   0.3357   0.3412   0.3689   0.3716
     0.4509   0.4719   0.4986   0.5163   0.6431   0.6534   0.6745   0.6981
     0.7205   0.7356   0.9414   0.9486   1.0224   1.0280   1.0439   1.0671
     1.1560   1.1623   1.2277   1.2433   1.2621   1.2815   1.3043   1.3213
     1.3384   1.3676   1.3979   1.4296   1.4615   1.4727   1.5195   1.5377
     1.5824   1.6046   1.6332   1.6421   1.6609   1.6975   1.7677   1.8035
     1.8132   1.8350   1.8647   1.8880   1.9004   1.9102   1.9294   1.9435
     1.9618   1.9831   2.0135   2.0199   2.0325   2.0542   2.0810   2.0897
     2.1074   2.1280   2.1537   2.1916   2.2119   2.2288   2.2383   2.2488
     2.2616   2.2826   2.2922   2.3205   2.3311   2.3380   2.3636   2.3745
     2.3894   2.4085   2.4238   2.4320   2.4517   2.4687   2.4798   2.4840
     2.5061   2.5172   2.5405   2.5538   2.5597   2.5695   2.6018   2.6179
     2.6460   2.6637   2.6788   2.6937   2.7142   2.7334   2.7437   2.7641
     2.7872   2.8086   2.8184   2.8417   2.8591   2.8753   2.8813   2.8889
     2.9133   2.9238   2.9411   2.9609   2.9963   3.0074   3.0155   3.0336
     3.0474   3.0681   3.0809   3.0979   3.1015   3.1302   3.1529   3.1596
     3.1699   3.1818   3.1908   3.1984   3.2222   3.2439   3.2506   3.3020
     3.3510   3.3762   3.4167   3.4341   3.4965   3.5292   3.5932   3.6311
     5.2804   5.3149   5.4316   5.4620   5.7307   5.7496   5.8613   5.8919
     6.1190   6.1733   6.2887   6.3080   6.4904   6.5628   6.6338   6.6615
     6.9657   6.9767   7.0377   7.0449   7.1443   7.1686   7.2675   7.3072
     7.4048   7.4431   7.4617   7.4800   7.5988   7.6035   7.6608   7.6740
     7.7820   7.8143   7.9013   7.9627   8.0976   8.1082   8.1513   8.1636
     8.1974   8.2192   8.2411   8.2577   8.2971   8.3128   8.3550   8.3656
     8.4633   8.4932   8.5222   8.5422   8.6203   8.6877   8.7312   8.7914
     8.8101   8.8277   8.8575   8.8890

          k = 0.0000 0.4969 0.5000 ( 80284 PWs)   bands (ev):

   -41.9204 -41.9204 -41.8161 -41.8161 -41.6491 -41.6491 -41.6121 -41.6121
   -41.5356 -41.5356 -41.5009 -41.5009 -41.4619 -41.4619 -41.4553 -41.4553
   -41.4361 -41.4361 -41.4198 -41.4198 -41.4072 -41.4072 -41.3950 -41.3950
   -41.3924 -41.3924 -41.3920 -41.3920 -41.3550 -41.3550 -41.3315 -41.3315
   -41.3292 -41.3292 -41.3265 -41.3265 -41.3136 -41.3136 -41.3082 -41.3082
   -41.2872 -41.2872 -41.2777 -41.2777 -41.2711 -41.2711 -41.2597 -41.2597
   -41.2399 -41.2399 -41.2365 -41.2365 -41.2292 -41.2292 -41.2226 -41.2226
   -41.2138 -41.2138 -41.1766 -41.1766 -41.1664 -41.1664 -41.1658 -41.1658
   -41.1516 -41.1516 -41.1057 -41.1057 -41.1055 -41.1055 -41.1028 -41.1028
   -41.0982 -41.0982 -41.0673 -41.0673 -41.0551 -41.0551 -41.0447 -41.0447
   -40.9882 -40.9882 -40.9795 -40.9795 -40.9775 -40.9775 -40.9546 -40.9546
   -40.8936 -40.8936 -40.8588 -40.8588 -40.8509 -40.8509 -40.7394 -40.7394
   -40.2217 -40.2217 -40.1726 -40.1726 -40.0847 -40.0847 -39.9513 -39.9513
   -39.9141 -39.9141 -39.8968 -39.8968 -39.8606 -39.8606 -39.8021 -39.8021
   -39.7678 -39.7678 -39.7640 -39.7640 -39.7595 -39.7595 -39.7401 -39.7401
   -39.7205 -39.7205 -39.7112 -39.7112 -39.7081 -39.7081 -39.6974 -39.6974
   -39.6954 -39.6954 -39.6930 -39.6930 -39.6917 -39.6917 -39.6819 -39.6819
   -39.6759 -39.6759 -39.6605 -39.6605 -39.6435 -39.6435 -39.6412 -39.6412
   -39.6359 -39.6359 -39.6270 -39.6270 -39.6235 -39.6235 -39.6045 -39.6045
   -39.5991 -39.5991 -39.5824 -39.5824 -39.5782 -39.5782 -39.5728 -39.5728
   -39.5620 -39.5620 -39.5554 -39.5554 -39.5430 -39.5430 -39.5399 -39.5399
   -39.5358 -39.5358 -39.5318 -39.5318 -39.5245 -39.5245 -39.5174 -39.5174
   -39.5121 -39.5121 -39.5089 -39.5089 -39.4973 -39.4973 -39.4795 -39.4795
   -39.4731 -39.4731 -39.4692 -39.4692 -39.4682 -39.4682 -39.4592 -39.4592
   -39.4392 -39.4392 -39.4240 -39.4240 -39.4205 -39.4205 -39.4105 -39.4105
   -39.4000 -39.4000 -39.3711 -39.3711 -39.3706 -39.3706 -39.3695 -39.3695
   -39.3689 -39.3689 -39.3465 -39.3465 -39.3221 -39.3221 -39.3196 -39.3196
   -39.3091 -39.3091 -39.2774 -39.2774 -39.2560 -39.2560 -39.2556 -39.2556
   -39.2534 -39.2534 -39.2362 -39.2362 -39.2071 -39.2071 -39.1674 -39.1674
   -39.1520 -39.1520 -39.1302 -39.1302 -39.0999 -39.0999 -39.0059 -39.0059
   -16.9525 -16.9525 -16.7214 -16.7214 -16.3804 -16.3804 -16.3469 -16.3469
   -16.3221 -16.3221 -16.2816 -16.2816 -16.2410 -16.2410 -15.8895 -15.8895
   -14.2874 -14.2874 -14.2805 -14.2805 -14.2572 -14.2572 -14.2393 -14.2393
   -14.2331 -14.2331 -14.2212 -14.2212 -14.1849 -14.1849 -14.1643 -14.1643
   -14.1213 -14.1213 -14.1010 -14.1010 -14.0884 -14.0884 -14.0815 -14.0815
   -14.0437 -14.0437 -14.0335 -14.0335 -14.0200 -14.0200 -14.0060 -14.0060
   -11.7572 -11.7572 -11.7328 -11.7328 -11.7220 -11.7220 -11.7006 -11.7006
   -11.6986 -11.6986 -11.6979 -11.6979 -11.6840 -11.6840 -11.6627 -11.6627
   -11.6496 -11.6496 -11.6412 -11.6412 -11.6195 -11.6195 -11.5946 -11.5946
   -11.5890 -11.5890 -11.5693 -11.5693 -11.5543 -11.5543 -11.5510 -11.5510
   -11.5235 -11.5235 -11.5093 -11.5093 -11.4993 -11.4993 -11.4930 -11.4930
   -11.4822 -11.4822 -11.4668 -11.4668 -11.4541 -11.4541 -11.4275 -11.4275
    -9.3167  -9.3167  -9.2506  -9.2506  -9.2106  -9.2106  -9.1016  -9.1016
    -9.0884  -9.0884  -9.0780  -9.0780  -8.9799  -8.9799  -8.9722  -8.9722
    -8.6337  -8.6337  -8.4188  -8.4188  -8.3207  -8.3207  -8.1875  -8.1875
    -8.1469  -8.1469  -8.1012  -8.1012  -8.0581  -8.0581  -7.9907  -7.9907
    -7.9337  -7.9337  -7.9003  -7.9003  -7.8824  -7.8824  -7.8656  -7.8656
    -7.8362  -7.8362  -7.8298  -7.8298  -7.7317  -7.7317  -7.6972  -7.6972
    -7.6551  -7.6551  -7.6186  -7.6186  -7.6119  -7.6119  -7.5749  -7.5749
    -7.5294  -7.5294  -7.4382  -7.4382  -7.3988  -7.3988  -7.3152  -7.3152
    -6.5985  -6.5985  -6.4732  -6.4732  -6.1868  -6.1868  -6.1340  -6.1340
    -6.1033  -6.1033  -6.0969  -6.0969  -6.0018  -6.0018  -5.9966  -5.9966
    -5.8540  -5.8540  -5.7611  -5.7611  -5.7031  -5.7031  -5.5445  -5.5445
    -5.5339  -5.5339  -5.4664  -5.4664  -5.1707  -5.1707  -5.1320  -5.1320
    -4.1350  -4.1350  -4.0634  -4.0634  -3.9465  -3.9465  -3.8761  -3.8761
    -3.8149  -3.8149  -3.6715  -3.6715  -3.5468  -3.5468  -3.5303  -3.5303
    -3.5015  -3.5015  -3.4659  -3.4659  -3.4456  -3.4456  -3.4353  -3.4353
    -3.3379  -3.3379  -3.3129  -3.3129  -3.2514  -3.2514  -3.1579  -3.1579
    -1.7566  -1.7566  -1.6334  -1.6334  -1.6028  -1.6028  -1.5185  -1.5185
    -1.4569  -1.4569  -1.4272  -1.4272  -1.3966  -1.3966  -1.3697  -1.3697
    -1.3397  -1.3397  -1.2221  -1.2221  -1.2149  -1.2149  -1.1174  -1.1174
    -1.1094  -1.1094  -1.1011  -1.1011  -1.0862  -1.0862  -1.0266  -1.0266
     0.2547   0.2547   0.2801   0.2801   0.3285   0.3285   0.3541   0.3541
     0.5635   0.5635   0.7384   0.7384   0.8212   0.8212   0.8917   0.8917
     0.9749   0.9749   1.0082   1.0082   1.0453   1.0453   1.1301   1.1301
     1.1455   1.1455   1.1748   1.1748   1.2412   1.2412   1.2753   1.2753
     1.3220   1.3220   1.3522   1.3522   1.4355   1.4355   1.4921   1.4921
     1.5239   1.5239   1.5642   1.5642   1.6411   1.6411   1.7118   1.7118
     1.7728   1.7728   1.8187   1.8187   1.8696   1.8696   1.8898   1.8898
     1.9008   1.9008   1.9768   1.9768   2.0121   2.0121   2.0692   2.0692
     2.1024   2.1024   2.1426   2.1426   2.1900   2.1900   2.2176   2.2176
     2.2417   2.2417   2.2915   2.2915   2.3337   2.3337   2.3439   2.3439
     2.3712   2.3712   2.4140   2.4140   2.4278   2.4278   2.4688   2.4688
     2.4943   2.4943   2.5148   2.5148   2.5532   2.5532   2.6173   2.6173
     2.6536   2.6536   2.6696   2.6696   2.7266   2.7266   2.7550   2.7550
     2.8008   2.8008   2.8291   2.8291   2.8497   2.8497   2.8834   2.8834
     2.9154   2.9154   2.9276   2.9276   2.9671   2.9671   3.0225   3.0225
     3.0569   3.0569   3.0742   3.0742   3.1161   3.1161   3.1437   3.1437
     3.1665   3.1665   3.1805   3.1805   3.2152   3.2152   3.2320   3.2320
     3.3455   3.3455   3.3885   3.3885   3.4498   3.4498   3.4935   3.4935
     5.5254   5.5254   5.6323   5.6323   5.7156   5.7156   5.8072   5.8072
     6.5234   6.5234   6.6662   6.6662   6.8629   6.8629   6.9854   6.9854
     7.0392   7.0392   7.1389   7.1389   7.2616   7.2616   7.3589   7.3589
     7.4694   7.4694   7.5323   7.5323   7.6805   7.6805   7.7336   7.7336
     7.7580   7.7580   7.8300   7.8300   7.8737   7.8737   8.0066   8.0066
     8.0596   8.0596   8.1245   8.1245   8.1927   8.1927   8.2575   8.2575
     8.3004   8.3004   8.3970   8.3970   8.4374   8.4374   8.5138   8.5138
     8.8145   8.8145   8.8697   8.8697

          k = 0.0000 0.4969 0.7500 ( 80262 PWs)   bands (ev):

   -41.9204 -41.9204 -41.8161 -41.8161 -41.6491 -41.6491 -41.6121 -41.6121
   -41.5356 -41.5356 -41.5009 -41.5009 -41.4619 -41.4619 -41.4553 -41.4553
   -41.4361 -41.4361 -41.4198 -41.4198 -41.4072 -41.4072 -41.3950 -41.3950
   -41.3924 -41.3924 -41.3920 -41.3920 -41.3550 -41.3550 -41.3315 -41.3315
   -41.3292 -41.3292 -41.3265 -41.3265 -41.3136 -41.3136 -41.3082 -41.3082
   -41.2872 -41.2872 -41.2777 -41.2777 -41.2711 -41.2711 -41.2596 -41.2596
   -41.2399 -41.2399 -41.2365 -41.2365 -41.2292 -41.2292 -41.2226 -41.2226
   -41.2138 -41.2138 -41.1766 -41.1766 -41.1664 -41.1664 -41.1658 -41.1658
   -41.1516 -41.1516 -41.1057 -41.1057 -41.1055 -41.1055 -41.1028 -41.1028
   -41.0982 -41.0982 -41.0673 -41.0673 -41.0551 -41.0551 -41.0447 -41.0447
   -40.9882 -40.9882 -40.9795 -40.9795 -40.9775 -40.9775 -40.9546 -40.9546
   -40.8936 -40.8936 -40.8588 -40.8588 -40.8509 -40.8509 -40.7393 -40.7393
   -40.2217 -40.2217 -40.1726 -40.1726 -40.0847 -40.0847 -39.9513 -39.9513
   -39.9141 -39.9141 -39.8968 -39.8968 -39.8606 -39.8606 -39.8021 -39.8021
   -39.7678 -39.7678 -39.7640 -39.7640 -39.7595 -39.7595 -39.7401 -39.7401
   -39.7206 -39.7206 -39.7112 -39.7112 -39.7081 -39.7081 -39.6974 -39.6974
   -39.6954 -39.6954 -39.6930 -39.6930 -39.6917 -39.6917 -39.6819 -39.6819
   -39.6759 -39.6759 -39.6605 -39.6605 -39.6435 -39.6435 -39.6412 -39.6412
   -39.6359 -39.6359 -39.6270 -39.6270 -39.6235 -39.6235 -39.6045 -39.6045
   -39.5991 -39.5991 -39.5824 -39.5824 -39.5782 -39.5782 -39.5728 -39.5728
   -39.5620 -39.5620 -39.5554 -39.5554 -39.5430 -39.5430 -39.5399 -39.5399
   -39.5358 -39.5358 -39.5318 -39.5318 -39.5245 -39.5245 -39.5174 -39.5174
   -39.5121 -39.5121 -39.5089 -39.5089 -39.4973 -39.4973 -39.4795 -39.4795
   -39.4731 -39.4731 -39.4692 -39.4692 -39.4682 -39.4682 -39.4592 -39.4592
   -39.4392 -39.4392 -39.4240 -39.4240 -39.4205 -39.4205 -39.4105 -39.4105
   -39.4000 -39.4000 -39.3711 -39.3711 -39.3706 -39.3706 -39.3695 -39.3695
   -39.3689 -39.3689 -39.3465 -39.3465 -39.3221 -39.3221 -39.3196 -39.3196
   -39.3091 -39.3091 -39.2774 -39.2774 -39.2560 -39.2560 -39.2556 -39.2556
   -39.2534 -39.2534 -39.2362 -39.2362 -39.2071 -39.2071 -39.1675 -39.1675
   -39.1520 -39.1520 -39.1302 -39.1302 -39.0999 -39.0999 -39.0059 -39.0059
   -16.9525 -16.9525 -16.7214 -16.7214 -16.3804 -16.3804 -16.3469 -16.3469
   -16.3221 -16.3221 -16.2816 -16.2816 -16.2410 -16.2410 -15.8895 -15.8895
   -14.2874 -14.2874 -14.2805 -14.2805 -14.2572 -14.2572 -14.2393 -14.2393
   -14.2331 -14.2331 -14.2212 -14.2212 -14.1849 -14.1849 -14.1643 -14.1643
   -14.1213 -14.1213 -14.1010 -14.1010 -14.0884 -14.0884 -14.0815 -14.0815
   -14.0436 -14.0436 -14.0335 -14.0335 -14.0200 -14.0200 -14.0060 -14.0060
   -11.7572 -11.7572 -11.7331 -11.7331 -11.7220 -11.7220 -11.7005 -11.7004
   -11.6987 -11.6987 -11.6978 -11.6976 -11.6840 -11.6840 -11.6627 -11.6627
   -11.6496 -11.6496 -11.6412 -11.6412 -11.6196 -11.6196 -11.5946 -11.5946
   -11.5890 -11.5890 -11.5695 -11.5695 -11.5543 -11.5543 -11.5510 -11.5510
   -11.5235 -11.5235 -11.5092 -11.5092 -11.4993 -11.4993 -11.4930 -11.4930
   -11.4822 -11.4822 -11.4667 -11.4667 -11.4541 -11.4541 -11.4275 -11.4275
    -9.3171  -9.3170  -9.2506  -9.2506  -9.2102  -9.2102  -9.1014  -9.1014
    -9.0884  -9.0884  -9.0780  -9.0780  -8.9798  -8.9798  -8.9724  -8.9724
    -8.6354  -8.6354  -8.4194  -8.4193  -8.3299  -8.3298  -8.1760  -8.1742
    -8.1389  -8.1368  -8.0908  -8.0903  -8.0616  -8.0603  -7.9847  -7.9832
    -7.9429  -7.9421  -7.9066  -7.9058  -7.8838  -7.8832  -7.8720  -7.8714
    -7.8453  -7.8448  -7.8139  -7.8129  -7.7331  -7.7321  -7.7013  -7.7009
    -7.6686  -7.6662  -7.6277  -7.6265  -7.6129  -7.6118  -7.5651  -7.5647
    -7.5318  -7.5314  -7.4329  -7.4326  -7.3985  -7.3985  -7.3137  -7.3135
    -6.5985  -6.5985  -6.4730  -6.4730  -6.1868  -6.1868  -6.1340  -6.1340
    -6.1032  -6.1032  -6.0970  -6.0970  -6.0038  -6.0037  -5.9949  -5.9947
    -5.8545  -5.8545  -5.7615  -5.7615  -5.7030  -5.7030  -5.5446  -5.5446
    -5.5340  -5.5340  -5.4663  -5.4663  -5.1705  -5.1705  -5.1318  -5.1318
    -4.2647  -4.2645  -4.0804  -4.0802  -3.9265  -3.9258  -3.8231  -3.8227
    -3.7201  -3.7185  -3.6762  -3.6753  -3.6430  -3.6419  -3.5344  -3.5329
    -3.5053  -3.5050  -3.4755  -3.4743  -3.4367  -3.4359  -3.4124  -3.4107
    -3.3607  -3.3601  -3.3061  -3.3057  -3.1501  -3.1500  -3.0811  -3.0805
    -1.7567  -1.7566  -1.6335  -1.6334  -1.6033  -1.6033  -1.5187  -1.5186
    -1.4572  -1.4567  -1.4270  -1.4264  -1.3966  -1.3964  -1.3693  -1.3692
    -1.3411  -1.3410  -1.2236  -1.2229  -1.2142  -1.2140  -1.1189  -1.1183
    -1.1154  -1.1147  -1.1011  -1.0996  -1.0883  -1.0878  -1.0209  -1.0206
     0.2239   0.2349   0.2699   0.2771   0.3357   0.3412   0.3689   0.3716
     0.4509   0.4719   0.4986   0.5163   0.6431   0.6534   0.6745   0.6981
     0.7205   0.7356   0.9414   0.9486   1.0224   1.0280   1.0439   1.0671
     1.1560   1.1623   1.2277   1.2433   1.2621   1.2815   1.3043   1.3213
     1.3384   1.3676   1.3979   1.4296   1.4615   1.4727   1.5195   1.5377
     1.5824   1.6046   1.6332   1.6421   1.6609   1.6975   1.7677   1.8035
     1.8132   1.8350   1.8647   1.8880   1.9004   1.9102   1.9294   1.9435
     1.9618   1.9831   2.0135   2.0199   2.0325   2.0542   2.0810   2.0897
     2.1074   2.1280   2.1537   2.1916   2.2119   2.2288   2.2383   2.2488
     2.2616   2.2826   2.2922   2.3205   2.3311   2.3380   2.3636   2.3745
     2.3894   2.4085   2.4238   2.4320   2.4517   2.4687   2.4798   2.4840
     2.5061   2.5172   2.5405   2.5538   2.5597   2.5695   2.6018   2.6179
     2.6460   2.6637   2.6788   2.6937   2.7142   2.7334   2.7437   2.7641
     2.7872   2.8086   2.8184   2.8417   2.8591   2.8753   2.8813   2.8889
     2.9133   2.9238   2.9411   2.9609   2.9963   3.0074   3.0155   3.0336
     3.0474   3.0681   3.0809   3.0979   3.1015   3.1302   3.1529   3.1596
     3.1699   3.1818   3.1908   3.1984   3.2222   3.2439   3.2506   3.3020
     3.3510   3.3762   3.4167   3.4341   3.4965   3.5292   3.5932   3.6311
     5.2804   5.3149   5.4316   5.4620   5.7307   5.7496   5.8613   5.8919
     6.1190   6.1733   6.2887   6.3080   6.4904   6.5628   6.6338   6.6615
     6.9657   6.9767   7.0377   7.0449   7.1443   7.1686   7.2675   7.3072
     7.4048   7.4431   7.4617   7.4800   7.5988   7.6035   7.6608   7.6740
     7.7820   7.8143   7.9013   7.9627   8.0976   8.1082   8.1513   8.1636
     8.1974   8.2192   8.2411   8.2577   8.2971   8.3128   8.3550   8.3656
     8.4633   8.4932   8.5222   8.5422   8.6203   8.6877   8.7312   8.7914
     8.8101   8.8277   8.8575   8.8890

          k = 0.0000 0.7454 0.0000 ( 80274 PWs)   bands (ev):

   -41.9204 -41.9204 -41.8161 -41.8161 -41.6491 -41.6491 -41.6121 -41.6121
   -41.5356 -41.5356 -41.5009 -41.5009 -41.4619 -41.4619 -41.4553 -41.4553
   -41.4361 -41.4361 -41.4198 -41.4198 -41.4072 -41.4072 -41.3950 -41.3950
   -41.3924 -41.3924 -41.3920 -41.3920 -41.3550 -41.3550 -41.3315 -41.3315
   -41.3292 -41.3292 -41.3265 -41.3265 -41.3136 -41.3136 -41.3082 -41.3082
   -41.2872 -41.2872 -41.2777 -41.2777 -41.2711 -41.2711 -41.2597 -41.2597
   -41.2399 -41.2399 -41.2365 -41.2365 -41.2292 -41.2292 -41.2226 -41.2226
   -41.2138 -41.2138 -41.1767 -41.1767 -41.1664 -41.1664 -41.1659 -41.1659
   -41.1516 -41.1516 -41.1057 -41.1057 -41.1055 -41.1055 -41.1028 -41.1028
   -41.0982 -41.0982 -41.0673 -41.0673 -41.0551 -41.0551 -41.0447 -41.0447
   -40.9882 -40.9882 -40.9796 -40.9796 -40.9775 -40.9775 -40.9546 -40.9546
   -40.8936 -40.8936 -40.8588 -40.8588 -40.8509 -40.8509 -40.7394 -40.7394
   -40.2217 -40.2217 -40.1726 -40.1726 -40.0847 -40.0847 -39.9513 -39.9513
   -39.9141 -39.9141 -39.8968 -39.8968 -39.8606 -39.8606 -39.8021 -39.8021
   -39.7678 -39.7678 -39.7641 -39.7641 -39.7595 -39.7595 -39.7401 -39.7401
   -39.7206 -39.7206 -39.7112 -39.7112 -39.7081 -39.7081 -39.6974 -39.6974
   -39.6954 -39.6954 -39.6930 -39.6930 -39.6917 -39.6917 -39.6819 -39.6819
   -39.6759 -39.6759 -39.6605 -39.6605 -39.6435 -39.6435 -39.6412 -39.6412
   -39.6359 -39.6359 -39.6270 -39.6270 -39.6235 -39.6235 -39.6045 -39.6045
   -39.5991 -39.5991 -39.5824 -39.5824 -39.5782 -39.5782 -39.5728 -39.5728
   -39.5620 -39.5620 -39.5554 -39.5554 -39.5430 -39.5430 -39.5399 -39.5399
   -39.5358 -39.5358 -39.5318 -39.5318 -39.5245 -39.5245 -39.5174 -39.5174
   -39.5121 -39.5121 -39.5089 -39.5089 -39.4973 -39.4973 -39.4795 -39.4795
   -39.4731 -39.4731 -39.4692 -39.4692 -39.4682 -39.4682 -39.4593 -39.4593
   -39.4392 -39.4392 -39.4240 -39.4240 -39.4205 -39.4205 -39.4105 -39.4105
   -39.4001 -39.4001 -39.3711 -39.3711 -39.3706 -39.3706 -39.3695 -39.3695
   -39.3689 -39.3689 -39.3465 -39.3465 -39.3221 -39.3221 -39.3196 -39.3196
   -39.3091 -39.3091 -39.2774 -39.2774 -39.2560 -39.2560 -39.2556 -39.2556
   -39.2534 -39.2534 -39.2362 -39.2362 -39.2071 -39.2071 -39.1675 -39.1675
   -39.1520 -39.1520 -39.1302 -39.1302 -39.0999 -39.0999 -39.0059 -39.0059
   -16.9525 -16.9525 -16.7214 -16.7214 -16.3804 -16.3804 -16.3469 -16.3469
   -16.3221 -16.3221 -16.2816 -16.2816 -16.2410 -16.2410 -15.8895 -15.8895
   -14.2874 -14.2874 -14.2805 -14.2805 -14.2573 -14.2573 -14.2394 -14.2394
   -14.2331 -14.2331 -14.2212 -14.2212 -14.1849 -14.1849 -14.1643 -14.1643
   -14.1213 -14.1212 -14.1010 -14.1010 -14.0884 -14.0884 -14.0815 -14.0815
   -14.0437 -14.0437 -14.0335 -14.0335 -14.0200 -14.0200 -14.0060 -14.0060
   -11.7573 -11.7573 -11.7335 -11.7334 -11.7226 -11.7224 -11.7002 -11.7000
   -11.6987 -11.6987 -11.6975 -11.6974 -11.6838 -11.6837 -11.6627 -11.6627
   -11.6497 -11.6497 -11.6412 -11.6412 -11.6202 -11.6200 -11.5944 -11.5942
   -11.5891 -11.5889 -11.5696 -11.5696 -11.5543 -11.5543 -11.5509 -11.5509
   -11.5235 -11.5235 -11.5091 -11.5091 -11.4993 -11.4993 -11.4938 -11.4934
   -11.4819 -11.4817 -11.4662 -11.4661 -11.4541 -11.4541 -11.4275 -11.4275
    -9.3174  -9.3174  -9.2505  -9.2505  -9.2099  -9.2099  -9.1021  -9.1021
    -9.0880  -9.0880  -9.0777  -9.0777  -8.9811  -8.9811  -8.9712  -8.9712
    -8.6392  -8.6391  -8.4274  -8.4273  -8.3225  -8.3223  -8.1717  -8.1708
    -8.1245  -8.1240  -8.0871  -8.0863  -8.0428  -8.0419  -7.9775  -7.9773
    -7.9526  -7.9521  -7.9160  -7.9148  -7.8898  -7.8877  -7.8738  -7.8735
    -7.8446  -7.8420  -7.8174  -7.8151  -7.7360  -7.7353  -7.7034  -7.7021
    -7.6712  -7.6706  -7.6435  -7.6430  -7.6195  -7.6190  -7.5815  -7.5802
    -7.5163  -7.5157  -7.4277  -7.4277  -7.3953  -7.3952  -7.3054  -7.3051
    -6.5985  -6.5985  -6.4729  -6.4729  -6.1872  -6.1872  -6.1341  -6.1341
    -6.1058  -6.1058  -6.0948  -6.0948  -6.0053  -6.0053  -5.9937  -5.9937
    -5.8550  -5.8550  -5.7617  -5.7617  -5.7027  -5.7027  -5.5446  -5.5446
    -5.5339  -5.5339  -5.4663  -5.4663  -5.1703  -5.1703  -5.1316  -5.1316
    -4.4241  -4.4237  -4.0300  -4.0295  -3.9386  -3.9379  -3.8258  -3.8251
    -3.7941  -3.7933  -3.6629  -3.6629  -3.5488  -3.5478  -3.5089  -3.5087
    -3.4854  -3.4849  -3.4468  -3.4459  -3.4330  -3.4322  -3.4124  -3.4118
    -3.3496  -3.3491  -3.3043  -3.3038  -3.1647  -3.1646  -2.8681  -2.8667
    -1.7577  -1.7577  -1.6353  -1.6349  -1.6036  -1.6033  -1.5181  -1.5180
    -1.4574  -1.4572  -1.4265  -1.4263  -1.3967  -1.3964  -1.3693  -1.3692
    -1.3428  -1.3427  -1.2252  -1.2250  -1.2131  -1.2129  -1.1249  -1.1243
    -1.1153  -1.1144  -1.0995  -1.0992  -1.0898  -1.0897  -1.0159  -1.0158
     0.1767   0.1890   0.2486   0.2564   0.2849   0.2896   0.3376   0.3410
     0.3662   0.3765   0.3882   0.4054   0.4425   0.4482   0.4637   0.4760
     0.5363   0.5391   0.6259   0.6274   0.7541   0.7666   0.8101   0.8153
     1.1511   1.1913   1.2498   1.2738   1.2862   1.3114   1.3181   1.3278
     1.4182   1.4902   1.5279   1.5445   1.5837   1.6007   1.6235   1.6425
     1.6819   1.7025   1.7334   1.7683   1.7937   1.8031   1.8140   1.8398
     1.8574   1.8724   1.8916   1.9084   1.9446   1.9659   1.9958   2.0174
     2.0382   2.0516   2.0583   2.0687   2.0991   2.1088   2.1227   2.1513
     2.1667   2.1926   2.2029   2.2270   2.2488   2.2645   2.2886   2.3004
     2.3130   2.3340   2.3465   2.3595   2.3774   2.3869   2.4038   2.4250
     2.4287   2.4378   2.4552   2.4726   2.4819   2.4967   2.5147   2.5319
     2.5500   2.5573   2.5689   2.5864   2.5897   2.5978   2.6162   2.6292
     2.6397   2.6606   2.6740   2.6947   2.7102   2.7319   2.7442   2.7559
     2.7782   2.8040   2.8156   2.8393   2.8591   2.8746   2.9000   2.9041
     2.9096   2.9330   2.9659   2.9832   2.9979   3.0138   3.0375   3.0435
     3.0705   3.0841   3.0935   3.1141   3.1412   3.1543   3.1708   3.1924
     3.2172   3.2296   3.2500   3.2611   3.2730   3.3066   3.3313   3.3625
     3.4733   3.5086   3.5259   3.5653   3.6980   3.7044   3.8996   3.9104
     4.7835   4.8965   5.2363   5.2699   5.4341   5.5262   5.5668   5.6125
     5.9464   5.9752   6.0620   6.0908   6.1648   6.1923   6.3354   6.3741
     6.4141   6.4563   6.4718   6.4957   6.6777   6.7357   6.8320   6.8443
     7.2965   7.2995   7.6933   7.7057   7.8023   7.8308   7.9802   8.0016
     8.0332   8.0516   8.1665   8.1956   8.2330   8.2642   8.3055   8.3305
     8.3726   8.4053   8.4352   8.4507   8.5037   8.5240   8.5464   8.5704
     8.5985   8.6146   8.6322   8.6568   8.7451   8.7636   8.8147   8.8320
     8.8549   8.8654   8.8893   8.9223

          k = 0.0000 0.7454 0.2500 ( 80251 PWs)   bands (ev):

   -41.9204 -41.9204 -41.8161 -41.8161 -41.6491 -41.6491 -41.6121 -41.6121
   -41.5356 -41.5356 -41.5009 -41.5009 -41.4619 -41.4619 -41.4553 -41.4553
   -41.4361 -41.4361 -41.4198 -41.4198 -41.4072 -41.4072 -41.3950 -41.3950
   -41.3924 -41.3924 -41.3920 -41.3920 -41.3550 -41.3550 -41.3315 -41.3315
   -41.3292 -41.3292 -41.3265 -41.3265 -41.3136 -41.3136 -41.3082 -41.3082
   -41.2872 -41.2872 -41.2777 -41.2777 -41.2711 -41.2711 -41.2597 -41.2597
   -41.2399 -41.2399 -41.2365 -41.2365 -41.2292 -41.2292 -41.2226 -41.2226
   -41.2138 -41.2138 -41.1766 -41.1766 -41.1664 -41.1664 -41.1658 -41.1658
   -41.1516 -41.1516 -41.1057 -41.1057 -41.1055 -41.1055 -41.1028 -41.1028
   -41.0982 -41.0982 -41.0673 -41.0673 -41.0551 -41.0551 -41.0447 -41.0447
   -40.9882 -40.9882 -40.9795 -40.9795 -40.9775 -40.9775 -40.9546 -40.9546
   -40.8936 -40.8936 -40.8588 -40.8588 -40.8509 -40.8509 -40.7393 -40.7393
   -40.2217 -40.2217 -40.1726 -40.1726 -40.0847 -40.0847 -39.9513 -39.9513
   -39.9141 -39.9141 -39.8968 -39.8968 -39.8606 -39.8606 -39.8021 -39.8021
   -39.7678 -39.7678 -39.7640 -39.7640 -39.7595 -39.7595 -39.7401 -39.7401
   -39.7206 -39.7206 -39.7112 -39.7112 -39.7081 -39.7081 -39.6974 -39.6974
   -39.6954 -39.6954 -39.6930 -39.6930 -39.6917 -39.6917 -39.6819 -39.6819
   -39.6759 -39.6759 -39.6605 -39.6605 -39.6435 -39.6435 -39.6412 -39.6412
   -39.6359 -39.6359 -39.6270 -39.6270 -39.6235 -39.6235 -39.6045 -39.6045
   -39.5991 -39.5991 -39.5824 -39.5824 -39.5782 -39.5782 -39.5728 -39.5728
   -39.5620 -39.5620 -39.5554 -39.5554 -39.5430 -39.5430 -39.5399 -39.5399
   -39.5358 -39.5358 -39.5318 -39.5318 -39.5245 -39.5245 -39.5174 -39.5174
   -39.5121 -39.5121 -39.5089 -39.5089 -39.4973 -39.4973 -39.4795 -39.4795
   -39.4731 -39.4731 -39.4692 -39.4692 -39.4682 -39.4682 -39.4592 -39.4592
   -39.4392 -39.4392 -39.4240 -39.4240 -39.4205 -39.4205 -39.4105 -39.4105
   -39.4000 -39.4000 -39.3711 -39.3711 -39.3706 -39.3706 -39.3695 -39.3695
   -39.3689 -39.3689 -39.3465 -39.3465 -39.3221 -39.3221 -39.3196 -39.3196
   -39.3091 -39.3091 -39.2774 -39.2774 -39.2560 -39.2560 -39.2556 -39.2556
   -39.2534 -39.2534 -39.2362 -39.2362 -39.2071 -39.2071 -39.1675 -39.1675
   -39.1520 -39.1520 -39.1302 -39.1302 -39.0999 -39.0999 -39.0059 -39.0059
   -16.9525 -16.9525 -16.7214 -16.7214 -16.3804 -16.3804 -16.3469 -16.3469
   -16.3221 -16.3221 -16.2816 -16.2816 -16.2410 -16.2410 -15.8895 -15.8895
   -14.2874 -14.2874 -14.2805 -14.2805 -14.2573 -14.2573 -14.2393 -14.2393
   -14.2331 -14.2331 -14.2212 -14.2212 -14.1849 -14.1849 -14.1643 -14.1643
   -14.1213 -14.1212 -14.1010 -14.1010 -14.0884 -14.0884 -14.0815 -14.0815
   -14.0436 -14.0436 -14.0335 -14.0335 -14.0200 -14.0200 -14.0060 -14.0060
   -11.7572 -11.7572 -11.7331 -11.7331 -11.7226 -11.7224 -11.7003 -11.7001
   -11.6987 -11.6986 -11.6978 -11.6975 -11.6838 -11.6838 -11.6627 -11.6627
   -11.6497 -11.6496 -11.6412 -11.6412 -11.6200 -11.6199 -11.5944 -11.5942
   -11.5891 -11.5889 -11.5695 -11.5694 -11.5543 -11.5543 -11.5509 -11.5509
   -11.5235 -11.5235 -11.5092 -11.5092 -11.4993 -11.4993 -11.4938 -11.4935
   -11.4819 -11.4818 -11.4664 -11.4662 -11.4541 -11.4541 -11.4275 -11.4275
    -9.3170  -9.3170  -9.2506  -9.2506  -9.2102  -9.2102  -9.1023  -9.1023
    -9.0879  -9.0879  -9.0777  -9.0777  -8.9810  -8.9809  -8.9712  -8.9712
    -8.6370  -8.6369  -8.4287  -8.4285  -8.3137  -8.3137  -8.1748  -8.1729
    -8.1369  -8.1355  -8.0997  -8.0985  -8.0529  -8.0510  -7.9816  -7.9803
    -7.9399  -7.9389  -7.9114  -7.9099  -7.8846  -7.8835  -7.8723  -7.8718
    -7.8416  -7.8393  -7.8183  -7.8164  -7.7425  -7.7420  -7.6934  -7.6922
    -7.6724  -7.6703  -7.6322  -7.6307  -7.6192  -7.6178  -7.5818  -7.5800
    -7.5179  -7.5174  -7.4327  -7.4324  -7.3964  -7.3964  -7.3082  -7.3078
    -6.5985  -6.5985  -6.4730  -6.4730  -6.1872  -6.1872  -6.1340  -6.1340
    -6.1059  -6.1059  -6.0948  -6.0948  -6.0038  -6.0036  -5.9951  -5.9950
    -5.8545  -5.8545  -5.7614  -5.7614  -5.7029  -5.7028  -5.5445  -5.5445
    -5.5339  -5.5339  -5.4663  -5.4663  -5.1704  -5.1704  -5.1319  -5.1318
    -4.3580  -4.3576  -4.0121  -4.0111  -3.9606  -3.9599  -3.8212  -3.8203
    -3.7580  -3.7575  -3.6639  -3.6637  -3.6119  -3.6104  -3.5161  -3.5153
    -3.5063  -3.5055  -3.4465  -3.4459  -3.4309  -3.4297  -3.3967  -3.3964
    -3.3642  -3.3619  -3.3258  -3.3255  -3.1674  -3.1672  -2.9674  -2.9666
    -1.7576  -1.7576  -1.6345  -1.6343  -1.6036  -1.6035  -1.5178  -1.5176
    -1.4575  -1.4568  -1.4271  -1.4267  -1.3967  -1.3965  -1.3697  -1.3694
    -1.3414  -1.3413  -1.2246  -1.2241  -1.2134  -1.2131  -1.1200  -1.1196
    -1.1144  -1.1129  -1.1009  -1.0993  -1.0881  -1.0876  -1.0211  -1.0208
     0.2004   0.2143   0.2785   0.2820   0.3210   0.3256   0.3451   0.3579
     0.4045   0.4323   0.4579   0.4823   0.5415   0.5595   0.6011   0.6096
     0.6696   0.6776   0.7119   0.7298   0.7835   0.7944   0.8457   0.8593
     1.1445   1.1972   1.2333   1.2682   1.2844   1.3004   1.3168   1.3316
     1.4088   1.4558   1.4794   1.5253   1.5439   1.5569   1.5967   1.6113
     1.6318   1.6611   1.6936   1.7309   1.7440   1.7899   1.8068   1.8300
     1.8421   1.8612   1.8853   1.9078   1.9263   1.9408   1.9609   1.9798
     1.9967   2.0125   2.0312   2.0540   2.0721   2.0899   2.1012   2.1198
     2.1484   2.1701   2.1842   2.2130   2.2191   2.2421   2.2690   2.2822
     2.2948   2.3080   2.3259   2.3408   2.3553   2.3692   2.3809   2.3920
     2.4001   2.4166   2.4327   2.4483   2.4653   2.4825   2.4941   2.5122
     2.5258   2.5358   2.5451   2.5659   2.5869   2.6023   2.6080   2.6214
     2.6522   2.6585   2.6684   2.6899   2.7115   2.7250   2.7383   2.7548
     2.7944   2.8049   2.8202   2.8384   2.8568   2.8752   2.8906   2.8982
     2.9147   2.9276   2.9417   2.9561   2.9865   2.9991   3.0213   3.0392
     3.0541   3.0693   3.0846   3.0936   3.1217   3.1384   3.1529   3.1737
     3.1819   3.2009   3.2171   3.2281   3.2489   3.2679   3.2867   3.3117
     3.4032   3.4298   3.4819   3.4932   3.5380   3.5756   3.6730   3.7151
     5.0450   5.1454   5.4445   5.4906   5.5654   5.5926   5.7641   5.7863
     6.0360   6.0887   6.2788   6.3003   6.3513   6.4058   6.4529   6.4628
     6.5240   6.5686   6.6800   6.7448   6.7688   6.7883   6.8812   7.0447
     7.3861   7.3889   7.6189   7.6397   7.8010   7.8446   7.9625   7.9860
     8.0162   8.0393   8.0556   8.0908   8.1085   8.1888   8.2024   8.2627
     8.2956   8.3189   8.3329   8.3552   8.4182   8.4405   8.4833   8.4914
     8.5456   8.5763   8.5955   8.6231   8.6576   8.6993   8.7455   8.7731
     8.8237   8.8589   8.8672   8.8909

          k = 0.0000 0.7454 0.5000 ( 80228 PWs)   bands (ev):

   -41.9204 -41.9204 -41.8161 -41.8161 -41.6491 -41.6491 -41.6121 -41.6121
   -41.5356 -41.5356 -41.5009 -41.5009 -41.4619 -41.4619 -41.4553 -41.4553
   -41.4361 -41.4361 -41.4198 -41.4198 -41.4072 -41.4072 -41.3950 -41.3950
   -41.3924 -41.3924 -41.3920 -41.3920 -41.3550 -41.3550 -41.3315 -41.3315
   -41.3292 -41.3292 -41.3265 -41.3265 -41.3136 -41.3136 -41.3082 -41.3082
   -41.2872 -41.2872 -41.2777 -41.2777 -41.2711 -41.2711 -41.2596 -41.2596
   -41.2399 -41.2399 -41.2365 -41.2365 -41.2292 -41.2292 -41.2226 -41.2226
   -41.2138 -41.2138 -41.1766 -41.1766 -41.1664 -41.1664 -41.1658 -41.1658
   -41.1516 -41.1516 -41.1057 -41.1057 -41.1055 -41.1055 -41.1027 -41.1027
   -41.0981 -41.0981 -41.0673 -41.0673 -41.0551 -41.0551 -41.0447 -41.0447
   -40.9882 -40.9882 -40.9795 -40.9795 -40.9775 -40.9775 -40.9546 -40.9546
   -40.8936 -40.8936 -40.8588 -40.8588 -40.8508 -40.8508 -40.7393 -40.7393
   -40.2217 -40.2217 -40.1726 -40.1726 -40.0847 -40.0847 -39.9513 -39.9513
   -39.9141 -39.9141 -39.8968 -39.8968 -39.8606 -39.8606 -39.8021 -39.8021
   -39.7678 -39.7678 -39.7640 -39.7640 -39.7595 -39.7595 -39.7401 -39.7401
   -39.7205 -39.7205 -39.7112 -39.7112 -39.7081 -39.7081 -39.6974 -39.6974
   -39.6954 -39.6954 -39.6930 -39.6930 -39.6917 -39.6917 -39.6819 -39.6819
   -39.6759 -39.6759 -39.6605 -39.6605 -39.6435 -39.6435 -39.6412 -39.6412
   -39.6359 -39.6359 -39.6270 -39.6270 -39.6235 -39.6235 -39.6045 -39.6045
   -39.5991 -39.5991 -39.5824 -39.5824 -39.5781 -39.5781 -39.5728 -39.5728
   -39.5620 -39.5620 -39.5554 -39.5554 -39.5430 -39.5430 -39.5399 -39.5399
   -39.5358 -39.5358 -39.5318 -39.5318 -39.5245 -39.5245 -39.5174 -39.5174
   -39.5121 -39.5121 -39.5089 -39.5089 -39.4973 -39.4973 -39.4795 -39.4795
   -39.4731 -39.4731 -39.4692 -39.4692 -39.4682 -39.4682 -39.4592 -39.4592
   -39.4392 -39.4392 -39.4240 -39.4240 -39.4205 -39.4205 -39.4105 -39.4105
   -39.4000 -39.4000 -39.3711 -39.3711 -39.3706 -39.3706 -39.3695 -39.3695
   -39.3689 -39.3689 -39.3465 -39.3465 -39.3221 -39.3221 -39.3196 -39.3196
   -39.3091 -39.3091 -39.2774 -39.2774 -39.2560 -39.2560 -39.2556 -39.2556
   -39.2534 -39.2534 -39.2362 -39.2362 -39.2071 -39.2071 -39.1674 -39.1674
   -39.1520 -39.1520 -39.1302 -39.1302 -39.0999 -39.0999 -39.0059 -39.0059
   -16.9525 -16.9525 -16.7214 -16.7214 -16.3804 -16.3804 -16.3469 -16.3469
   -16.3221 -16.3221 -16.2816 -16.2816 -16.2410 -16.2410 -15.8895 -15.8895
   -14.2874 -14.2874 -14.2805 -14.2805 -14.2572 -14.2572 -14.2393 -14.2393
   -14.2331 -14.2331 -14.2212 -14.2212 -14.1849 -14.1849 -14.1643 -14.1643
   -14.1212 -14.1212 -14.1010 -14.1010 -14.0884 -14.0884 -14.0815 -14.0815
   -14.0436 -14.0436 -14.0335 -14.0335 -14.0200 -14.0199 -14.0060 -14.0060
   -11.7572 -11.7572 -11.7328 -11.7328 -11.7227 -11.7225 -11.7004 -11.7002
   -11.6986 -11.6985 -11.6979 -11.6979 -11.6839 -11.6838 -11.6627 -11.6627
   -11.6496 -11.6496 -11.6412 -11.6412 -11.6199 -11.6197 -11.5944 -11.5942
   -11.5891 -11.5889 -11.5693 -11.5693 -11.5543 -11.5543 -11.5510 -11.5509
   -11.5235 -11.5235 -11.5093 -11.5093 -11.4993 -11.4993 -11.4939 -11.4935
   -11.4819 -11.4818 -11.4665 -11.4663 -11.4541 -11.4540 -11.4275 -11.4275
    -9.3167  -9.3167  -9.2506  -9.2506  -9.2106  -9.2106  -9.1025  -9.1025
    -9.0879  -9.0878  -9.0776  -9.0776  -8.9810  -8.9810  -8.9711  -8.9711
    -8.6351  -8.6350  -8.4282  -8.4281  -8.3052  -8.3050  -8.1793  -8.1787
    -8.1537  -8.1528  -8.1086  -8.1079  -8.0491  -8.0478  -7.9875  -7.9869
    -7.9381  -7.9372  -7.9030  -7.9011  -7.8822  -7.8813  -7.8662  -7.8654
    -7.8357  -7.8333  -7.8291  -7.8277  -7.7438  -7.7421  -7.6837  -7.6822
    -7.6649  -7.6637  -7.6277  -7.6265  -7.6199  -7.6190  -7.5821  -7.5808
    -7.5180  -7.5170  -7.4378  -7.4378  -7.3975  -7.3974  -7.3112  -7.3109
    -6.5986  -6.5986  -6.4732  -6.4732  -6.1872  -6.1872  -6.1339  -6.1339
    -6.1057  -6.1057  -6.0951  -6.0950  -6.0018  -6.0018  -5.9967  -5.9967
    -5.8540  -5.8540  -5.7610  -5.7610  -5.7029  -5.7029  -5.5445  -5.5445
    -5.5338  -5.5338  -5.4663  -5.4663  -5.1706  -5.1706  -5.1321  -5.1321
    -4.2174  -4.2168  -4.1544  -4.1540  -3.8579  -3.8570  -3.7992  -3.7985
    -3.7737  -3.7720  -3.6709  -3.6704  -3.6044  -3.6030  -3.5843  -3.5820
    -3.5157  -3.5150  -3.4947  -3.4940  -3.4408  -3.4406  -3.4270  -3.4265
    -3.3485  -3.3480  -3.2324  -3.2315  -3.1697  -3.1689  -3.1204  -3.1187
    -1.7575  -1.7575  -1.6336  -1.6336  -1.6037  -1.6037  -1.5175  -1.5174
    -1.4571  -1.4569  -1.4278  -1.4275  -1.3967  -1.3963  -1.3701  -1.3699
    -1.3401  -1.3400  -1.2234  -1.2231  -1.2140  -1.2137  -1.1177  -1.1171
    -1.1094  -1.1083  -1.1014  -1.1007  -1.0862  -1.0862  -1.0271  -1.0270
     0.2338   0.2389   0.2602   0.2732   0.3263   0.3338   0.3361   0.3438
     0.4161   0.4403   0.5624   0.5699   0.6853   0.6943   0.7274   0.7401
     0.7829   0.7937   0.8910   0.9018   1.0728   1.0810   1.1282   1.1369
     1.1565   1.1712   1.1917   1.2085   1.2294   1.2472   1.2622   1.2935
     1.3047   1.3289   1.3643   1.4002   1.4406   1.4814   1.5274   1.5536
     1.5691   1.5884   1.6282   1.6392   1.6988   1.7346   1.7669   1.8005
     1.8249   1.8356   1.8410   1.8630   1.8878   1.8975   1.9139   1.9196
     1.9543   1.9838   1.9936   2.0119   2.0325   2.0381   2.0730   2.0931
     2.1202   2.1333   2.1714   2.1835   2.2045   2.2271   2.2304   2.2529
     2.2852   2.3031   2.3126   2.3298   2.3444   2.3480   2.3669   2.3793
     2.3945   2.4069   2.4139   2.4280   2.4407   2.4594   2.4836   2.4966
     2.5056   2.5115   2.5304   2.5464   2.5649   2.5894   2.6149   2.6208
     2.6334   2.6501   2.6741   2.6974   2.7164   2.7273   2.7514   2.7758
     2.7838   2.7983   2.8223   2.8320   2.8561   2.8766   2.8836   2.9107
     2.9142   2.9185   2.9334   2.9545   2.9677   2.9844   3.0072   3.0179
     3.0394   3.0584   3.0650   3.0968   3.1012   3.1242   3.1384   3.1588
     3.1657   3.1781   3.1885   3.2167   3.2264   3.2464   3.2729   3.3012
     3.3390   3.3668   3.3845   3.4100   3.5103   3.5376   3.5656   3.6420
     5.2574   5.3628   5.3772   5.4547   5.7596   5.7922   5.8254   5.9031
     6.1410   6.1934   6.2090   6.2827   6.5086   6.5330   6.6073   6.6290
     6.9043   6.9464   6.9992   7.0698   7.3128   7.3378   7.3545   7.4653
     7.5301   7.5479   7.5654   7.5918   7.6311   7.6683   7.7166   7.7483
     7.7622   7.7861   7.8122   7.8905   7.9874   8.0081   8.0706   8.1009
     8.1226   8.1544   8.1648   8.1986   8.3187   8.3652   8.3847   8.4062
     8.4700   8.4828   8.5414   8.5673   8.5939   8.6620   8.6976   8.7709
     8.7908   8.8229   8.8533   8.8825

          k = 0.0000 0.7454 0.7500 ( 80251 PWs)   bands (ev):

   -41.9204 -41.9204 -41.8161 -41.8161 -41.6491 -41.6491 -41.6121 -41.6121
   -41.5356 -41.5356 -41.5009 -41.5009 -41.4619 -41.4619 -41.4553 -41.4553
   -41.4361 -41.4361 -41.4198 -41.4198 -41.4072 -41.4072 -41.3950 -41.3950
   -41.3924 -41.3924 -41.3920 -41.3920 -41.3550 -41.3550 -41.3315 -41.3315
   -41.3292 -41.3292 -41.3265 -41.3265 -41.3136 -41.3136 -41.3082 -41.3082
   -41.2872 -41.2872 -41.2777 -41.2777 -41.2711 -41.2711 -41.2597 -41.2597
   -41.2399 -41.2399 -41.2365 -41.2365 -41.2292 -41.2292 -41.2226 -41.2226
   -41.2138 -41.2138 -41.1766 -41.1766 -41.1664 -41.1664 -41.1658 -41.1658
   -41.1516 -41.1516 -41.1057 -41.1057 -41.1055 -41.1055 -41.1028 -41.1028
   -41.0982 -41.0982 -41.0673 -41.0673 -41.0551 -41.0551 -41.0447 -41.0447
   -40.9882 -40.9882 -40.9795 -40.9795 -40.9775 -40.9775 -40.9546 -40.9546
   -40.8936 -40.8936 -40.8588 -40.8588 -40.8509 -40.8509 -40.7393 -40.7393
   -40.2217 -40.2217 -40.1726 -40.1726 -40.0847 -40.0847 -39.9513 -39.9513
   -39.9141 -39.9141 -39.8968 -39.8968 -39.8606 -39.8606 -39.8021 -39.8021
   -39.7678 -39.7678 -39.7640 -39.7640 -39.7595 -39.7595 -39.7401 -39.7401
   -39.7206 -39.7206 -39.7112 -39.7112 -39.7081 -39.7081 -39.6974 -39.6974
   -39.6954 -39.6954 -39.6930 -39.6930 -39.6917 -39.6917 -39.6819 -39.6819
   -39.6759 -39.6759 -39.6605 -39.6605 -39.6435 -39.6435 -39.6412 -39.6412
   -39.6359 -39.6359 -39.6270 -39.6270 -39.6235 -39.6235 -39.6045 -39.6045
   -39.5991 -39.5991 -39.5824 -39.5824 -39.5782 -39.5782 -39.5728 -39.5728
   -39.5620 -39.5620 -39.5554 -39.5554 -39.5430 -39.5430 -39.5399 -39.5399
   -39.5358 -39.5358 -39.5318 -39.5318 -39.5245 -39.5245 -39.5174 -39.5174
   -39.5121 -39.5121 -39.5089 -39.5089 -39.4973 -39.4973 -39.4795 -39.4795
   -39.4731 -39.4731 -39.4692 -39.4692 -39.4682 -39.4682 -39.4592 -39.4592
   -39.4392 -39.4392 -39.4240 -39.4240 -39.4205 -39.4205 -39.4105 -39.4105
   -39.4000 -39.4000 -39.3711 -39.3711 -39.3706 -39.3706 -39.3695 -39.3695
   -39.3689 -39.3689 -39.3465 -39.3465 -39.3221 -39.3221 -39.3196 -39.3196
   -39.3091 -39.3091 -39.2774 -39.2774 -39.2560 -39.2560 -39.2556 -39.2556
   -39.2534 -39.2534 -39.2362 -39.2362 -39.2071 -39.2071 -39.1675 -39.1675
   -39.1520 -39.1520 -39.1302 -39.1302 -39.0999 -39.0999 -39.0059 -39.0059
   -16.9525 -16.9525 -16.7214 -16.7214 -16.3804 -16.3804 -16.3469 -16.3469
   -16.3221 -16.3221 -16.2816 -16.2816 -16.2410 -16.2410 -15.8895 -15.8895
   -14.2874 -14.2874 -14.2805 -14.2805 -14.2573 -14.2573 -14.2393 -14.2393
   -14.2331 -14.2331 -14.2212 -14.2212 -14.1849 -14.1849 -14.1643 -14.1643
   -14.1213 -14.1212 -14.1010 -14.1010 -14.0884 -14.0884 -14.0815 -14.0815
   -14.0436 -14.0436 -14.0335 -14.0335 -14.0200 -14.0200 -14.0060 -14.0060
   -11.7572 -11.7572 -11.7331 -11.7331 -11.7226 -11.7225 -11.7003 -11.7001
   -11.6987 -11.6986 -11.6978 -11.6975 -11.6838 -11.6838 -11.6627 -11.6627
   -11.6497 -11.6496 -11.6412 -11.6412 -11.6200 -11.6199 -11.5944 -11.5942
   -11.5891 -11.5889 -11.5695 -11.5694 -11.5543 -11.5543 -11.5509 -11.5509
   -11.5235 -11.5235 -11.5092 -11.5092 -11.4993 -11.4993 -11.4938 -11.4935
   -11.4819 -11.4818 -11.4663 -11.4662 -11.4541 -11.4541 -11.4275 -11.4275
    -9.3171  -9.3171  -9.2506  -9.2506  -9.2102  -9.2102  -9.1023  -9.1023
    -9.0879  -9.0879  -9.0776  -9.0776  -8.9811  -8.9811  -8.9711  -8.9710
    -8.6373  -8.6373  -8.4269  -8.4268  -8.3158  -8.3156  -8.1698  -8.1686
    -8.1478  -8.1462  -8.0952  -8.0948  -8.0469  -8.0453  -7.9818  -7.9802
    -7.9451  -7.9439  -7.9072  -7.9056  -7.8863  -7.8843  -7.8706  -7.8696
    -7.8441  -7.8416  -7.8232  -7.8209  -7.7395  -7.7372  -7.6940  -7.6931
    -7.6677  -7.6654  -7.6330  -7.6314  -7.6200  -7.6189  -7.5850  -7.5842
    -7.5166  -7.5155  -7.4326  -7.4324  -7.3962  -7.3961  -7.3084  -7.3082
    -6.5985  -6.5985  -6.4730  -6.4730  -6.1872  -6.1872  -6.1340  -6.1340
    -6.1057  -6.1056  -6.0951  -6.0951  -6.0040  -6.0039  -5.9949  -5.9947
    -5.8545  -5.8544  -5.7614  -5.7614  -5.7028  -5.7028  -5.5445  -5.5445
    -5.5338  -5.5338  -5.4663  -5.4663  -5.1705  -5.1705  -5.1319  -5.1319
    -4.3583  -4.3577  -4.0082  -4.0076  -3.9617  -3.9609  -3.8215  -3.8213
    -3.7691  -3.7677  -3.6620  -3.6618  -3.6029  -3.6018  -3.5148  -3.5139
    -3.4989  -3.4981  -3.4452  -3.4446  -3.4289  -3.4284  -3.4005  -3.3998
    -3.3674  -3.3665  -3.3342  -3.3340  -3.1701  -3.1699  -2.9623  -2.9606
    -1.7577  -1.7576  -1.6344  -1.6342  -1.6037  -1.6034  -1.5178  -1.5176
    -1.4573  -1.4570  -1.4276  -1.4268  -1.3967  -1.3963  -1.3696  -1.3695
    -1.3414  -1.3413  -1.2242  -1.2236  -1.2138  -1.2136  -1.1204  -1.1190
    -1.1129  -1.1124  -1.1015  -1.1000  -1.0882  -1.0877  -1.0214  -1.0210
     0.2003   0.2098   0.2661   0.2703   0.3254   0.3309   0.3539   0.3645
     0.3878   0.4068   0.4936   0.5050   0.5598   0.5738   0.5932   0.6132
     0.6460   0.6535   0.6845   0.6911   0.7994   0.8089   0.8704   0.8858
     1.1467   1.1870   1.2528   1.2682   1.2810   1.2991   1.3166   1.3348
     1.4155   1.4365   1.4889   1.5139   1.5284   1.5566   1.5873   1.6109
     1.6503   1.6557   1.7130   1.7316   1.7693   1.7837   1.7981   1.8109
     1.8535   1.8601   1.8772   1.8971   1.9275   1.9455   1.9730   1.9830
     1.9978   2.0052   2.0473   2.0511   2.0619   2.0909   2.1101   2.1205
     2.1536   2.1586   2.1918   2.2089   2.2324   2.2424   2.2591   2.2717
     2.2858   2.2974   2.3207   2.3414   2.3602   2.3703   2.3914   2.3962
     2.4087   2.4220   2.4286   2.4426   2.4626   2.4843   2.4976   2.5109
     2.5222   2.5362   2.5453   2.5513   2.5839   2.5886   2.6015   2.6315
     2.6428   2.6599   2.6751   2.6989   2.7163   2.7318   2.7386   2.7645
     2.7879   2.8044   2.8103   2.8284   2.8527   2.8672   2.8873   2.8983
     2.9170   2.9255   2.9494   2.9659   2.9866   3.0018   3.0130   3.0287
     3.0583   3.0656   3.0807   3.1001   3.1127   3.1398   3.1513   3.1639
     3.1832   3.1971   3.2129   3.2457   3.2513   3.2697   3.2998   3.3264
     3.3962   3.4424   3.4597   3.4872   3.5480   3.5725   3.6835   3.7241
     5.0469   5.1504   5.4393   5.4864   5.5525   5.5971   5.7625   5.7888
     6.0345   6.1058   6.2687   6.2967   6.3319   6.4162   6.4244   6.4568
     6.5424   6.6026   6.6844   6.7222   6.7609   6.8014   6.9093   7.0472
     7.3691   7.3803   7.6162   7.6328   7.8255   7.8526   7.9505   7.9602
     8.0097   8.0481   8.0641   8.0887   8.1303   8.1725   8.1988   8.2147
     8.2637   8.3173   8.3621   8.3872   8.4407   8.4695   8.4956   8.5171
     8.5546   8.5706   8.5933   8.6164   8.6480   8.6790   8.7236   8.7521
     8.8096   8.8441   8.8796   8.9092

          k = 0.2500 0.0000 0.0000 ( 80189 PWs)   bands (ev):

   -41.9204 -41.9204 -41.8161 -41.8161 -41.6491 -41.6491 -41.6121 -41.6121
   -41.5356 -41.5356 -41.5009 -41.5009 -41.4619 -41.4619 -41.4553 -41.4553
   -41.4361 -41.4361 -41.4198 -41.4198 -41.4072 -41.4072 -41.3950 -41.3950
   -41.3924 -41.3924 -41.3920 -41.3920 -41.3550 -41.3550 -41.3315 -41.3315
   -41.3292 -41.3292 -41.3265 -41.3265 -41.3136 -41.3136 -41.3082 -41.3082
   -41.2872 -41.2872 -41.2777 -41.2777 -41.2711 -41.2711 -41.2596 -41.2596
   -41.2399 -41.2399 -41.2365 -41.2365 -41.2292 -41.2292 -41.2226 -41.2226
   -41.2138 -41.2138 -41.1766 -41.1766 -41.1664 -41.1664 -41.1658 -41.1658
   -41.1516 -41.1516 -41.1057 -41.1057 -41.1055 -41.1055 -41.1027 -41.1027
   -41.0982 -41.0982 -41.0673 -41.0673 -41.0551 -41.0551 -41.0446 -41.0446
   -40.9882 -40.9882 -40.9795 -40.9795 -40.9775 -40.9775 -40.9546 -40.9546
   -40.8936 -40.8936 -40.8588 -40.8588 -40.8508 -40.8508 -40.7393 -40.7393
   -40.2217 -40.2217 -40.1726 -40.1726 -40.0847 -40.0847 -39.9513 -39.9513
   -39.9141 -39.9141 -39.8968 -39.8968 -39.8606 -39.8606 -39.8021 -39.8021
   -39.7678 -39.7678 -39.7640 -39.7640 -39.7595 -39.7595 -39.7401 -39.7401
   -39.7205 -39.7205 -39.7112 -39.7112 -39.7081 -39.7081 -39.6974 -39.6974
   -39.6954 -39.6954 -39.6930 -39.6930 -39.6917 -39.6917 -39.6819 -39.6819
   -39.6759 -39.6759 -39.6605 -39.6605 -39.6435 -39.6435 -39.6412 -39.6412
   -39.6359 -39.6359 -39.6270 -39.6270 -39.6235 -39.6235 -39.6045 -39.6045
   -39.5991 -39.5991 -39.5824 -39.5824 -39.5781 -39.5781 -39.5728 -39.5728
   -39.5619 -39.5619 -39.5554 -39.5554 -39.5430 -39.5430 -39.5399 -39.5399
   -39.5358 -39.5358 -39.5318 -39.5318 -39.5245 -39.5245 -39.5174 -39.5174
   -39.5121 -39.5121 -39.5089 -39.5089 -39.4973 -39.4973 -39.4795 -39.4795
   -39.4731 -39.4731 -39.4692 -39.4692 -39.4682 -39.4682 -39.4592 -39.4592
   -39.4392 -39.4392 -39.4240 -39.4240 -39.4205 -39.4205 -39.4105 -39.4105
   -39.4000 -39.4000 -39.3711 -39.3711 -39.3706 -39.3706 -39.3695 -39.3695
   -39.3689 -39.3689 -39.3465 -39.3465 -39.3221 -39.3221 -39.3196 -39.3196
   -39.3091 -39.3091 -39.2774 -39.2774 -39.2560 -39.2560 -39.2556 -39.2556
   -39.2534 -39.2534 -39.2362 -39.2362 -39.2071 -39.2071 -39.1674 -39.1674
   -39.1520 -39.1520 -39.1302 -39.1302 -39.0999 -39.0999 -39.0059 -39.0059
   -16.9525 -16.9525 -16.7214 -16.7214 -16.3804 -16.3804 -16.3469 -16.3469
   -16.3220 -16.3220 -16.2815 -16.2815 -16.2410 -16.2410 -15.8895 -15.8895
   -14.2874 -14.2874 -14.2805 -14.2805 -14.2573 -14.2573 -14.2393 -14.2393
   -14.2330 -14.2330 -14.2212 -14.2212 -14.1849 -14.1849 -14.1643 -14.1643
   -14.1212 -14.1212 -14.1010 -14.1010 -14.0884 -14.0884 -14.0815 -14.0815
   -14.0436 -14.0436 -14.0335 -14.0335 -14.0199 -14.0199 -14.0060 -14.0060
   -11.7571 -11.7571 -11.7335 -11.7335 -11.7230 -11.7230 -11.6999 -11.6999
   -11.6986 -11.6986 -11.6973 -11.6973 -11.6835 -11.6835 -11.6627 -11.6627
   -11.6500 -11.6499 -11.6411 -11.6411 -11.6204 -11.6204 -11.5938 -11.5938
   -11.5889 -11.5889 -11.5692 -11.5690 -11.5548 -11.5546 -11.5510 -11.5510
   -11.5235 -11.5235 -11.5092 -11.5092 -11.4993 -11.4993 -11.4943 -11.4943
   -11.4816 -11.4816 -11.4658 -11.4658 -11.4541 -11.4541 -11.4275 -11.4275
    -9.3174  -9.3174  -9.2504  -9.2504  -9.2091  -9.2091  -9.1028  -9.1028
    -9.0869  -9.0869  -9.0780  -9.0780  -8.9842  -8.9842  -8.9707  -8.9707
    -8.6345  -8.6344  -8.4287  -8.4286  -8.3019  -8.3016  -8.2051  -8.2042
    -8.1277  -8.1261  -8.0984  -8.0970  -8.0213  -8.0200  -7.9780  -7.9753
    -7.9605  -7.9584  -7.9447  -7.9445  -7.8974  -7.8966  -7.8503  -7.8486
    -7.8270  -7.8260  -7.7945  -7.7942  -7.7333  -7.7315  -7.6943  -7.6927
    -7.6733  -7.6729  -7.6497  -7.6490  -7.6317  -7.6310  -7.5965  -7.5959
    -7.5070  -7.5068  -7.4349  -7.4347  -7.3942  -7.3940  -7.2998  -7.2997
    -6.5984  -6.5984  -6.4728  -6.4728  -6.1876  -6.1876  -6.1341  -6.1341
    -6.1077  -6.1077  -6.0933  -6.0933  -6.0053  -6.0053  -5.9939  -5.9939
    -5.8553  -5.8553  -5.7616  -5.7616  -5.7026  -5.7026  -5.5444  -5.5443
    -5.5338  -5.5338  -5.4662  -5.4662  -5.1699  -5.1699  -5.1315  -5.1315
    -4.4121  -4.4120  -4.0320  -4.0314  -3.8986  -3.8981  -3.8473  -3.8462
    -3.8096  -3.8082  -3.6631  -3.6629  -3.5350  -3.5337  -3.5095  -3.5090
    -3.4837  -3.4822  -3.4600  -3.4589  -3.4344  -3.4339  -3.4140  -3.4136
    -3.3620  -3.3616  -3.3130  -3.3121  -3.1727  -3.1724  -2.8795  -2.8787
    -1.7573  -1.7570  -1.6362  -1.6361  -1.6030  -1.6030  -1.5171  -1.5170
    -1.4577  -1.4576  -1.4266  -1.4265  -1.3944  -1.3936  -1.3718  -1.3710
    -1.3429  -1.3427  -1.2256  -1.2252  -1.2127  -1.2125  -1.1236  -1.1232
    -1.1126  -1.1124  -1.1000  -1.0996  -1.0893  -1.0887  -1.0175  -1.0173
     0.2030   0.2074   0.2483   0.2560   0.3285   0.3470   0.3762   0.3861
     0.4256   0.4279   0.4517   0.4611   0.4868   0.4975   0.5242   0.5299
     0.5568   0.5633   0.5951   0.6015   0.6206   0.6265   0.7122   0.7291
     1.1451   1.1605   1.2428   1.2730   1.2924   1.3031   1.3134   1.3394
     1.4960   1.5150   1.5361   1.5451   1.5709   1.5856   1.6003   1.6268
     1.6787   1.7003   1.7227   1.7376   1.7657   1.7903   1.8124   1.8292
     1.8441   1.8572   1.8874   1.9112   1.9447   1.9717   1.9933   2.0215
     2.0343   2.0437   2.0566   2.0801   2.1050   2.1163   2.1284   2.1432
     2.1662   2.1758   2.1968   2.2094   2.2288   2.2530   2.2738   2.2777
     2.3154   2.3333   2.3459   2.3607   2.3704   2.3856   2.4067   2.4144
     2.4289   2.4390   2.4547   2.4706   2.4779   2.4962   2.5145   2.5294
     2.5426   2.5514   2.5626   2.5763   2.5903   2.6093   2.6175   2.6436
     2.6618   2.6779   2.6897   2.7073   2.7209   2.7389   2.7520   2.7613
     2.7746   2.7939   2.8236   2.8406   2.8588   2.8638   2.8888   2.9049
     2.9125   2.9279   2.9340   2.9463   2.9878   3.0069   3.0234   3.0450
     3.0525   3.0752   3.0816   3.1063   3.1340   3.1530   3.1646   3.1823
     3.2115   3.2336   3.2578   3.2781   3.2946   3.3024   3.3702   3.3881
     3.4745   3.5109   3.5373   3.5762   3.6017   3.6355   3.9414   3.9532
     4.8068   4.8714   5.2123   5.2503   5.4552   5.5128   5.5795   5.6323
     5.9353   5.9742   6.0240   6.0488   6.1176   6.1479   6.3851   6.4065
     6.4386   6.4551   6.6030   6.6353   6.7285   6.7803   6.8218   6.8530
     7.2865   7.2893   7.7677   7.8178   7.8483   7.8701   8.0252   8.0375
     8.1009   8.1248   8.1596   8.1799   8.2518   8.2882   8.3283   8.3559
     8.3893   8.4205   8.4406   8.4681   8.4872   8.4946   8.5525   8.5648
     8.6040   8.6299   8.6632   8.6745   8.6814   8.7149   8.7447   8.7749
     8.8245   8.8707   8.9064   8.9121

          k = 0.2500 0.0000 0.2500 ( 80236 PWs)   bands (ev):

   -41.9204 -41.9204 -41.8161 -41.8161 -41.6491 -41.6491 -41.6121 -41.6121
   -41.5356 -41.5356 -41.5009 -41.5009 -41.4619 -41.4619 -41.4553 -41.4553
   -41.4361 -41.4361 -41.4198 -41.4198 -41.4072 -41.4072 -41.3950 -41.3950
   -41.3924 -41.3924 -41.3920 -41.3920 -41.3550 -41.3550 -41.3315 -41.3315
   -41.3292 -41.3292 -41.3265 -41.3265 -41.3136 -41.3136 -41.3082 -41.3082
   -41.2872 -41.2872 -41.2777 -41.2777 -41.2711 -41.2711 -41.2596 -41.2596
   -41.2399 -41.2399 -41.2365 -41.2365 -41.2292 -41.2292 -41.2226 -41.2226
   -41.2138 -41.2138 -41.1766 -41.1766 -41.1664 -41.1664 -41.1658 -41.1658
   -41.1516 -41.1516 -41.1057 -41.1057 -41.1055 -41.1055 -41.1027 -41.1027
   -41.0982 -41.0982 -41.0673 -41.0673 -41.0551 -41.0551 -41.0447 -41.0447
   -40.9882 -40.9882 -40.9795 -40.9795 -40.9775 -40.9775 -40.9546 -40.9546
   -40.8936 -40.8936 -40.8588 -40.8588 -40.8509 -40.8509 -40.7393 -40.7393
   -40.2217 -40.2217 -40.1726 -40.1726 -40.0847 -40.0847 -39.9513 -39.9513
   -39.9141 -39.9141 -39.8968 -39.8968 -39.8606 -39.8606 -39.8021 -39.8021
   -39.7678 -39.7678 -39.7640 -39.7640 -39.7595 -39.7595 -39.7401 -39.7401
   -39.7205 -39.7205 -39.7112 -39.7112 -39.7081 -39.7081 -39.6974 -39.6974
   -39.6954 -39.6954 -39.6930 -39.6930 -39.6917 -39.6917 -39.6819 -39.6819
   -39.6759 -39.6759 -39.6605 -39.6605 -39.6435 -39.6435 -39.6412 -39.6412
   -39.6359 -39.6359 -39.6270 -39.6270 -39.6235 -39.6235 -39.6045 -39.6045
   -39.5991 -39.5991 -39.5824 -39.5824 -39.5781 -39.5781 -39.5728 -39.5728
   -39.5620 -39.5620 -39.5554 -39.5554 -39.5430 -39.5430 -39.5399 -39.5399
   -39.5358 -39.5358 -39.5318 -39.5318 -39.5245 -39.5245 -39.5174 -39.5174
   -39.5121 -39.5121 -39.5089 -39.5089 -39.4973 -39.4973 -39.4795 -39.4795
   -39.4731 -39.4731 -39.4692 -39.4692 -39.4682 -39.4682 -39.4592 -39.4592
   -39.4392 -39.4392 -39.4240 -39.4240 -39.4205 -39.4205 -39.4105 -39.4105
   -39.4000 -39.4000 -39.3711 -39.3711 -39.3706 -39.3706 -39.3695 -39.3695
   -39.3689 -39.3689 -39.3465 -39.3465 -39.3221 -39.3221 -39.3196 -39.3196
   -39.3091 -39.3091 -39.2774 -39.2774 -39.2560 -39.2560 -39.2556 -39.2556
   -39.2534 -39.2534 -39.2362 -39.2362 -39.2071 -39.2071 -39.1674 -39.1674
   -39.1520 -39.1520 -39.1302 -39.1302 -39.0999 -39.0999 -39.0059 -39.0059
   -16.9525 -16.9525 -16.7214 -16.7214 -16.3804 -16.3804 -16.3469 -16.3469
   -16.3221 -16.3221 -16.2816 -16.2816 -16.2410 -16.2410 -15.8895 -15.8895
   -14.2874 -14.2874 -14.2805 -14.2805 -14.2573 -14.2573 -14.2393 -14.2393
   -14.2330 -14.2330 -14.2212 -14.2212 -14.1849 -14.1849 -14.1643 -14.1643
   -14.1212 -14.1212 -14.1010 -14.1010 -14.0884 -14.0884 -14.0815 -14.0815
   -14.0436 -14.0436 -14.0335 -14.0335 -14.0199 -14.0199 -14.0060 -14.0060
   -11.7571 -11.7570 -11.7332 -11.7331 -11.7230 -11.7230 -11.7000 -11.6999
   -11.6985 -11.6984 -11.6978 -11.6974 -11.6836 -11.6835 -11.6627 -11.6627
   -11.6499 -11.6499 -11.6412 -11.6412 -11.6203 -11.6202 -11.5938 -11.5938
   -11.5889 -11.5889 -11.5691 -11.5689 -11.5549 -11.5546 -11.5511 -11.5510
   -11.5235 -11.5235 -11.5093 -11.5093 -11.4993 -11.4993 -11.4943 -11.4943
   -11.4817 -11.4816 -11.4659 -11.4659 -11.4541 -11.4541 -11.4275 -11.4275
    -9.3171  -9.3171  -9.2505  -9.2505  -9.2095  -9.2094  -9.1030  -9.1030
    -9.0869  -9.0869  -9.0779  -9.0779  -8.9840  -8.9840  -8.9708  -8.9708
    -8.6329  -8.6328  -8.4281  -8.4280  -8.2966  -8.2961  -8.2005  -8.1994
    -8.1406  -8.1394  -8.1036  -8.1026  -8.0465  -8.0447  -7.9850  -7.9847
    -7.9622  -7.9599  -7.9187  -7.9171  -7.8921  -7.8892  -7.8550  -7.8538
    -7.8202  -7.8187  -7.7969  -7.7955  -7.7333  -7.7330  -7.6850  -7.6835
    -7.6731  -7.6707  -7.6429  -7.6417  -7.6321  -7.6314  -7.5959  -7.5951
    -7.5076  -7.5073  -7.4377  -7.4374  -7.3960  -7.3959  -7.3039  -7.3037
    -6.5985  -6.5985  -6.4730  -6.4730  -6.1877  -6.1877  -6.1340  -6.1340
    -6.1076  -6.1076  -6.0936  -6.0936  -6.0040  -6.0038  -5.9952  -5.9951
    -5.8549  -5.8548  -5.7613  -5.7613  -5.7028  -5.7028  -5.5443  -5.5443
    -5.5338  -5.5338  -5.4662  -5.4662  -5.1699  -5.1699  -5.1317  -5.1317
    -4.3483  -4.3481  -4.0187  -4.0186  -3.8943  -3.8933  -3.8378  -3.8368
    -3.8065  -3.8055  -3.6627  -3.6624  -3.5574  -3.5564  -3.5395  -3.5385
    -3.5052  -3.5044  -3.4606  -3.4602  -3.4339  -3.4335  -3.4135  -3.4127
    -3.3740  -3.3729  -3.3378  -3.3370  -3.1719  -3.1716  -2.9712  -2.9706
    -1.7573  -1.7570  -1.6349  -1.6349  -1.6038  -1.6036  -1.5167  -1.5166
    -1.4576  -1.4571  -1.4277  -1.4271  -1.3941  -1.3933  -1.3721  -1.3714
    -1.3415  -1.3414  -1.2250  -1.2245  -1.2130  -1.2128  -1.1204  -1.1199
    -1.1117  -1.1112  -1.0997  -1.0986  -1.0895  -1.0893  -1.0204  -1.0200
     0.2149   0.2178   0.3172   0.3249   0.3731   0.3947   0.4280   0.4438
     0.4639   0.4774   0.5058   0.5179   0.5512   0.5653   0.5917   0.6045
     0.6430   0.6472   0.6754   0.6838   0.7196   0.7303   0.7969   0.8048
     1.1446   1.1563   1.2348   1.2661   1.2838   1.2922   1.3124   1.3447
     1.4370   1.4949   1.5144   1.5202   1.5384   1.5456   1.5777   1.6058
     1.6107   1.6473   1.6881   1.7212   1.7319   1.7597   1.8008   1.8159
     1.8338   1.8634   1.8768   1.8917   1.9203   1.9360   1.9701   1.9876
     1.9978   2.0056   2.0327   2.0529   2.0730   2.0849   2.1033   2.1305
     2.1441   2.1726   2.1809   2.2022   2.2129   2.2379   2.2537   2.2682
     2.2793   2.3124   2.3248   2.3340   2.3519   2.3692   2.3786   2.3881
     2.3997   2.4125   2.4349   2.4438   2.4585   2.4694   2.4770   2.5009
     2.5173   2.5269   2.5369   2.5602   2.5826   2.6001   2.6157   2.6296
     2.6395   2.6555   2.6752   2.7072   2.7160   2.7355   2.7501   2.7563
     2.7943   2.8093   2.8322   2.8428   2.8596   2.8739   2.8966   2.9009
     2.9139   2.9306   2.9400   2.9682   2.9817   2.9888   3.0033   3.0280
     3.0386   3.0522   3.0682   3.0898   3.1061   3.1253   3.1501   3.1743
     3.1777   3.1965   3.2217   3.2376   3.2626   3.2844   3.3000   3.3464
     3.3658   3.4090   3.4662   3.4772   3.5062   3.5602   3.7344   3.7449
     5.0527   5.1168   5.4449   5.4664   5.5069   5.5384   5.7976   5.8914
     5.9932   6.0077   6.2779   6.3065   6.3943   6.4256   6.5016   6.5130
     6.6002   6.6467   6.7172   6.7349   6.7571   6.7856   6.9730   7.0458
     7.3562   7.3592   7.6828   7.7208   7.8801   7.8977   7.9590   7.9972
     8.0417   8.0770   8.1144   8.1392   8.1861   8.2040   8.2653   8.2760
     8.3018   8.3258   8.3460   8.3965   8.4264   8.4481   8.4774   8.5099
     8.5470   8.5661   8.5918   8.6145   8.6366   8.6583   8.6940   8.7166
     8.8008   8.8171   8.8461   8.8845

          k = 0.2500 0.0000 0.5000 ( 80264 PWs)   bands (ev):

   -41.9204 -41.9204 -41.8161 -41.8161 -41.6491 -41.6491 -41.6121 -41.6121
   -41.5356 -41.5356 -41.5009 -41.5009 -41.4619 -41.4619 -41.4553 -41.4553
   -41.4361 -41.4361 -41.4198 -41.4198 -41.4072 -41.4072 -41.3950 -41.3950
   -41.3924 -41.3924 -41.3920 -41.3920 -41.3550 -41.3550 -41.3315 -41.3315
   -41.3292 -41.3292 -41.3265 -41.3265 -41.3136 -41.3136 -41.3082 -41.3082
   -41.2872 -41.2872 -41.2777 -41.2777 -41.2711 -41.2711 -41.2596 -41.2596
   -41.2399 -41.2399 -41.2365 -41.2365 -41.2292 -41.2292 -41.2226 -41.2226
   -41.2138 -41.2138 -41.1766 -41.1766 -41.1664 -41.1664 -41.1658 -41.1658
   -41.1516 -41.1516 -41.1057 -41.1057 -41.1055 -41.1055 -41.1028 -41.1028
   -41.0982 -41.0982 -41.0673 -41.0673 -41.0551 -41.0551 -41.0447 -41.0447
   -40.9882 -40.9882 -40.9795 -40.9795 -40.9775 -40.9775 -40.9546 -40.9546
   -40.8936 -40.8936 -40.8588 -40.8588 -40.8509 -40.8509 -40.7393 -40.7393
   -40.2217 -40.2217 -40.1726 -40.1726 -40.0847 -40.0847 -39.9513 -39.9513
   -39.9141 -39.9141 -39.8968 -39.8968 -39.8606 -39.8606 -39.8021 -39.8021
   -39.7678 -39.7678 -39.7640 -39.7640 -39.7595 -39.7595 -39.7401 -39.7401
   -39.7206 -39.7206 -39.7112 -39.7112 -39.7081 -39.7081 -39.6974 -39.6974
   -39.6954 -39.6954 -39.6930 -39.6930 -39.6917 -39.6917 -39.6819 -39.6819
   -39.6759 -39.6759 -39.6605 -39.6605 -39.6435 -39.6435 -39.6412 -39.6412
   -39.6359 -39.6359 -39.6270 -39.6270 -39.6235 -39.6235 -39.6045 -39.6045
   -39.5991 -39.5991 -39.5824 -39.5824 -39.5782 -39.5782 -39.5728 -39.5728
   -39.5620 -39.5620 -39.5554 -39.5554 -39.5430 -39.5430 -39.5399 -39.5399
   -39.5358 -39.5358 -39.5318 -39.5318 -39.5245 -39.5245 -39.5174 -39.5174
   -39.5121 -39.5121 -39.5089 -39.5089 -39.4973 -39.4973 -39.4795 -39.4795
   -39.4731 -39.4731 -39.4692 -39.4692 -39.4682 -39.4682 -39.4593 -39.4593
   -39.4392 -39.4392 -39.4240 -39.4240 -39.4205 -39.4205 -39.4105 -39.4105
   -39.4000 -39.4000 -39.3711 -39.3711 -39.3706 -39.3706 -39.3695 -39.3695
   -39.3689 -39.3689 -39.3465 -39.3465 -39.3221 -39.3221 -39.3196 -39.3196
   -39.3091 -39.3091 -39.2774 -39.2774 -39.2560 -39.2560 -39.2556 -39.2556
   -39.2534 -39.2534 -39.2362 -39.2362 -39.2071 -39.2071 -39.1675 -39.1675
   -39.1520 -39.1520 -39.1302 -39.1302 -39.0999 -39.0999 -39.0059 -39.0059
   -16.9525 -16.9525 -16.7214 -16.7214 -16.3804 -16.3804 -16.3469 -16.3469
   -16.3221 -16.3221 -16.2816 -16.2816 -16.2410 -16.2410 -15.8895 -15.8895
   -14.2874 -14.2874 -14.2805 -14.2805 -14.2573 -14.2573 -14.2393 -14.2393
   -14.2331 -14.2331 -14.2212 -14.2212 -14.1849 -14.1849 -14.1643 -14.1643
   -14.1212 -14.1212 -14.1010 -14.1010 -14.0884 -14.0884 -14.0815 -14.0815
   -14.0437 -14.0436 -14.0335 -14.0335 -14.0200 -14.0200 -14.0060 -14.0060
   -11.7570 -11.7570 -11.7328 -11.7328 -11.7231 -11.7230 -11.7000 -11.7000
   -11.6984 -11.6984 -11.6979 -11.6979 -11.6836 -11.6836 -11.6627 -11.6627
   -11.6499 -11.6499 -11.6412 -11.6412 -11.6201 -11.6201 -11.5938 -11.5938
   -11.5889 -11.5889 -11.5690 -11.5688 -11.5549 -11.5547 -11.5511 -11.5511
   -11.5235 -11.5235 -11.5094 -11.5094 -11.4993 -11.4993 -11.4944 -11.4944
   -11.4817 -11.4817 -11.4660 -11.4660 -11.4541 -11.4541 -11.4275 -11.4275
    -9.3169  -9.3169  -9.2505  -9.2505  -9.2098  -9.2098  -9.1031  -9.1031
    -9.0869  -9.0869  -9.0779  -9.0779  -8.9836  -8.9836  -8.9707  -8.9707
    -8.6320  -8.6319  -8.4285  -8.4285  -8.2871  -8.2867  -8.1933  -8.1927
    -8.1598  -8.1593  -8.1165  -8.1152  -8.0443  -8.0425  -7.9990  -7.9986
    -7.9624  -7.9608  -7.9168  -7.9161  -7.8707  -7.8688  -7.8573  -7.8552
    -7.8185  -7.8172  -7.7951  -7.7926  -7.7389  -7.7388  -7.6772  -7.6761
    -7.6745  -7.6743  -7.6399  -7.6393  -7.6302  -7.6300  -7.5853  -7.5848
    -7.5087  -7.5087  -7.4408  -7.4407  -7.3977  -7.3976  -7.3083  -7.3082
    -6.5986  -6.5986  -6.4732  -6.4731  -6.1878  -6.1878  -6.1339  -6.1339
    -6.1075  -6.1075  -6.0938  -6.0938  -6.0018  -6.0018  -5.9971  -5.9971
    -5.8543  -5.8543  -5.7609  -5.7609  -5.7030  -5.7030  -5.5443  -5.5443
    -5.5338  -5.5338  -5.4663  -5.4663  -5.1700  -5.1700  -5.1320  -5.1320
    -4.2071  -4.2070  -4.1497  -4.1495  -3.8364  -3.8361  -3.7598  -3.7584
    -3.7426  -3.7417  -3.6964  -3.6948  -3.6523  -3.6512  -3.6327  -3.6312
    -3.5108  -3.5102  -3.4945  -3.4937  -3.4391  -3.4387  -3.4238  -3.4237
    -3.3510  -3.3507  -3.2413  -3.2405  -3.1748  -3.1743  -3.1242  -3.1241
    -1.7574  -1.7571  -1.6335  -1.6334  -1.6046  -1.6046  -1.5165  -1.5164
    -1.4572  -1.4572  -1.4282  -1.4281  -1.3937  -1.3929  -1.3722  -1.3714
    -1.3404  -1.3402  -1.2242  -1.2238  -1.2133  -1.2131  -1.1174  -1.1171
    -1.1081  -1.1079  -1.1003  -1.0995  -1.0880  -1.0875  -1.0260  -1.0259
     0.2220   0.2254   0.3481   0.3540   0.4338   0.4378   0.4445   0.4504
     0.4613   0.4655   0.5611   0.5679   0.5890   0.6010   0.6224   0.6399
     0.7786   0.7862   0.8733   0.8806   1.0744   1.0878   1.1198   1.1417
     1.1607   1.1651   1.1703   1.1980   1.2138   1.2398   1.2647   1.2930
     1.3146   1.3322   1.3834   1.4113   1.4733   1.4977   1.5157   1.5464
     1.5566   1.5753   1.6274   1.6465   1.6977   1.7271   1.7608   1.7878
     1.8011   1.8258   1.8437   1.8631   1.8758   1.8877   1.9087   1.9352
     1.9474   1.9799   1.9870   2.0079   2.0252   2.0412   2.0626   2.0897
     2.1182   2.1466   2.1606   2.1778   2.1930   2.2156   2.2444   2.2513
     2.2714   2.3013   2.3080   2.3306   2.3378   2.3506   2.3585   2.3693
     2.3880   2.4005   2.4107   2.4208   2.4359   2.4476   2.4541   2.4859
     2.4899   2.5096   2.5185   2.5363   2.5505   2.5673   2.5965   2.6230
     2.6357   2.6636   2.6926   2.7007   2.7090   2.7239   2.7549   2.7721
     2.7952   2.8058   2.8277   2.8486   2.8672   2.8760   2.9038   2.9092
     2.9163   2.9306   2.9495   2.9595   2.9763   2.9869   2.9984   3.0098
     3.0418   3.0470   3.0611   3.0887   3.0980   3.1105   3.1317   3.1521
     3.1632   3.1737   3.1922   3.1984   3.2380   3.2512   3.2881   3.3008
     3.3183   3.3267   3.3895   3.4059   3.4782   3.5237   3.6342   3.6573
     5.3008   5.3279   5.3380   5.3951   5.7344   5.7763   5.7893   5.8202
     6.2467   6.2644   6.3056   6.3499   6.5505   6.5741   6.5973   6.6366
     6.8931   7.0012   7.0484   7.0587   7.3243   7.3587   7.4118   7.4206
     7.5199   7.5533   7.5874   7.6056   7.6369   7.6695   7.7219   7.7500
     7.7815   7.8014   7.8343   7.8463   7.9885   7.9966   8.1265   8.1354
     8.1972   8.2175   8.3010   8.3330   8.3594   8.3648   8.4108   8.4433
     8.4883   8.5034   8.5378   8.5524   8.6343   8.6740   8.7052   8.7271
     8.7616   8.7818   8.8105   8.8329

          k = 0.2500 0.0000 0.7500 ( 80236 PWs)   bands (ev):

   -41.9204 -41.9204 -41.8161 -41.8161 -41.6491 -41.6491 -41.6121 -41.6121
   -41.5356 -41.5356 -41.5009 -41.5009 -41.4619 -41.4619 -41.4553 -41.4553
   -41.4361 -41.4361 -41.4198 -41.4198 -41.4072 -41.4072 -41.3950 -41.3950
   -41.3924 -41.3924 -41.3920 -41.3920 -41.3550 -41.3550 -41.3315 -41.3315
   -41.3292 -41.3292 -41.3265 -41.3265 -41.3136 -41.3136 -41.3082 -41.3082
   -41.2872 -41.2872 -41.2777 -41.2777 -41.2711 -41.2711 -41.2596 -41.2596
   -41.2399 -41.2399 -41.2365 -41.2365 -41.2292 -41.2292 -41.2226 -41.2226
   -41.2138 -41.2138 -41.1766 -41.1766 -41.1664 -41.1664 -41.1658 -41.1658
   -41.1516 -41.1516 -41.1057 -41.1057 -41.1055 -41.1055 -41.1027 -41.1027
   -41.0982 -41.0982 -41.0673 -41.0673 -41.0551 -41.0551 -41.0447 -41.0447
   -40.9882 -40.9882 -40.9795 -40.9795 -40.9775 -40.9775 -40.9546 -40.9546
   -40.8936 -40.8936 -40.8588 -40.8588 -40.8509 -40.8509 -40.7393 -40.7393
   -40.2217 -40.2217 -40.1726 -40.1726 -40.0847 -40.0847 -39.9513 -39.9513
   -39.9141 -39.9141 -39.8968 -39.8968 -39.8606 -39.8606 -39.8021 -39.8021
   -39.7678 -39.7678 -39.7640 -39.7640 -39.7595 -39.7595 -39.7401 -39.7401
   -39.7205 -39.7205 -39.7112 -39.7112 -39.7081 -39.7081 -39.6974 -39.6974
   -39.6954 -39.6954 -39.6930 -39.6930 -39.6917 -39.6917 -39.6819 -39.6819
   -39.6759 -39.6759 -39.6605 -39.6605 -39.6435 -39.6435 -39.6412 -39.6412
   -39.6359 -39.6359 -39.6270 -39.6270 -39.6235 -39.6235 -39.6045 -39.6045
   -39.5991 -39.5991 -39.5824 -39.5824 -39.5781 -39.5781 -39.5728 -39.5728
   -39.5620 -39.5620 -39.5554 -39.5554 -39.5430 -39.5430 -39.5399 -39.5399
   -39.5358 -39.5358 -39.5318 -39.5318 -39.5245 -39.5245 -39.5174 -39.5174
   -39.5121 -39.5121 -39.5089 -39.5089 -39.4973 -39.4973 -39.4795 -39.4795
   -39.4731 -39.4731 -39.4692 -39.4692 -39.4682 -39.4682 -39.4592 -39.4592
   -39.4392 -39.4392 -39.4240 -39.4240 -39.4205 -39.4205 -39.4105 -39.4105
   -39.4000 -39.4000 -39.3711 -39.3711 -39.3706 -39.3706 -39.3695 -39.3695
   -39.3689 -39.3689 -39.3465 -39.3465 -39.3221 -39.3221 -39.3196 -39.3196
   -39.3091 -39.3091 -39.2774 -39.2774 -39.2560 -39.2560 -39.2556 -39.2556
   -39.2534 -39.2534 -39.2362 -39.2362 -39.2071 -39.2071 -39.1675 -39.1675
   -39.1520 -39.1520 -39.1302 -39.1302 -39.0999 -39.0999 -39.0059 -39.0059
   -16.9525 -16.9525 -16.7214 -16.7214 -16.3804 -16.3804 -16.3469 -16.3469
   -16.3221 -16.3221 -16.2816 -16.2816 -16.2410 -16.2410 -15.8895 -15.8895
   -14.2874 -14.2874 -14.2805 -14.2805 -14.2573 -14.2573 -14.2393 -14.2393
   -14.2330 -14.2330 -14.2212 -14.2212 -14.1849 -14.1849 -14.1643 -14.1643
   -14.1212 -14.1212 -14.1010 -14.1010 -14.0884 -14.0884 -14.0815 -14.0815
   -14.0436 -14.0436 -14.0335 -14.0335 -14.0199 -14.0199 -14.0060 -14.0060
   -11.7571 -11.7570 -11.7332 -11.7331 -11.7230 -11.7230 -11.7000 -11.6999
   -11.6985 -11.6985 -11.6978 -11.6974 -11.6836 -11.6835 -11.6627 -11.6627
   -11.6500 -11.6499 -11.6412 -11.6412 -11.6203 -11.6202 -11.5938 -11.5938
   -11.5889 -11.5889 -11.5691 -11.5689 -11.5549 -11.5547 -11.5510 -11.5510
   -11.5235 -11.5235 -11.5093 -11.5093 -11.4993 -11.4993 -11.4943 -11.4943
   -11.4817 -11.4816 -11.4659 -11.4659 -11.4541 -11.4541 -11.4275 -11.4275
    -9.3172  -9.3172  -9.2505  -9.2505  -9.2095  -9.2095  -9.1029  -9.1028
    -9.0868  -9.0868  -9.0780  -9.0780  -8.9839  -8.9839  -8.9706  -8.9706
    -8.6336  -8.6335  -8.4291  -8.4290  -8.2937  -8.2934  -8.2007  -8.1997
    -8.1427  -8.1416  -8.1094  -8.1081  -8.0249  -8.0221  -8.0024  -8.0018
    -7.9584  -7.9572  -7.9214  -7.9197  -7.8880  -7.8854  -7.8566  -7.8545
    -7.8215  -7.8206  -7.7937  -7.7924  -7.7394  -7.7377  -7.6883  -7.6872
    -7.6727  -7.6710  -7.6429  -7.6414  -7.6322  -7.6317  -7.5894  -7.5883
    -7.5082  -7.5079  -7.4380  -7.4377  -7.3958  -7.3956  -7.3041  -7.3039
    -6.5985  -6.5985  -6.4730  -6.4729  -6.1878  -6.1878  -6.1340  -6.1340
    -6.1076  -6.1076  -6.0936  -6.0935  -6.0039  -6.0038  -5.9953  -5.9952
    -5.8548  -5.8548  -5.7613  -5.7613  -5.7028  -5.7028  -5.5443  -5.5443
    -5.5338  -5.5338  -5.4663  -5.4663  -5.1700  -5.1699  -5.1317  -5.1317
    -4.3450  -4.3446  -4.0391  -4.0384  -3.8814  -3.8805  -3.8267  -3.8252
    -3.8009  -3.8002  -3.6647  -3.6645  -3.5661  -3.5644  -3.5456  -3.5445
    -3.5113  -3.5105  -3.4791  -3.4777  -3.4381  -3.4379  -3.4092  -3.4091
    -3.3668  -3.3656  -3.3055  -3.3047  -3.1761  -3.1755  -2.9791  -2.9783
    -1.7574  -1.7571  -1.6349  -1.6347  -1.6039  -1.6037  -1.5169  -1.5167
    -1.4577  -1.4573  -1.4276  -1.4271  -1.3939  -1.3932  -1.3719  -1.3709
    -1.3417  -1.3415  -1.2249  -1.2243  -1.2131  -1.2128  -1.1195  -1.1184
    -1.1107  -1.1106  -1.1010  -1.0997  -1.0878  -1.0873  -1.0231  -1.0226
     0.2149   0.2183   0.3388   0.3540   0.3843   0.3968   0.4371   0.4492
     0.4629   0.4729   0.4928   0.5095   0.5532   0.5668   0.5858   0.5910
     0.6118   0.6201   0.6552   0.6613   0.7207   0.7272   0.8181   0.8271
     1.1394   1.1600   1.2365   1.2612   1.2877   1.2963   1.3102   1.3385
     1.4435   1.4712   1.4995   1.5214   1.5433   1.5767   1.5874   1.6027
     1.6429   1.6707   1.6990   1.7197   1.7378   1.7621   1.7998   1.8165
     1.8320   1.8473   1.8654   1.9088   1.9177   1.9316   1.9513   1.9768
     2.0055   2.0133   2.0331   2.0471   2.0680   2.0919   2.1079   2.1176
     2.1365   2.1593   2.1861   2.1910   2.2103   2.2370   2.2546   2.2762
     2.2912   2.3080   2.3366   2.3452   2.3598   2.3739   2.3785   2.3894
     2.4054   2.4142   2.4340   2.4409   2.4553   2.4661   2.4786   2.5003
     2.5077   2.5236   2.5447   2.5526   2.5707   2.5834   2.6211   2.6334
     2.6518   2.6627   2.6811   2.6938   2.7197   2.7265   2.7342   2.7674
     2.7827   2.8044   2.8252   2.8446   2.8509   2.8746   2.8855   2.9012
     2.9139   2.9335   2.9404   2.9612   2.9800   2.9846   2.9940   3.0348
     3.0448   3.0577   3.0688   3.0908   3.1237   3.1334   3.1481   3.1707
     3.1830   3.2093   3.2264   3.2399   3.2777   3.2841   3.3075   3.3237
     3.3734   3.4172   3.4419   3.4663   3.5320   3.5543   3.7312   3.7391
     5.0662   5.1142   5.4265   5.4624   5.5254   5.5443   5.8106   5.8587
     6.0007   6.0188   6.2642   6.3249   6.3759   6.4278   6.4778   6.5222
     6.6163   6.6602   6.6863   6.7292   6.7793   6.7996   6.9875   7.0049
     7.3934   7.3971   7.6808   7.7079   7.8549   7.8694   7.9372   7.9466
     8.0240   8.0444   8.0581   8.0880   8.1570   8.1788   8.2751   8.2984
     8.3068   8.3711   8.3888   8.4165   8.4417   8.4624   8.5120   8.5273
     8.5567   8.5823   8.6054   8.6392   8.6626   8.6844   8.7146   8.7359
     8.7922   8.8282   8.8481   8.8813

          k = 0.2500 0.2485 0.0000 ( 80251 PWs)   bands (ev):

   -41.9204 -41.9204 -41.8161 -41.8161 -41.6491 -41.6491 -41.6121 -41.6121
   -41.5356 -41.5356 -41.5009 -41.5009 -41.4619 -41.4619 -41.4553 -41.4553
   -41.4361 -41.4361 -41.4198 -41.4198 -41.4072 -41.4072 -41.3950 -41.3950
   -41.3924 -41.3924 -41.3920 -41.3920 -41.3550 -41.3550 -41.3315 -41.3315
   -41.3292 -41.3292 -41.3265 -41.3265 -41.3136 -41.3136 -41.3082 -41.3082
   -41.2872 -41.2872 -41.2777 -41.2777 -41.2711 -41.2711 -41.2596 -41.2596
   -41.2399 -41.2399 -41.2365 -41.2365 -41.2292 -41.2292 -41.2226 -41.2226
   -41.2138 -41.2138 -41.1766 -41.1766 -41.1664 -41.1664 -41.1659 -41.1659
   -41.1516 -41.1516 -41.1057 -41.1057 -41.1055 -41.1055 -41.1027 -41.1027
   -41.0982 -41.0982 -41.0673 -41.0673 -41.0551 -41.0551 -41.0447 -41.0447
   -40.9882 -40.9882 -40.9795 -40.9795 -40.9775 -40.9775 -40.9546 -40.9546
   -40.8936 -40.8936 -40.8588 -40.8588 -40.8509 -40.8509 -40.7393 -40.7393
   -40.2217 -40.2217 -40.1726 -40.1726 -40.0847 -40.0847 -39.9513 -39.9513
   -39.9141 -39.9141 -39.8968 -39.8968 -39.8606 -39.8606 -39.8021 -39.8021
   -39.7678 -39.7678 -39.7641 -39.7641 -39.7595 -39.7595 -39.7401 -39.7401
   -39.7206 -39.7206 -39.7112 -39.7112 -39.7081 -39.7081 -39.6974 -39.6974
   -39.6954 -39.6954 -39.6930 -39.6930 -39.6917 -39.6917 -39.6819 -39.6819
   -39.6759 -39.6759 -39.6605 -39.6605 -39.6435 -39.6435 -39.6412 -39.6412
   -39.6359 -39.6359 -39.6270 -39.6270 -39.6235 -39.6235 -39.6045 -39.6045
   -39.5991 -39.5991 -39.5824 -39.5824 -39.5781 -39.5781 -39.5728 -39.5728
   -39.5620 -39.5620 -39.5554 -39.5554 -39.5430 -39.5430 -39.5399 -39.5399
   -39.5358 -39.5358 -39.5318 -39.5318 -39.5245 -39.5245 -39.5174 -39.5174
   -39.5121 -39.5121 -39.5089 -39.5089 -39.4973 -39.4973 -39.4795 -39.4795
   -39.4731 -39.4731 -39.4692 -39.4692 -39.4682 -39.4682 -39.4592 -39.4592
   -39.4392 -39.4392 -39.4240 -39.4240 -39.4205 -39.4205 -39.4105 -39.4105
   -39.4000 -39.4000 -39.3711 -39.3711 -39.3706 -39.3706 -39.3695 -39.3695
   -39.3689 -39.3689 -39.3465 -39.3465 -39.3221 -39.3221 -39.3196 -39.3196
   -39.3091 -39.3091 -39.2774 -39.2774 -39.2560 -39.2560 -39.2556 -39.2556
   -39.2534 -39.2534 -39.2362 -39.2362 -39.2071 -39.2071 -39.1675 -39.1675
   -39.1520 -39.1520 -39.1302 -39.1302 -39.0999 -39.0999 -39.0059 -39.0059
   -16.9525 -16.9525 -16.7214 -16.7214 -16.3804 -16.3804 -16.3469 -16.3469
   -16.3221 -16.3221 -16.2816 -16.2816 -16.2410 -16.2410 -15.8895 -15.8895
   -14.2874 -14.2874 -14.2805 -14.2805 -14.2573 -14.2573 -14.2393 -14.2393
   -14.2331 -14.2331 -14.2212 -14.2212 -14.1849 -14.1849 -14.1643 -14.1643
   -14.1212 -14.1212 -14.1010 -14.1010 -14.0884 -14.0884 -14.0815 -14.0815
   -14.0436 -14.0436 -14.0335 -14.0335 -14.0199 -14.0199 -14.0060 -14.0060
   -11.7571 -11.7571 -11.7335 -11.7334 -11.7226 -11.7224 -11.7001 -11.7000
   -11.6986 -11.6986 -11.6974 -11.6974 -11.6837 -11.6836 -11.6627 -11.6627
   -11.6499 -11.6498 -11.6412 -11.6412 -11.6202 -11.6200 -11.5942 -11.5940
   -11.5891 -11.5889 -11.5693 -11.5691 -11.5548 -11.5546 -11.5511 -11.5510
   -11.5235 -11.5235 -11.5092 -11.5092 -11.4993 -11.4993 -11.4938 -11.4935
   -11.4820 -11.4818 -11.4662 -11.4661 -11.4541 -11.4541 -11.4275 -11.4275
    -9.3174  -9.3174  -9.2505  -9.2505  -9.2091  -9.2091  -9.1020  -9.1020
    -9.0871  -9.0871  -9.0786  -9.0786  -8.9831  -8.9830  -8.9719  -8.9719
    -8.6328  -8.6327  -8.4230  -8.4228  -8.3141  -8.3137  -8.2024  -8.2020
    -8.1330  -8.1320  -8.0937  -8.0922  -8.0285  -8.0272  -7.9776  -7.9750
    -7.9656  -7.9624  -7.9476  -7.9464  -7.9011  -7.8982  -7.8390  -7.8379
    -7.8179  -7.8147  -7.8038  -7.8029  -7.7335  -7.7319  -7.6907  -7.6888
    -7.6734  -7.6724  -7.6500  -7.6494  -7.6269  -7.6259  -7.5825  -7.5812
    -7.5144  -7.5138  -7.4350  -7.4349  -7.3965  -7.3963  -7.3059  -7.3056
    -6.5984  -6.5984  -6.4728  -6.4728  -6.1873  -6.1873  -6.1341  -6.1341
    -6.1059  -6.1058  -6.0947  -6.0947  -6.0053  -6.0053  -5.9939  -5.9939
    -5.8554  -5.8554  -5.7618  -5.7618  -5.7029  -5.7028  -5.5443  -5.5443
    -5.5340  -5.5340  -5.4662  -5.4662  -5.1699  -5.1699  -5.1315  -5.1315
    -4.3556  -4.3553  -3.9925  -3.9914  -3.9543  -3.9535  -3.8370  -3.8358
    -3.7804  -3.7786  -3.6644  -3.6643  -3.5735  -3.5716  -3.5259  -3.5247
    -3.5009  -3.5002  -3.4506  -3.4502  -3.4316  -3.4308  -3.4180  -3.4172
    -3.3653  -3.3645  -3.3417  -3.3414  -3.1691  -3.1689  -2.9589  -2.9578
    -1.7566  -1.7562  -1.6348  -1.6346  -1.6037  -1.6034  -1.5177  -1.5174
    -1.4575  -1.4573  -1.4266  -1.4264  -1.3941  -1.3934  -1.3713  -1.3706
    -1.3426  -1.3424  -1.2250  -1.2246  -1.2130  -1.2127  -1.1222  -1.1218
    -1.1155  -1.1146  -1.0998  -1.0993  -1.0896  -1.0890  -1.0172  -1.0170
     0.2420   0.2515   0.3429   0.3513   0.3696   0.3816   0.3923   0.4008
     0.4361   0.4435   0.4863   0.4982   0.5147   0.5308   0.5530   0.5616
     0.6273   0.6317   0.6500   0.6554   0.7770   0.7964   0.8204   0.8269
     1.1421   1.1880   1.2316   1.2586   1.2848   1.3006   1.3197   1.3393
     1.4129   1.4757   1.5223   1.5315   1.5464   1.5674   1.5757   1.6186
     1.6378   1.6668   1.6825   1.7016   1.7359   1.7681   1.7984   1.8105
     1.8356   1.8581   1.8763   1.9030   1.9225   1.9543   1.9651   1.9917
     2.0022   2.0262   2.0483   2.0604   2.0689   2.0973   2.1087   2.1193
     2.1338   2.1472   2.1687   2.1929   2.2074   2.2325   2.2456   2.2729
     2.2863   2.3047   2.3160   2.3273   2.3483   2.3616   2.3697   2.3903
     2.3957   2.4191   2.4225   2.4346   2.4456   2.4751   2.4867   2.4977
     2.5107   2.5404   2.5513   2.5604   2.5805   2.5939   2.6064   2.6307
     2.6509   2.6588   2.6721   2.6959   2.7297   2.7460   2.7505   2.7592
     2.7838   2.7991   2.8249   2.8415   2.8506   2.8623   2.8717   2.8927
     2.9154   2.9261   2.9481   2.9566   2.9818   3.0023   3.0131   3.0257
     3.0535   3.0652   3.0812   3.1031   3.1282   3.1407   3.1503   3.1760
     3.1999   3.2220   3.2262   3.2478   3.2726   3.2770   3.3066   3.3488
     3.3768   3.4176   3.4424   3.4901   3.5373   3.5897   3.7450   3.8065
     5.0118   5.1401   5.3944   5.4640   5.5235   5.5784   5.7929   5.8419
     5.9789   6.0257   6.2424   6.3247   6.3641   6.4061   6.4746   6.5262
     6.5835   6.6206   6.6870   6.7228   6.7660   6.7988   6.9576   7.0076
     7.3549   7.3625   7.6383   7.6581   7.8393   7.8645   7.9340   7.9544
     8.0018   8.0225   8.0976   8.1160   8.1875   8.2306   8.2711   8.2909
     8.3330   8.3616   8.3781   8.4009   8.4349   8.4431   8.4942   8.5187
     8.5366   8.5679   8.5909   8.6032   8.6491   8.6792   8.7073   8.7502
     8.7959   8.8295   8.8806   8.9189

          k = 0.2500 0.2485 0.2500 ( 80235 PWs)   bands (ev):

   -41.9204 -41.9204 -41.8161 -41.8161 -41.6491 -41.6491 -41.6121 -41.6121
   -41.5356 -41.5356 -41.5009 -41.5009 -41.4619 -41.4619 -41.4553 -41.4553
   -41.4361 -41.4361 -41.4198 -41.4198 -41.4072 -41.4072 -41.3950 -41.3950
   -41.3924 -41.3924 -41.3920 -41.3920 -41.3550 -41.3550 -41.3315 -41.3315
   -41.3292 -41.3292 -41.3265 -41.3265 -41.3136 -41.3136 -41.3082 -41.3082
   -41.2872 -41.2872 -41.2777 -41.2777 -41.2711 -41.2711 -41.2596 -41.2596
   -41.2399 -41.2399 -41.2365 -41.2365 -41.2292 -41.2292 -41.2226 -41.2226
   -41.2138 -41.2138 -41.1766 -41.1766 -41.1664 -41.1664 -41.1658 -41.1658
   -41.1516 -41.1516 -41.1057 -41.1057 -41.1055 -41.1055 -41.1027 -41.1027
   -41.0982 -41.0982 -41.0673 -41.0673 -41.0551 -41.0551 -41.0447 -41.0447
   -40.9882 -40.9882 -40.9795 -40.9795 -40.9775 -40.9775 -40.9546 -40.9546
   -40.8936 -40.8936 -40.8588 -40.8588 -40.8509 -40.8509 -40.7393 -40.7393
   -40.2217 -40.2217 -40.1726 -40.1726 -40.0847 -40.0847 -39.9513 -39.9513
   -39.9141 -39.9141 -39.8968 -39.8968 -39.8606 -39.8606 -39.8021 -39.8021
   -39.7678 -39.7678 -39.7640 -39.7640 -39.7595 -39.7595 -39.7401 -39.7401
   -39.7205 -39.7205 -39.7112 -39.7112 -39.7081 -39.7081 -39.6974 -39.6974
   -39.6954 -39.6954 -39.6930 -39.6930 -39.6917 -39.6917 -39.6819 -39.6819
   -39.6759 -39.6759 -39.6605 -39.6605 -39.6435 -39.6435 -39.6412 -39.6412
   -39.6359 -39.6359 -39.6270 -39.6270 -39.6235 -39.6235 -39.6045 -39.6045
   -39.5991 -39.5991 -39.5824 -39.5824 -39.5782 -39.5782 -39.5728 -39.5728
   -39.5620 -39.5620 -39.5554 -39.5554 -39.5430 -39.5430 -39.5399 -39.5399
   -39.5358 -39.5358 -39.5318 -39.5318 -39.5245 -39.5245 -39.5174 -39.5174
   -39.5121 -39.5121 -39.5089 -39.5089 -39.4973 -39.4973 -39.4795 -39.4795
   -39.4731 -39.4731 -39.4692 -39.4692 -39.4682 -39.4682 -39.4592 -39.4592
   -39.4392 -39.4392 -39.4240 -39.4240 -39.4205 -39.4205 -39.4105 -39.4105
   -39.4000 -39.4000 -39.3711 -39.3711 -39.3706 -39.3706 -39.3695 -39.3695
   -39.3689 -39.3689 -39.3465 -39.3465 -39.3221 -39.3221 -39.3196 -39.3196
   -39.3091 -39.3091 -39.2774 -39.2774 -39.2560 -39.2560 -39.2556 -39.2556
   -39.2534 -39.2534 -39.2362 -39.2362 -39.2071 -39.2071 -39.1675 -39.1675
   -39.1520 -39.1520 -39.1302 -39.1302 -39.0999 -39.0999 -39.0059 -39.0059
   -16.9525 -16.9525 -16.7214 -16.7214 -16.3804 -16.3804 -16.3469 -16.3469
   -16.3221 -16.3221 -16.2816 -16.2816 -16.2410 -16.2410 -15.8895 -15.8895
   -14.2874 -14.2874 -14.2805 -14.2805 -14.2573 -14.2572 -14.2393 -14.2393
   -14.2331 -14.2331 -14.2212 -14.2212 -14.1849 -14.1849 -14.1643 -14.1643
   -14.1212 -14.1212 -14.1010 -14.1010 -14.0884 -14.0884 -14.0815 -14.0815
   -14.0436 -14.0436 -14.0335 -14.0335 -14.0200 -14.0199 -14.0060 -14.0060
   -11.7571 -11.7570 -11.7331 -11.7331 -11.7226 -11.7224 -11.7003 -11.7001
   -11.6986 -11.6985 -11.6978 -11.6975 -11.6838 -11.6837 -11.6627 -11.6627
   -11.6499 -11.6498 -11.6412 -11.6412 -11.6200 -11.6199 -11.5942 -11.5940
   -11.5890 -11.5889 -11.5691 -11.5689 -11.5549 -11.5547 -11.5511 -11.5511
   -11.5235 -11.5235 -11.5093 -11.5093 -11.4993 -11.4993 -11.4938 -11.4935
   -11.4820 -11.4819 -11.4663 -11.4662 -11.4541 -11.4540 -11.4275 -11.4275
    -9.3171  -9.3171  -9.2505  -9.2505  -9.2094  -9.2094  -9.1023  -9.1023
    -9.0871  -9.0871  -9.0785  -9.0785  -8.9829  -8.9829  -8.9718  -8.9718
    -8.6316  -8.6314  -8.4213  -8.4212  -8.3099  -8.3093  -8.1957  -8.1949
    -8.1490  -8.1476  -8.0993  -8.0976  -8.0500  -8.0484  -7.9875  -7.9866
    -7.9675  -7.9650  -7.9195  -7.9185  -7.8946  -7.8916  -7.8420  -7.8410
    -7.8159  -7.8133  -7.8031  -7.8023  -7.7313  -7.7299  -7.6898  -7.6880
    -7.6700  -7.6680  -7.6377  -7.6354  -7.6261  -7.6239  -7.5876  -7.5869
    -7.5153  -7.5142  -7.4375  -7.4372  -7.3980  -7.3978  -7.3089  -7.3087
    -6.5984  -6.5984  -6.4730  -6.4730  -6.1873  -6.1873  -6.1341  -6.1340
    -6.1057  -6.1056  -6.0950  -6.0950  -6.0041  -6.0039  -5.9950  -5.9948
    -5.8549  -5.8549  -5.7614  -5.7614  -5.7030  -5.7029  -5.5443  -5.5443
    -5.5338  -5.5338  -5.4662  -5.4662  -5.1700  -5.1700  -5.1317  -5.1317
    -4.2940  -4.2935  -3.9771  -3.9764  -3.9078  -3.9072  -3.8459  -3.8450
    -3.8015  -3.7998  -3.6646  -3.6644  -3.5827  -3.5816  -3.5168  -3.5141
    -3.5051  -3.5047  -3.4773  -3.4761  -3.4498  -3.4477  -3.4366  -3.4360
    -3.4029  -3.4019  -3.3463  -3.3460  -3.1738  -3.1733  -3.0444  -3.0431
    -1.7565  -1.7561  -1.6340  -1.6339  -1.6036  -1.6034  -1.5173  -1.5172
    -1.4574  -1.4570  -1.4276  -1.4269  -1.3941  -1.3932  -1.3715  -1.3709
    -1.3411  -1.3410  -1.2240  -1.2234  -1.2137  -1.2134  -1.1193  -1.1184
    -1.1130  -1.1126  -1.1000  -1.0990  -1.0895  -1.0894  -1.0200  -1.0196
     0.3084   0.3234   0.3653   0.3730   0.4249   0.4403   0.4688   0.4845
     0.5116   0.5176   0.5702   0.5865   0.6110   0.6166   0.6386   0.6484
     0.6790   0.6848   0.7000   0.7095   0.8100   0.8172   0.8682   0.8915
     1.1367   1.1808   1.2327   1.2576   1.2724   1.2878   1.3086   1.3470
     1.4121   1.4344   1.4830   1.4985   1.5220   1.5384   1.5458   1.5902
     1.6024   1.6175   1.6573   1.6697   1.7136   1.7381   1.7825   1.8052
     1.8260   1.8467   1.8658   1.8824   1.9081   1.9314   1.9393   1.9676
     1.9832   2.0033   2.0167   2.0222   2.0465   2.0663   2.0840   2.0972
     2.1248   2.1527   2.1670   2.1789   2.1875   2.2156   2.2274   2.2390
     2.2585   2.2785   2.3001   2.3121   2.3263   2.3325   2.3496   2.3572
     2.3708   2.3871   2.3961   2.4061   2.4319   2.4459   2.4552   2.4760
     2.4840   2.5073   2.5155   2.5431   2.5654   2.5731   2.5964   2.6111
     2.6409   2.6546   2.6735   2.7040   2.7178   2.7304   2.7506   2.7718
     2.7943   2.8110   2.8213   2.8339   2.8452   2.8623   2.8741   2.8995
     2.9189   2.9292   2.9480   2.9634   2.9740   2.9940   2.9965   3.0055
     3.0287   3.0415   3.0560   3.0756   3.1025   3.1319   3.1423   3.1516
     3.1696   3.1761   3.1987   3.2197   3.2294   3.2604   3.2715   3.2923
     3.3364   3.3552   3.3661   3.4037   3.4350   3.4648   3.5578   3.5780
     5.3026   5.4029   5.6822   5.7464   5.7847   5.8387   5.8644   5.9153
     6.2593   6.2834   6.3483   6.3919   6.4300   6.4957   6.5579   6.6344
     6.6447   6.7509   6.8448   6.8629   6.9083   6.9584   6.9856   7.0431
     7.3864   7.4143   7.5802   7.5869   7.8384   7.8639   7.9180   7.9501
     8.0073   8.0451   8.0643   8.0946   8.1248   8.1506   8.1817   8.1952
     8.2642   8.2940   8.3112   8.3337   8.3762   8.4064   8.4241   8.4554
     8.4849   8.5103   8.5399   8.5601   8.5751   8.6036   8.6575   8.6899
     8.7140   8.7524   8.8039   8.8200

          k = 0.2500 0.2485 0.5000 ( 80230 PWs)   bands (ev):

   -41.9204 -41.9204 -41.8161 -41.8161 -41.6491 -41.6491 -41.6121 -41.6121
   -41.5356 -41.5356 -41.5009 -41.5009 -41.4619 -41.4619 -41.4553 -41.4553
   -41.4361 -41.4361 -41.4198 -41.4198 -41.4072 -41.4072 -41.3950 -41.3950
   -41.3924 -41.3924 -41.3920 -41.3920 -41.3550 -41.3550 -41.3315 -41.3315
   -41.3292 -41.3292 -41.3265 -41.3265 -41.3136 -41.3136 -41.3082 -41.3082
   -41.2872 -41.2872 -41.2777 -41.2777 -41.2711 -41.2711 -41.2596 -41.2596
   -41.2399 -41.2399 -41.2365 -41.2365 -41.2292 -41.2292 -41.2226 -41.2226
   -41.2138 -41.2138 -41.1766 -41.1766 -41.1664 -41.1664 -41.1658 -41.1658
   -41.1516 -41.1516 -41.1057 -41.1057 -41.1055 -41.1055 -41.1027 -41.1027
   -41.0981 -41.0981 -41.0673 -41.0673 -41.0551 -41.0551 -41.0447 -41.0447
   -40.9882 -40.9882 -40.9795 -40.9795 -40.9775 -40.9775 -40.9546 -40.9546
   -40.8936 -40.8936 -40.8588 -40.8588 -40.8509 -40.8509 -40.7393 -40.7393
   -40.2217 -40.2217 -40.1726 -40.1726 -40.0847 -40.0847 -39.9513 -39.9513
   -39.9141 -39.9141 -39.8968 -39.8968 -39.8606 -39.8606 -39.8021 -39.8021
   -39.7678 -39.7678 -39.7640 -39.7640 -39.7595 -39.7595 -39.7401 -39.7401
   -39.7205 -39.7205 -39.7112 -39.7112 -39.7081 -39.7081 -39.6974 -39.6974
   -39.6954 -39.6954 -39.6930 -39.6930 -39.6917 -39.6917 -39.6819 -39.6819
   -39.6759 -39.6759 -39.6605 -39.6605 -39.6435 -39.6435 -39.6412 -39.6412
   -39.6359 -39.6359 -39.6270 -39.6270 -39.6235 -39.6235 -39.6045 -39.6045
   -39.5991 -39.5991 -39.5824 -39.5824 -39.5782 -39.5782 -39.5728 -39.5728
   -39.5620 -39.5620 -39.5554 -39.5554 -39.5430 -39.5430 -39.5399 -39.5399
   -39.5358 -39.5358 -39.5318 -39.5318 -39.5245 -39.5245 -39.5174 -39.5174
   -39.5121 -39.5121 -39.5089 -39.5089 -39.4973 -39.4973 -39.4795 -39.4795
   -39.4731 -39.4731 -39.4692 -39.4692 -39.4682 -39.4682 -39.4592 -39.4592
   -39.4392 -39.4392 -39.4240 -39.4240 -39.4205 -39.4205 -39.4105 -39.4105
   -39.4000 -39.4000 -39.3711 -39.3711 -39.3706 -39.3706 -39.3695 -39.3695
   -39.3689 -39.3689 -39.3465 -39.3465 -39.3221 -39.3221 -39.3196 -39.3196
   -39.3091 -39.3091 -39.2774 -39.2774 -39.2560 -39.2560 -39.2556 -39.2556
   -39.2534 -39.2534 -39.2362 -39.2362 -39.2071 -39.2071 -39.1674 -39.1674
   -39.1520 -39.1520 -39.1302 -39.1302 -39.0999 -39.0999 -39.0059 -39.0059
   -16.9525 -16.9525 -16.7214 -16.7214 -16.3804 -16.3804 -16.3469 -16.3469
   -16.3221 -16.3221 -16.2815 -16.2815 -16.2410 -16.2410 -15.8895 -15.8895
   -14.2874 -14.2874 -14.2805 -14.2805 -14.2573 -14.2572 -14.2393 -14.2393
   -14.2331 -14.2331 -14.2212 -14.2212 -14.1849 -14.1849 -14.1643 -14.1643
   -14.1212 -14.1212 -14.1010 -14.1010 -14.0884 -14.0884 -14.0815 -14.0815
   -14.0436 -14.0436 -14.0335 -14.0335 -14.0200 -14.0200 -14.0060 -14.0060
   -11.7570 -11.7570 -11.7328 -11.7328 -11.7226 -11.7224 -11.7004 -11.7002
   -11.6985 -11.6985 -11.6979 -11.6979 -11.6838 -11.6837 -11.6627 -11.6627
   -11.6499 -11.6498 -11.6412 -11.6412 -11.6199 -11.6197 -11.5942 -11.5940
   -11.5890 -11.5889 -11.5690 -11.5688 -11.5549 -11.5547 -11.5511 -11.5511
   -11.5235 -11.5235 -11.5094 -11.5094 -11.4993 -11.4993 -11.4939 -11.4936
   -11.4821 -11.4819 -11.4665 -11.4663 -11.4541 -11.4540 -11.4275 -11.4275
    -9.3169  -9.3169  -9.2505  -9.2505  -9.2098  -9.2098  -9.1024  -9.1024
    -9.0870  -9.0870  -9.0785  -9.0785  -8.9826  -8.9825  -8.9718  -8.9718
    -8.6308  -8.6308  -8.4215  -8.4214  -8.3002  -8.2998  -8.1899  -8.1893
    -8.1676  -8.1672  -8.1091  -8.1076  -8.0507  -8.0488  -7.9989  -7.9985
    -7.9709  -7.9694  -7.9182  -7.9168  -7.8731  -7.8715  -7.8403  -7.8381
    -7.8163  -7.8136  -7.7992  -7.7983  -7.7417  -7.7409  -7.6850  -7.6834
    -7.6657  -7.6642  -7.6331  -7.6311  -7.6218  -7.6203  -7.5829  -7.5818
    -7.5179  -7.5168  -7.4411  -7.4409  -7.3989  -7.3987  -7.3119  -7.3117
    -6.5985  -6.5985  -6.4731  -6.4731  -6.1874  -6.1873  -6.1339  -6.1339
    -6.1057  -6.1057  -6.0950  -6.0949  -6.0018  -6.0018  -5.9970  -5.9970
    -5.8544  -5.8544  -5.7610  -5.7610  -5.7030  -5.7030  -5.5442  -5.5442
    -5.5339  -5.5339  -5.4662  -5.4662  -5.1701  -5.1701  -5.1319  -5.1319
    -4.1562  -4.1556  -4.1009  -4.1004  -3.8425  -3.8421  -3.7690  -3.7678
    -3.7504  -3.7482  -3.6935  -3.6917  -3.6620  -3.6613  -3.6392  -3.6371
    -3.5135  -3.5131  -3.4978  -3.4975  -3.4418  -3.4413  -3.4261  -3.4254
    -3.3548  -3.3539  -3.2953  -3.2950  -3.2355  -3.2344  -3.1497  -3.1493
    -1.7565  -1.7562  -1.6332  -1.6332  -1.6037  -1.6037  -1.5172  -1.5170
    -1.4571  -1.4570  -1.4279  -1.4277  -1.3939  -1.3930  -1.3715  -1.3707
    -1.3400  -1.3398  -1.2231  -1.2227  -1.2142  -1.2139  -1.1171  -1.1167
    -1.1085  -1.1077  -1.1006  -1.1000  -1.0881  -1.0876  -1.0254  -1.0254
     0.3463   0.3730   0.3939   0.4043   0.4520   0.4694   0.4768   0.4883
     0.5763   0.5777   0.5926   0.6057   0.6930   0.7068   0.7431   0.7479
     0.7886   0.8061   0.8863   0.9051   1.0735   1.0811   1.1277   1.1329
     1.1377   1.1595   1.1864   1.2053   1.2218   1.2522   1.2592   1.2807
     1.3025   1.3236   1.3763   1.3841   1.4338   1.4772   1.5173   1.5316
     1.5511   1.5766   1.5856   1.6209   1.6786   1.7082   1.7269   1.7724
     1.7848   1.8133   1.8199   1.8408   1.8715   1.8763   1.8975   1.9287
     1.9405   1.9613   1.9788   1.9956   2.0192   2.0358   2.0593   2.0694
     2.1045   2.1272   2.1396   2.1502   2.1784   2.1936   2.2116   2.2164
     2.2353   2.2612   2.2749   2.2928   2.3080   2.3209   2.3362   2.3511
     2.3555   2.3678   2.3822   2.3901   2.4003   2.4055   2.4346   2.4423
     2.4564   2.4782   2.4858   2.5154   2.5354   2.5519   2.5788   2.6011
     2.6378   2.6585   2.6783   2.6885   2.7197   2.7402   2.7610   2.7643
     2.7861   2.8014   2.8304   2.8415   2.8533   2.8720   2.8810   2.9073
     2.9119   2.9258   2.9380   2.9445   2.9599   2.9723   2.9871   3.0078
     3.0229   3.0392   3.0434   3.0826   3.0866   3.1091   3.1189   3.1421
     3.1527   3.1650   3.1762   3.1827   3.1938   3.2207   3.2490   3.2607
     3.2668   3.3019   3.3420   3.3710   3.3871   3.4022   3.4561   3.4986
     5.5923   5.6244   5.6599   5.7063   6.0163   6.0837   6.0957   6.1442
     6.2472   6.2727   6.3243   6.3904   6.7125   6.7396   6.7787   6.7893
     6.8993   6.9892   7.0321   7.0912   7.3090   7.3245   7.3607   7.4361
     7.5343   7.5585   7.5918   7.6317   7.6459   7.7003   7.7290   7.7635
     7.7879   7.8056   7.8330   7.8557   7.9840   7.9986   8.0548   8.1015
     8.1388   8.1597   8.2004   8.2232   8.2728   8.2987   8.3459   8.3863
     8.4081   8.4366   8.4643   8.5050   8.5380   8.5819   8.6224   8.6408
     8.6622   8.7085   8.7394   8.7717

          k = 0.2500 0.2485 0.7500 ( 80235 PWs)   bands (ev):

   -41.9204 -41.9204 -41.8161 -41.8161 -41.6491 -41.6491 -41.6121 -41.6121
   -41.5356 -41.5356 -41.5009 -41.5009 -41.4619 -41.4619 -41.4553 -41.4553
   -41.4361 -41.4361 -41.4198 -41.4198 -41.4072 -41.4072 -41.3950 -41.3950
   -41.3924 -41.3924 -41.3920 -41.3920 -41.3550 -41.3550 -41.3315 -41.3315
   -41.3292 -41.3292 -41.3265 -41.3265 -41.3136 -41.3136 -41.3082 -41.3082
   -41.2872 -41.2872 -41.2777 -41.2777 -41.2711 -41.2711 -41.2596 -41.2596
   -41.2399 -41.2399 -41.2365 -41.2365 -41.2292 -41.2292 -41.2226 -41.2226
   -41.2138 -41.2138 -41.1766 -41.1766 -41.1664 -41.1664 -41.1658 -41.1658
   -41.1516 -41.1516 -41.1057 -41.1057 -41.1055 -41.1055 -41.1027 -41.1027
   -41.0982 -41.0982 -41.0673 -41.0673 -41.0551 -41.0551 -41.0447 -41.0447
   -40.9882 -40.9882 -40.9795 -40.9795 -40.9775 -40.9775 -40.9546 -40.9546
   -40.8936 -40.8936 -40.8588 -40.8588 -40.8509 -40.8509 -40.7393 -40.7393
   -40.2217 -40.2217 -40.1726 -40.1726 -40.0847 -40.0847 -39.9513 -39.9513
   -39.9141 -39.9141 -39.8968 -39.8968 -39.8606 -39.8606 -39.8021 -39.8021
   -39.7678 -39.7678 -39.7640 -39.7640 -39.7595 -39.7595 -39.7401 -39.7401
   -39.7205 -39.7205 -39.7112 -39.7112 -39.7081 -39.7081 -39.6974 -39.6974
   -39.6954 -39.6954 -39.6930 -39.6930 -39.6917 -39.6917 -39.6819 -39.6819
   -39.6759 -39.6759 -39.6605 -39.6605 -39.6435 -39.6435 -39.6412 -39.6412
   -39.6359 -39.6359 -39.6270 -39.6270 -39.6235 -39.6235 -39.6045 -39.6045
   -39.5991 -39.5991 -39.5824 -39.5824 -39.5781 -39.5781 -39.5728 -39.5728
   -39.5620 -39.5620 -39.5554 -39.5554 -39.5430 -39.5430 -39.5399 -39.5399
   -39.5358 -39.5358 -39.5318 -39.5318 -39.5245 -39.5245 -39.5174 -39.5174
   -39.5121 -39.5121 -39.5089 -39.5089 -39.4973 -39.4973 -39.4795 -39.4795
   -39.4731 -39.4731 -39.4692 -39.4692 -39.4682 -39.4682 -39.4592 -39.4592
   -39.4392 -39.4392 -39.4240 -39.4240 -39.4205 -39.4205 -39.4105 -39.4105
   -39.4000 -39.4000 -39.3711 -39.3711 -39.3706 -39.3706 -39.3695 -39.3695
   -39.3689 -39.3689 -39.3465 -39.3465 -39.3221 -39.3221 -39.3196 -39.3196
   -39.3091 -39.3091 -39.2774 -39.2774 -39.2560 -39.2560 -39.2556 -39.2556
   -39.2534 -39.2534 -39.2362 -39.2362 -39.2071 -39.2071 -39.1675 -39.1675
   -39.1520 -39.1520 -39.1302 -39.1302 -39.0999 -39.0999 -39.0059 -39.0059
   -16.9525 -16.9525 -16.7214 -16.7214 -16.3804 -16.3804 -16.3469 -16.3469
   -16.3221 -16.3221 -16.2815 -16.2815 -16.2410 -16.2410 -15.8895 -15.8895
   -14.2874 -14.2874 -14.2805 -14.2805 -14.2573 -14.2573 -14.2393 -14.2393
   -14.2331 -14.2331 -14.2212 -14.2212 -14.1849 -14.1849 -14.1643 -14.1643
   -14.1212 -14.1212 -14.1010 -14.1010 -14.0884 -14.0884 -14.0815 -14.0815
   -14.0436 -14.0436 -14.0335 -14.0335 -14.0200 -14.0199 -14.0060 -14.0060
   -11.7571 -11.7570 -11.7331 -11.7331 -11.7226 -11.7224 -11.7003 -11.7001
   -11.6986 -11.6985 -11.6978 -11.6975 -11.6838 -11.6837 -11.6627 -11.6627
   -11.6499 -11.6498 -11.6412 -11.6412 -11.6200 -11.6199 -11.5942 -11.5940
   -11.5891 -11.5889 -11.5691 -11.5689 -11.5549 -11.5547 -11.5511 -11.5511
   -11.5235 -11.5235 -11.5093 -11.5093 -11.4993 -11.4993 -11.4939 -11.4935
   -11.4820 -11.4819 -11.4664 -11.4662 -11.4541 -11.4541 -11.4275 -11.4275
    -9.3172  -9.3172  -9.2505  -9.2505  -9.2095  -9.2095  -9.1021  -9.1021
    -9.0870  -9.0870  -9.0786  -9.0786  -8.9827  -8.9826  -8.9719  -8.9719
    -8.6321  -8.6320  -8.4231  -8.4230  -8.3057  -8.3054  -8.2004  -8.1990
    -8.1467  -8.1455  -8.1030  -8.1016  -8.0340  -8.0324  -7.9996  -7.9984
    -7.9672  -7.9662  -7.9215  -7.9200  -7.8937  -7.8906  -7.8372  -7.8356
    -7.8149  -7.8128  -7.8020  -7.8017  -7.7401  -7.7387  -7.6892  -7.6881
    -7.6739  -7.6717  -7.6379  -7.6364  -7.6237  -7.6224  -7.5802  -7.5784
    -7.5170  -7.5165  -7.4384  -7.4381  -7.3974  -7.3972  -7.3089  -7.3085
    -6.5984  -6.5984  -6.4729  -6.4729  -6.1873  -6.1873  -6.1340  -6.1340
    -6.1059  -6.1059  -6.0947  -6.0947  -6.0038  -6.0036  -5.9954  -5.9952
    -5.8549  -5.8549  -5.7614  -5.7614  -5.7030  -5.7029  -5.5442  -5.5442
    -5.5340  -5.5339  -5.4662  -5.4662  -5.1700  -5.1700  -5.1317  -5.1317
    -4.2897  -4.2894  -3.9965  -3.9950  -3.9090  -3.9081  -3.8219  -3.8211
    -3.7987  -3.7969  -3.6664  -3.6662  -3.6021  -3.6005  -3.5291  -3.5268
    -3.5212  -3.5203  -3.4783  -3.4763  -3.4447  -3.4439  -3.4113  -3.4107
    -3.3927  -3.3902  -3.3338  -3.3336  -3.1758  -3.1754  -3.0567  -3.0562
    -1.7566  -1.7563  -1.6340  -1.6338  -1.6037  -1.6036  -1.5176  -1.5172
    -1.4576  -1.4570  -1.4273  -1.4268  -1.3939  -1.3932  -1.3713  -1.3704
    -1.3413  -1.3411  -1.2242  -1.2236  -1.2136  -1.2132  -1.1180  -1.1174
    -1.1134  -1.1125  -1.1005  -1.0994  -1.0880  -1.0876  -1.0225  -1.0221
     0.3336   0.3586   0.3854   0.4067   0.4252   0.4381   0.4633   0.4692
     0.4926   0.5091   0.5369   0.5537   0.5913   0.6035   0.6368   0.6410
     0.6814   0.6868   0.7274   0.7362   0.7867   0.7983   0.8702   0.8880
     1.1343   1.1896   1.2221   1.2523   1.2750   1.2950   1.3120   1.3288
     1.4032   1.4490   1.4628   1.5135   1.5373   1.5494   1.5584   1.5907
     1.6076   1.6375   1.6671   1.6853   1.7144   1.7430   1.7703   1.8091
     1.8141   1.8376   1.8562   1.8852   1.9020   1.9130   1.9438   1.9559
     1.9772   1.9958   2.0251   2.0441   2.0565   2.0697   2.0876   2.0988
     2.1185   2.1343   2.1626   2.1676   2.1962   2.2240   2.2272   2.2428
     2.2603   2.2828   2.2944   2.3117   2.3236   2.3325   2.3545   2.3699
     2.3826   2.3879   2.3939   2.4105   2.4175   2.4372   2.4578   2.4828
     2.4887   2.5035   2.5247   2.5374   2.5531   2.5725   2.5898   2.6090
     2.6408   2.6485   2.6670   2.6992   2.7179   2.7368   2.7647   2.7825
     2.7883   2.8079   2.8203   2.8305   2.8472   2.8501   2.8797   2.8948
     2.9143   2.9233   2.9453   2.9494   2.9614   2.9839   3.0020   3.0215
     3.0531   3.0629   3.0807   3.0977   3.1098   3.1268   3.1335   3.1539
     3.1666   3.1894   3.2099   3.2170   3.2317   3.2408   3.2677   3.2731
     3.3252   3.3512   3.3735   3.3989   3.4336   3.4610   3.5248   3.5977
     5.3176   5.3990   5.6895   5.7076   5.8051   5.8465   5.8766   5.9101
     6.2566   6.2965   6.3520   6.3987   6.4301   6.4896   6.5691   6.6017
     6.6731   6.7245   6.8014   6.8908   6.9131   6.9344   6.9898   7.0301
     7.4419   7.4475   7.5813   7.5941   7.8059   7.8500   7.9158   7.9357
     7.9826   8.0089   8.0297   8.0594   8.1000   8.1630   8.1850   8.2130
     8.2505   8.2928   8.3230   8.3426   8.3574   8.4078   8.4196   8.4431
     8.4668   8.5025   8.5386   8.5931   8.5997   8.6457   8.6583   8.7112
     8.7435   8.7762   8.7947   8.8422

          k = 0.2500 0.4969 0.0000 ( 80262 PWs)   bands (ev):

   -41.9204 -41.9204 -41.8161 -41.8161 -41.6491 -41.6491 -41.6121 -41.6121
   -41.5356 -41.5356 -41.5009 -41.5009 -41.4619 -41.4619 -41.4553 -41.4553
   -41.4361 -41.4361 -41.4198 -41.4198 -41.4072 -41.4072 -41.3950 -41.3950
   -41.3924 -41.3924 -41.3920 -41.3920 -41.3550 -41.3550 -41.3315 -41.3315
   -41.3292 -41.3292 -41.3265 -41.3265 -41.3136 -41.3136 -41.3082 -41.3082
   -41.2872 -41.2872 -41.2777 -41.2777 -41.2711 -41.2711 -41.2596 -41.2596
   -41.2399 -41.2399 -41.2365 -41.2365 -41.2292 -41.2292 -41.2226 -41.2226
   -41.2138 -41.2138 -41.1766 -41.1766 -41.1664 -41.1664 -41.1658 -41.1658
   -41.1516 -41.1516 -41.1057 -41.1057 -41.1055 -41.1055 -41.1027 -41.1027
   -41.0982 -41.0982 -41.0673 -41.0673 -41.0551 -41.0551 -41.0447 -41.0447
   -40.9882 -40.9882 -40.9795 -40.9795 -40.9775 -40.9775 -40.9546 -40.9546
   -40.8936 -40.8936 -40.8588 -40.8588 -40.8509 -40.8509 -40.7393 -40.7393
   -40.2217 -40.2217 -40.1726 -40.1726 -40.0847 -40.0847 -39.9513 -39.9513
   -39.9141 -39.9141 -39.8968 -39.8968 -39.8606 -39.8606 -39.8021 -39.8021
   -39.7678 -39.7678 -39.7640 -39.7640 -39.7595 -39.7595 -39.7401 -39.7401
   -39.7206 -39.7206 -39.7112 -39.7112 -39.7081 -39.7081 -39.6974 -39.6974
   -39.6954 -39.6954 -39.6930 -39.6930 -39.6917 -39.6917 -39.6819 -39.6819
   -39.6759 -39.6759 -39.6605 -39.6605 -39.6435 -39.6435 -39.6412 -39.6412
   -39.6359 -39.6359 -39.6270 -39.6270 -39.6235 -39.6235 -39.6045 -39.6045
   -39.5991 -39.5991 -39.5824 -39.5824 -39.5782 -39.5782 -39.5728 -39.5728
   -39.5620 -39.5620 -39.5554 -39.5554 -39.5430 -39.5430 -39.5399 -39.5399
   -39.5358 -39.5358 -39.5318 -39.5318 -39.5245 -39.5245 -39.5174 -39.5174
   -39.5121 -39.5121 -39.5089 -39.5089 -39.4973 -39.4973 -39.4795 -39.4795
   -39.4731 -39.4731 -39.4692 -39.4692 -39.4682 -39.4682 -39.4592 -39.4592
   -39.4392 -39.4392 -39.4240 -39.4240 -39.4205 -39.4205 -39.4105 -39.4105
   -39.4000 -39.4000 -39.3711 -39.3711 -39.3706 -39.3706 -39.3695 -39.3695
   -39.3689 -39.3689 -39.3465 -39.3465 -39.3221 -39.3221 -39.3196 -39.3196
   -39.3091 -39.3091 -39.2774 -39.2774 -39.2560 -39.2560 -39.2556 -39.2556
   -39.2534 -39.2534 -39.2362 -39.2362 -39.2071 -39.2071 -39.1675 -39.1675
   -39.1520 -39.1520 -39.1302 -39.1302 -39.0999 -39.0999 -39.0059 -39.0059
   -16.9525 -16.9525 -16.7214 -16.7214 -16.3804 -16.3804 -16.3469 -16.3469
   -16.3221 -16.3221 -16.2816 -16.2816 -16.2410 -16.2410 -15.8895 -15.8895
   -14.2874 -14.2874 -14.2805 -14.2805 -14.2573 -14.2573 -14.2393 -14.2393
   -14.2331 -14.2331 -14.2212 -14.2212 -14.1849 -14.1849 -14.1643 -14.1643
   -14.1212 -14.1212 -14.1010 -14.1010 -14.0884 -14.0884 -14.0815 -14.0815
   -14.0436 -14.0436 -14.0335 -14.0335 -14.0200 -14.0200 -14.0060 -14.0060
   -11.7571 -11.7571 -11.7334 -11.7334 -11.7220 -11.7220 -11.7003 -11.7003
   -11.6987 -11.6987 -11.6975 -11.6975 -11.6838 -11.6838 -11.6627 -11.6627
   -11.6498 -11.6498 -11.6412 -11.6412 -11.6198 -11.6198 -11.5945 -11.5944
   -11.5890 -11.5890 -11.5693 -11.5691 -11.5549 -11.5546 -11.5511 -11.5511
   -11.5235 -11.5235 -11.5092 -11.5092 -11.4993 -11.4993 -11.4929 -11.4929
   -11.4822 -11.4822 -11.4665 -11.4665 -11.4541 -11.4541 -11.4275 -11.4275
    -9.3174  -9.3174  -9.2505  -9.2505  -9.2091  -9.2091  -9.1011  -9.1011
    -9.0875  -9.0875  -9.0791  -9.0791  -8.9814  -8.9813  -8.9736  -8.9736
    -8.6312  -8.6311  -8.4157  -8.4155  -8.3283  -8.3279  -8.1942  -8.1934
    -8.1413  -8.1403  -8.0890  -8.0879  -8.0455  -8.0443  -7.9762  -7.9735
    -7.9648  -7.9622  -7.9468  -7.9462  -7.8988  -7.8983  -7.8413  -7.8399
    -7.8115  -7.8104  -7.7917  -7.7910  -7.7354  -7.7337  -7.6973  -7.6969
    -7.6720  -7.6713  -7.6511  -7.6507  -7.6202  -7.6201  -7.5557  -7.5554
    -7.5301  -7.5300  -7.4354  -7.4352  -7.3984  -7.3983  -7.3121  -7.3121
    -6.5983  -6.5983  -6.4727  -6.4727  -6.1868  -6.1868  -6.1341  -6.1341
    -6.1031  -6.1031  -6.0970  -6.0970  -6.0052  -6.0052  -5.9938  -5.9938
    -5.8555  -5.8555  -5.7619  -5.7619  -5.7030  -5.7030  -5.5443  -5.5443
    -5.5340  -5.5340  -5.4662  -5.4662  -5.1699  -5.1699  -5.1315  -5.1315
    -4.2611  -4.2609  -4.0809  -4.0806  -3.9056  -3.9054  -3.8275  -3.8271
    -3.7008  -3.6998  -3.6715  -3.6709  -3.6540  -3.6536  -3.5746  -3.5733
    -3.5073  -3.5065  -3.4798  -3.4794  -3.4356  -3.4354  -3.4195  -3.4189
    -3.3586  -3.3578  -3.3071  -3.3065  -3.1476  -3.1474  -3.0749  -3.0745
    -1.7558  -1.7554  -1.6332  -1.6331  -1.6040  -1.6039  -1.5182  -1.5180
    -1.4572  -1.4571  -1.4259  -1.4258  -1.3939  -1.3934  -1.3712  -1.3706
    -1.3426  -1.3425  -1.2245  -1.2241  -1.2131  -1.2130  -1.1216  -1.1211
    -1.1163  -1.1162  -1.0995  -1.0991  -1.0900  -1.0895  -1.0169  -1.0168
     0.2607   0.2743   0.3444   0.3553   0.3913   0.3961   0.4343   0.4501
     0.4760   0.4874   0.4942   0.5007   0.5463   0.5590   0.5790   0.5904
     0.6999   0.7224   0.9341   0.9433   1.0228   1.0369   1.0765   1.0801
     1.1327   1.1478   1.2245   1.2453   1.2730   1.2908   1.2993   1.3177
     1.3233   1.3521   1.3924   1.4162   1.4563   1.4739   1.5318   1.5484
     1.5989   1.6184   1.6352   1.6381   1.6595   1.6846   1.7782   1.7906
     1.8127   1.8343   1.8622   1.8783   1.8886   1.9073   1.9240   1.9524
     1.9755   1.9843   2.0004   2.0217   2.0376   2.0515   2.0785   2.0905
     2.1108   2.1213   2.1385   2.1728   2.1905   2.2089   2.2225   2.2429
     2.2641   2.2791   2.2939   2.3040   2.3214   2.3312   2.3487   2.3544
     2.3787   2.4001   2.4098   2.4271   2.4366   2.4551   2.4696   2.4822
     2.4983   2.5136   2.5250   2.5478   2.5642   2.5826   2.5949   2.6134
     2.6430   2.6657   2.6775   2.7059   2.7144   2.7351   2.7580   2.7591
     2.7976   2.8074   2.8292   2.8433   2.8486   2.8649   2.8841   2.8944
     2.9112   2.9264   2.9568   2.9722   2.9955   3.0063   3.0137   3.0260
     3.0516   3.0642   3.0874   3.1104   3.1182   3.1358   3.1555   3.1720
     3.1787   3.1856   3.1969   3.2054   3.2193   3.2394   3.2951   3.3104
     3.3362   3.3529   3.3803   3.4012   3.5231   3.5848   3.6698   3.6934
     5.1932   5.3384   5.4064   5.4480   5.6485   5.7048   5.8426   5.8572
     6.1702   6.2498   6.3346   6.3945   6.4752   6.5690   6.6182   6.6637
     6.9648   6.9938   7.0273   7.0558   7.1351   7.1880   7.2989   7.3304
     7.4059   7.4347   7.4659   7.5034   7.5930   7.5990   7.6660   7.6788
     7.7982   7.8202   7.8974   7.9208   8.0834   8.0928   8.1488   8.1591
     8.1910   8.2083   8.3024   8.3159   8.3854   8.4060   8.4198   8.4635
     8.4906   8.5141   8.5600   8.5925   8.6201   8.6534   8.6843   8.7283
     8.7820   8.7924   8.8060   8.8419

          k = 0.2500 0.4969 0.2500 ( 80272 PWs)   bands (ev):

   -41.9204 -41.9204 -41.8161 -41.8161 -41.6491 -41.6491 -41.6121 -41.6121
   -41.5356 -41.5356 -41.5009 -41.5009 -41.4619 -41.4619 -41.4553 -41.4553
   -41.4361 -41.4361 -41.4198 -41.4198 -41.4072 -41.4072 -41.3950 -41.3950
   -41.3924 -41.3924 -41.3920 -41.3920 -41.3550 -41.3550 -41.3315 -41.3315
   -41.3292 -41.3292 -41.3265 -41.3265 -41.3136 -41.3136 -41.3082 -41.3082
   -41.2872 -41.2872 -41.2777 -41.2777 -41.2711 -41.2711 -41.2597 -41.2597
   -41.2399 -41.2399 -41.2365 -41.2365 -41.2292 -41.2292 -41.2226 -41.2226
   -41.2138 -41.2138 -41.1766 -41.1766 -41.1664 -41.1664 -41.1658 -41.1658
   -41.1516 -41.1516 -41.1057 -41.1057 -41.1055 -41.1055 -41.1028 -41.1028
   -41.0982 -41.0982 -41.0673 -41.0673 -41.0551 -41.0551 -41.0447 -41.0447
   -40.9882 -40.9882 -40.9795 -40.9795 -40.9775 -40.9775 -40.9546 -40.9546
   -40.8936 -40.8936 -40.8588 -40.8588 -40.8509 -40.8509 -40.7394 -40.7394
   -40.2217 -40.2217 -40.1726 -40.1726 -40.0847 -40.0847 -39.9513 -39.9513
   -39.9141 -39.9141 -39.8968 -39.8968 -39.8606 -39.8606 -39.8021 -39.8021
   -39.7678 -39.7678 -39.7640 -39.7640 -39.7595 -39.7595 -39.7401 -39.7401
   -39.7206 -39.7206 -39.7112 -39.7112 -39.7081 -39.7081 -39.6974 -39.6974
   -39.6954 -39.6954 -39.6930 -39.6930 -39.6917 -39.6917 -39.6819 -39.6819
   -39.6759 -39.6759 -39.6605 -39.6605 -39.6435 -39.6435 -39.6412 -39.6412
   -39.6359 -39.6359 -39.6270 -39.6270 -39.6235 -39.6235 -39.6045 -39.6045
   -39.5991 -39.5991 -39.5824 -39.5824 -39.5782 -39.5782 -39.5728 -39.5728
   -39.5620 -39.5620 -39.5554 -39.5554 -39.5430 -39.5430 -39.5399 -39.5399
   -39.5358 -39.5358 -39.5318 -39.5318 -39.5245 -39.5245 -39.5174 -39.5174
   -39.5121 -39.5121 -39.5089 -39.5089 -39.4973 -39.4973 -39.4795 -39.4795
   -39.4731 -39.4731 -39.4692 -39.4692 -39.4682 -39.4682 -39.4593 -39.4593
   -39.4392 -39.4392 -39.4240 -39.4240 -39.4205 -39.4205 -39.4105 -39.4105
   -39.4000 -39.4000 -39.3711 -39.3711 -39.3706 -39.3706 -39.3695 -39.3695
   -39.3689 -39.3689 -39.3465 -39.3465 -39.3221 -39.3221 -39.3196 -39.3196
   -39.3091 -39.3091 -39.2774 -39.2774 -39.2560 -39.2560 -39.2556 -39.2556
   -39.2534 -39.2534 -39.2362 -39.2362 -39.2071 -39.2071 -39.1675 -39.1675
   -39.1520 -39.1520 -39.1302 -39.1302 -39.0999 -39.0999 -39.0059 -39.0059
   -16.9525 -16.9525 -16.7214 -16.7214 -16.3804 -16.3804 -16.3469 -16.3469
   -16.3221 -16.3221 -16.2816 -16.2816 -16.2410 -16.2410 -15.8895 -15.8895
   -14.2874 -14.2874 -14.2805 -14.2805 -14.2572 -14.2572 -14.2393 -14.2393
   -14.2331 -14.2331 -14.2212 -14.2212 -14.1849 -14.1849 -14.1643 -14.1643
   -14.1212 -14.1212 -14.1010 -14.1010 -14.0884 -14.0884 -14.0815 -14.0815
   -14.0436 -14.0436 -14.0335 -14.0335 -14.0200 -14.0200 -14.0060 -14.0060
   -11.7571 -11.7570 -11.7331 -11.7331 -11.7220 -11.7220 -11.7005 -11.7004
   -11.6986 -11.6986 -11.6978 -11.6976 -11.6839 -11.6839 -11.6627 -11.6627
   -11.6498 -11.6497 -11.6412 -11.6412 -11.6197 -11.6196 -11.5945 -11.5944
   -11.5890 -11.5890 -11.5692 -11.5690 -11.5549 -11.5547 -11.5512 -11.5511
   -11.5235 -11.5235 -11.5093 -11.5093 -11.4993 -11.4993 -11.4930 -11.4930
   -11.4823 -11.4823 -11.4667 -11.4667 -11.4541 -11.4541 -11.4275 -11.4275
    -9.3171  -9.3171  -9.2505  -9.2505  -9.2095  -9.2094  -9.1014  -9.1013
    -9.0875  -9.0875  -9.0790  -9.0790  -8.9813  -8.9813  -8.9734  -8.9734
    -8.6300  -8.6299  -8.4144  -8.4142  -8.3235  -8.3230  -8.1904  -8.1886
    -8.1473  -8.1451  -8.0992  -8.0977  -8.0711  -8.0699  -7.9796  -7.9786
    -7.9706  -7.9683  -7.9193  -7.9183  -7.8941  -7.8916  -7.8406  -7.8391
    -7.8158  -7.8146  -7.7914  -7.7904  -7.7305  -7.7302  -7.6957  -7.6946
    -7.6738  -7.6717  -7.6361  -7.6344  -7.6168  -7.6154  -7.5661  -7.5654
    -7.5298  -7.5295  -7.4375  -7.4371  -7.3999  -7.3998  -7.3137  -7.3135
    -6.5984  -6.5984  -6.4729  -6.4729  -6.1868  -6.1868  -6.1341  -6.1341
    -6.1032  -6.1032  -6.0969  -6.0969  -6.0039  -6.0037  -5.9950  -5.9948
    -5.8550  -5.8550  -5.7615  -5.7615  -5.7031  -5.7031  -5.5443  -5.5443
    -5.5339  -5.5339  -5.4662  -5.4662  -5.1700  -5.1699  -5.1317  -5.1316
    -4.2026  -4.2024  -4.0238  -4.0236  -3.9048  -3.9045  -3.8292  -3.8288
    -3.7213  -3.7195  -3.6723  -3.6712  -3.6552  -3.6542  -3.5745  -3.5736
    -3.5119  -3.5113  -3.4987  -3.4982  -3.4405  -3.4400  -3.4249  -3.4234
    -3.4018  -3.4004  -3.3305  -3.3302  -3.1677  -3.1665  -3.1538  -3.1531
    -1.7557  -1.7554  -1.6332  -1.6331  -1.6033  -1.6033  -1.5180  -1.5179
    -1.4572  -1.4567  -1.4266  -1.4260  -1.3941  -1.3935  -1.3714  -1.3709
    -1.3411  -1.3411  -1.2235  -1.2229  -1.2140  -1.2137  -1.1175  -1.1171
    -1.1159  -1.1153  -1.0994  -1.0985  -1.0896  -1.0894  -1.0196  -1.0192
     0.3498   0.3676   0.4064   0.4139   0.4699   0.4793   0.5105   0.5185
     0.5360   0.5393   0.5836   0.5998   0.6493   0.6565   0.6849   0.7029
     0.7528   0.7667   0.9320   0.9471   1.0257   1.0443   1.0608   1.0717
     1.1486   1.1715   1.2226   1.2327   1.2537   1.2750   1.2835   1.3083
     1.3295   1.3557   1.3780   1.4247   1.4456   1.4724   1.5078   1.5215
     1.5657   1.5783   1.5936   1.6153   1.6277   1.6515   1.7493   1.7726
     1.7934   1.8213   1.8445   1.8607   1.8848   1.8932   1.9076   1.9325
     1.9434   1.9633   1.9828   2.0045   2.0089   2.0339   2.0561   2.0754
     2.0860   2.1143   2.1379   2.1474   2.1824   2.1871   2.2126   2.2305
     2.2415   2.2549   2.2641   2.2854   2.2925   2.3073   2.3309   2.3346
     2.3527   2.3592   2.3744   2.3865   2.4038   2.4217   2.4309   2.4403
     2.4792   2.4905   2.5166   2.5224   2.5434   2.5625   2.5691   2.5914
     2.6309   2.6567   2.6723   2.7041   2.7259   2.7307   2.7573   2.7760
     2.7949   2.8065   2.8232   2.8357   2.8545   2.8720   2.8796   2.9010
     2.9134   2.9213   2.9471   2.9596   2.9712   2.9843   2.9980   3.0160
     3.0303   3.0559   3.0639   3.0714   3.0942   3.1106   3.1291   3.1541
     3.1665   3.1788   3.1868   3.1912   3.2025   3.2116   3.2346   3.2510
     3.2899   3.2996   3.3311   3.3399   3.3772   3.4082   3.4828   3.5106
     5.5025   5.6461   5.7261   5.7806   5.9768   6.0309   6.0961   6.1390
     6.2382   6.3075   6.3765   6.4236   6.6230   6.7577   6.8069   6.8335
     6.9636   6.9946   7.0452   7.0850   7.1484   7.1898   7.3075   7.3526
     7.4007   7.4375   7.4844   7.5019   7.6355   7.6446   7.6800   7.6960
     7.8204   7.8428   7.8701   7.9355   8.0733   8.1085   8.1482   8.1698
     8.1741   8.2029   8.2245   8.2429   8.2846   8.3011   8.3493   8.3693
     8.4091   8.4407   8.4720   8.4898   8.5244   8.5541   8.5728   8.6173
     8.6724   8.6971   8.7460   8.7855

          k = 0.2500 0.4969 0.5000 ( 80232 PWs)   bands (ev):

   -41.9204 -41.9204 -41.8161 -41.8161 -41.6491 -41.6491 -41.6121 -41.6121
   -41.5356 -41.5356 -41.5009 -41.5009 -41.4619 -41.4619 -41.4553 -41.4553
   -41.4361 -41.4361 -41.4198 -41.4198 -41.4072 -41.4072 -41.3950 -41.3950
   -41.3924 -41.3924 -41.3920 -41.3920 -41.3550 -41.3550 -41.3315 -41.3315
   -41.3292 -41.3292 -41.3265 -41.3265 -41.3135 -41.3135 -41.3082 -41.3082
   -41.2872 -41.2872 -41.2777 -41.2777 -41.2711 -41.2711 -41.2596 -41.2596
   -41.2399 -41.2399 -41.2365 -41.2365 -41.2292 -41.2292 -41.2226 -41.2226
   -41.2138 -41.2138 -41.1766 -41.1766 -41.1664 -41.1664 -41.1658 -41.1658
   -41.1516 -41.1516 -41.1057 -41.1057 -41.1055 -41.1055 -41.1027 -41.1027
   -41.0981 -41.0981 -41.0673 -41.0673 -41.0551 -41.0551 -41.0447 -41.0447
   -40.9882 -40.9882 -40.9795 -40.9795 -40.9775 -40.9775 -40.9546 -40.9546
   -40.8936 -40.8936 -40.8588 -40.8588 -40.8509 -40.8509 -40.7393 -40.7393
   -40.2217 -40.2217 -40.1726 -40.1726 -40.0847 -40.0847 -39.9513 -39.9513
   -39.9141 -39.9141 -39.8968 -39.8968 -39.8606 -39.8606 -39.8021 -39.8021
   -39.7678 -39.7678 -39.7640 -39.7640 -39.7595 -39.7595 -39.7401 -39.7401
   -39.7205 -39.7205 -39.7112 -39.7112 -39.7081 -39.7081 -39.6974 -39.6974
   -39.6954 -39.6954 -39.6930 -39.6930 -39.6917 -39.6917 -39.6819 -39.6819
   -39.6759 -39.6759 -39.6605 -39.6605 -39.6435 -39.6435 -39.6412 -39.6412
   -39.6359 -39.6359 -39.6270 -39.6270 -39.6235 -39.6235 -39.6045 -39.6045
   -39.5991 -39.5991 -39.5824 -39.5824 -39.5781 -39.5781 -39.5728 -39.5728
   -39.5619 -39.5619 -39.5554 -39.5554 -39.5430 -39.5430 -39.5399 -39.5399
   -39.5358 -39.5358 -39.5318 -39.5318 -39.5245 -39.5245 -39.5174 -39.5174
   -39.5121 -39.5121 -39.5089 -39.5089 -39.4973 -39.4973 -39.4795 -39.4795
   -39.4731 -39.4731 -39.4692 -39.4692 -39.4682 -39.4682 -39.4592 -39.4592
   -39.4392 -39.4392 -39.4240 -39.4240 -39.4205 -39.4205 -39.4105 -39.4105
   -39.4000 -39.4000 -39.3711 -39.3711 -39.3706 -39.3706 -39.3695 -39.3695
   -39.3689 -39.3689 -39.3465 -39.3465 -39.3221 -39.3221 -39.3196 -39.3196
   -39.3091 -39.3091 -39.2774 -39.2774 -39.2560 -39.2560 -39.2556 -39.2556
   -39.2534 -39.2534 -39.2362 -39.2362 -39.2071 -39.2071 -39.1674 -39.1674
   -39.1520 -39.1520 -39.1302 -39.1302 -39.0999 -39.0999 -39.0059 -39.0059
   -16.9525 -16.9525 -16.7214 -16.7214 -16.3804 -16.3804 -16.3469 -16.3469
   -16.3221 -16.3221 -16.2815 -16.2815 -16.2410 -16.2410 -15.8895 -15.8895
   -14.2874 -14.2874 -14.2805 -14.2805 -14.2572 -14.2572 -14.2393 -14.2393
   -14.2331 -14.2331 -14.2212 -14.2212 -14.1849 -14.1849 -14.1643 -14.1643
   -14.1212 -14.1212 -14.1010 -14.1010 -14.0884 -14.0884 -14.0815 -14.0815
   -14.0436 -14.0436 -14.0335 -14.0335 -14.0199 -14.0199 -14.0060 -14.0060
   -11.7570 -11.7569 -11.7328 -11.7328 -11.7220 -11.7220 -11.7006 -11.7006
   -11.6985 -11.6985 -11.6979 -11.6979 -11.6839 -11.6839 -11.6627 -11.6627
   -11.6498 -11.6497 -11.6412 -11.6412 -11.6195 -11.6195 -11.5945 -11.5944
   -11.5890 -11.5890 -11.5690 -11.5688 -11.5549 -11.5547 -11.5512 -11.5511
   -11.5235 -11.5235 -11.5094 -11.5094 -11.4993 -11.4993 -11.4931 -11.4930
   -11.4823 -11.4823 -11.4668 -11.4668 -11.4541 -11.4541 -11.4275 -11.4275
    -9.3169  -9.3169  -9.2505  -9.2505  -9.2098  -9.2098  -9.1015  -9.1015
    -9.0874  -9.0874  -9.0789  -9.0789  -8.9811  -8.9810  -8.9731  -8.9731
    -8.6297  -8.6296  -8.4135  -8.4133  -8.3147  -8.3143  -8.1862  -8.1859
    -8.1675  -8.1665  -8.1086  -8.1076  -8.0644  -8.0626  -7.9926  -7.9921
    -7.9758  -7.9745  -7.9183  -7.9179  -7.8700  -7.8688  -7.8341  -7.8338
    -7.8153  -7.8141  -7.8006  -7.7996  -7.7354  -7.7346  -7.6966  -7.6959
    -7.6603  -7.6599  -7.6229  -7.6224  -7.6126  -7.6120  -7.5763  -7.5760
    -7.5289  -7.5288  -7.4410  -7.4407  -7.4003  -7.4002  -7.3154  -7.3154
    -6.5984  -6.5984  -6.4730  -6.4730  -6.1869  -6.1869  -6.1340  -6.1340
    -6.1033  -6.1033  -6.0968  -6.0968  -6.0017  -6.0017  -5.9967  -5.9967
    -5.8544  -5.8544  -5.7611  -5.7611  -5.7031  -5.7031  -5.5443  -5.5443
    -5.5339  -5.5338  -5.4663  -5.4663  -5.1701  -5.1701  -5.1318  -5.1318
    -4.0784  -4.0782  -4.0120  -4.0116  -3.9114  -3.9106  -3.8229  -3.8228
    -3.8025  -3.8020  -3.6786  -3.6784  -3.6027  -3.6018  -3.5808  -3.5799
    -3.5267  -3.5259  -3.4922  -3.4913  -3.4546  -3.4539  -3.4466  -3.4462
    -3.3721  -3.3712  -3.3492  -3.3487  -3.3223  -3.3216  -3.1598  -3.1597
    -1.7557  -1.7554  -1.6331  -1.6331  -1.6028  -1.6028  -1.5179  -1.5177
    -1.4570  -1.4569  -1.4269  -1.4268  -1.3938  -1.3932  -1.3715  -1.3708
    -1.3399  -1.3398  -1.2222  -1.2218  -1.2148  -1.2146  -1.1169  -1.1168
    -1.1090  -1.1086  -1.1003  -1.0999  -1.0877  -1.0872  -1.0250  -1.0249
     0.4207   0.4276   0.4453   0.4547   0.4750   0.4812   0.5231   0.5437
     0.5903   0.6163   0.7500   0.7539   0.8297   0.8380   0.8896   0.8952
     0.9665   0.9794   1.0005   1.0051   1.0366   1.0485   1.1069   1.1273
     1.1445   1.1560   1.1619   1.1868   1.2147   1.2320   1.2663   1.2751
     1.3065   1.3257   1.3429   1.3596   1.4107   1.4440   1.4580   1.4837
     1.4954   1.5198   1.5372   1.5528   1.6021   1.6451   1.6688   1.7199
     1.7486   1.7686   1.8035   1.8236   1.8401   1.8621   1.8788   1.8909
     1.9016   1.9229   1.9505   1.9806   1.9924   2.0100   2.0293   2.0541
     2.0690   2.0874   2.1153   2.1440   2.1522   2.1570   2.1934   2.1952
     2.2113   2.2227   2.2407   2.2625   2.2797   2.2878   2.3018   2.3141
     2.3229   2.3312   2.3477   2.3570   2.3710   2.3879   2.4032   2.4160
     2.4321   2.4557   2.4725   2.4929   2.5222   2.5330   2.5572   2.5829
     2.6295   2.6522   2.6760   2.7025   2.7161   2.7341   2.7606   2.7730
     2.7880   2.8048   2.8214   2.8333   2.8435   2.8688   2.8757   2.8976
     2.9162   2.9281   2.9369   2.9402   2.9529   2.9670   2.9806   2.9988
     3.0106   3.0289   3.0474   3.0575   3.0857   3.1009   3.1169   3.1347
     3.1396   3.1533   3.1619   3.1676   3.1881   3.1905   3.2074   3.2183
     3.2503   3.2735   3.3000   3.3130   3.3315   3.3588   3.4072   3.4412
     5.8675   5.9128   5.9408   5.9951   6.0665   6.0887   6.1573   6.1724
     6.4855   6.5679   6.6680   6.7067   6.8142   6.8719   6.9497   6.9930
     7.1274   7.1416   7.1969   7.2438   7.2545   7.3175   7.3858   7.4089
     7.4939   7.5282   7.5536   7.6014   7.6813   7.7098   7.7316   7.7595
     7.7759   7.7917   7.8140   7.8453   7.8752   7.9049   7.9884   8.0085
     8.0479   8.0607   8.1361   8.1413   8.1613   8.1797   8.2238   8.2345
     8.2600   8.2896   8.3402   8.3567   8.4095   8.4352   8.4677   8.4935
     8.6118   8.6455   8.6780   8.7195

          k = 0.2500 0.4969 0.7500 ( 80272 PWs)   bands (ev):

   -41.9204 -41.9204 -41.8161 -41.8161 -41.6491 -41.6491 -41.6121 -41.6121
   -41.5356 -41.5356 -41.5009 -41.5009 -41.4619 -41.4619 -41.4553 -41.4553
   -41.4361 -41.4361 -41.4198 -41.4198 -41.4072 -41.4072 -41.3950 -41.3950
   -41.3924 -41.3924 -41.3920 -41.3920 -41.3550 -41.3550 -41.3315 -41.3315
   -41.3292 -41.3292 -41.3265 -41.3265 -41.3136 -41.3136 -41.3082 -41.3082
   -41.2872 -41.2872 -41.2777 -41.2777 -41.2711 -41.2711 -41.2597 -41.2597
   -41.2399 -41.2399 -41.2365 -41.2365 -41.2292 -41.2292 -41.2226 -41.2226
   -41.2138 -41.2138 -41.1766 -41.1766 -41.1664 -41.1664 -41.1659 -41.1659
   -41.1516 -41.1516 -41.1057 -41.1057 -41.1055 -41.1055 -41.1028 -41.1028
   -41.0982 -41.0982 -41.0673 -41.0673 -41.0551 -41.0551 -41.0447 -41.0447
   -40.9882 -40.9882 -40.9795 -40.9795 -40.9775 -40.9775 -40.9546 -40.9546
   -40.8936 -40.8936 -40.8588 -40.8588 -40.8509 -40.8509 -40.7394 -40.7394
   -40.2217 -40.2217 -40.1726 -40.1726 -40.0847 -40.0847 -39.9513 -39.9513
   -39.9141 -39.9141 -39.8968 -39.8968 -39.8606 -39.8606 -39.8021 -39.8021
   -39.7678 -39.7678 -39.7640 -39.7640 -39.7595 -39.7595 -39.7401 -39.7401
   -39.7206 -39.7206 -39.7112 -39.7112 -39.7081 -39.7081 -39.6974 -39.6974
   -39.6954 -39.6954 -39.6930 -39.6930 -39.6917 -39.6917 -39.6819 -39.6819
   -39.6759 -39.6759 -39.6605 -39.6605 -39.6435 -39.6435 -39.6412 -39.6412
   -39.6359 -39.6359 -39.6270 -39.6270 -39.6235 -39.6235 -39.6045 -39.6045
   -39.5991 -39.5991 -39.5824 -39.5824 -39.5782 -39.5782 -39.5728 -39.5728
   -39.5620 -39.5620 -39.5554 -39.5554 -39.5430 -39.5430 -39.5399 -39.5399
   -39.5358 -39.5358 -39.5318 -39.5318 -39.5245 -39.5245 -39.5174 -39.5174
   -39.5121 -39.5121 -39.5089 -39.5089 -39.4973 -39.4973 -39.4795 -39.4795
   -39.4731 -39.4731 -39.4692 -39.4692 -39.4682 -39.4682 -39.4593 -39.4593
   -39.4392 -39.4392 -39.4240 -39.4240 -39.4205 -39.4205 -39.4105 -39.4105
   -39.4000 -39.4000 -39.3711 -39.3711 -39.3706 -39.3706 -39.3695 -39.3695
   -39.3689 -39.3689 -39.3465 -39.3465 -39.3221 -39.3221 -39.3196 -39.3196
   -39.3091 -39.3091 -39.2774 -39.2774 -39.2560 -39.2560 -39.2556 -39.2556
   -39.2534 -39.2534 -39.2362 -39.2362 -39.2071 -39.2071 -39.1675 -39.1675
   -39.1520 -39.1520 -39.1302 -39.1302 -39.0999 -39.0999 -39.0059 -39.0059
   -16.9525 -16.9525 -16.7214 -16.7214 -16.3804 -16.3804 -16.3469 -16.3469
   -16.3221 -16.3221 -16.2815 -16.2815 -16.2410 -16.2410 -15.8895 -15.8895
   -14.2874 -14.2874 -14.2805 -14.2805 -14.2573 -14.2572 -14.2393 -14.2393
   -14.2331 -14.2331 -14.2212 -14.2212 -14.1849 -14.1849 -14.1643 -14.1643
   -14.1212 -14.1212 -14.1010 -14.1010 -14.0884 -14.0884 -14.0815 -14.0815
   -14.0436 -14.0436 -14.0335 -14.0335 -14.0200 -14.0200 -14.0060 -14.0060
   -11.7571 -11.7570 -11.7331 -11.7331 -11.7220 -11.7220 -11.7005 -11.7004
   -11.6986 -11.6986 -11.6978 -11.6976 -11.6839 -11.6838 -11.6627 -11.6627
   -11.6498 -11.6497 -11.6412 -11.6412 -11.6197 -11.6196 -11.5945 -11.5944
   -11.5890 -11.5890 -11.5692 -11.5690 -11.5549 -11.5547 -11.5512 -11.5511
   -11.5235 -11.5235 -11.5093 -11.5093 -11.4993 -11.4993 -11.4930 -11.4930
   -11.4823 -11.4823 -11.4667 -11.4667 -11.4541 -11.4541 -11.4275 -11.4275
    -9.3172  -9.3172  -9.2505  -9.2505  -9.2095  -9.2095  -9.1012  -9.1012
    -9.0874  -9.0874  -9.0791  -9.0791  -8.9811  -8.9811  -8.9733  -8.9733
    -8.6309  -8.6308  -8.4146  -8.4144  -8.3208  -8.3206  -8.1925  -8.1909
    -8.1567  -8.1552  -8.0980  -8.0973  -8.0457  -8.0440  -7.9952  -7.9939
    -7.9724  -7.9710  -7.9225  -7.9216  -7.8908  -7.8883  -7.8327  -7.8320
    -7.8110  -7.8102  -7.8002  -7.7996  -7.7377  -7.7356  -7.6977  -7.6976
    -7.6709  -7.6687  -7.6339  -7.6320  -7.6170  -7.6152  -7.5640  -7.5633
    -7.5297  -7.5293  -7.4388  -7.4385  -7.3988  -7.3986  -7.3139  -7.3138
    -6.5984  -6.5984  -6.4729  -6.4729  -6.1869  -6.1869  -6.1341  -6.1341
    -6.1032  -6.1032  -6.0969  -6.0969  -6.0038  -6.0036  -5.9951  -5.9950
    -5.8550  -5.8550  -5.7616  -5.7615  -5.7031  -5.7031  -5.5443  -5.5443
    -5.5340  -5.5339  -5.4663  -5.4663  -5.1701  -5.1700  -5.1317  -5.1317
    -4.1990  -4.1987  -4.0217  -4.0212  -3.9182  -3.9176  -3.8247  -3.8244
    -3.7082  -3.7073  -3.6964  -3.6949  -3.6590  -3.6586  -3.5713  -3.5707
    -3.5134  -3.5124  -3.4756  -3.4753  -3.4342  -3.4338  -3.4206  -3.4201
    -3.4036  -3.4025  -3.3369  -3.3367  -3.1769  -3.1756  -3.1530  -3.1522
    -1.7558  -1.7555  -1.6332  -1.6331  -1.6034  -1.6034  -1.5182  -1.5179
    -1.4574  -1.4569  -1.4268  -1.4261  -1.3936  -1.3932  -1.3713  -1.3705
    -1.3413  -1.3411  -1.2234  -1.2226  -1.2140  -1.2139  -1.1183  -1.1171
    -1.1134  -1.1128  -1.1007  -1.0996  -1.0881  -1.0876  -1.0222  -1.0218
     0.3922   0.3983   0.4155   0.4346   0.4615   0.4778   0.4873   0.5039
     0.5218   0.5378   0.5464   0.5622   0.6542   0.6608   0.6965   0.7216
     0.7321   0.7548   0.9443   0.9463   1.0218   1.0383   1.0562   1.0743
     1.1559   1.1731   1.2166   1.2364   1.2470   1.2709   1.2930   1.3165
     1.3248   1.3506   1.3864   1.4060   1.4432   1.4638   1.5075   1.5232
     1.5762   1.5932   1.6028   1.6148   1.6498   1.6752   1.7481   1.7757
     1.7936   1.8185   1.8403   1.8525   1.8771   1.8950   1.9107   1.9317
     1.9517   1.9624   1.9805   2.0007   2.0137   2.0337   2.0492   2.0735
     2.1066   2.1236   2.1325   2.1602   2.1722   2.1909   2.2111   2.2197
     2.2308   2.2499   2.2634   2.2818   2.2941   2.3001   2.3156   2.3471
     2.3522   2.3646   2.3753   2.3922   2.4128   2.4274   2.4382   2.4501
     2.4622   2.4836   2.5088   2.5242   2.5308   2.5548   2.5622   2.5881
     2.6220   2.6613   2.6788   2.6984   2.7189   2.7405   2.7571   2.7750
     2.7935   2.8120   2.8282   2.8343   2.8511   2.8645   2.8744   2.8951
     2.9108   2.9253   2.9432   2.9596   2.9756   3.0006   3.0046   3.0227
     3.0315   3.0453   3.0625   3.0852   3.1043   3.1165   3.1260   3.1431
     3.1682   3.1731   3.1790   3.1881   3.1947   3.2119   3.2328   3.2547
     3.2723   3.3072   3.3263   3.3479   3.3841   3.4107   3.4977   3.5067
     5.5530   5.6322   5.7188   5.7444   5.9639   6.0357   6.0954   6.1474
     6.2389   6.2924   6.3661   6.4503   6.6966   6.7416   6.7945   6.8314
     6.9518   6.9663   7.0364   7.0717   7.1393   7.1867   7.3219   7.3375
     7.4074   7.4480   7.4810   7.5062   7.6655   7.6674   7.7121   7.7303
     7.8001   7.8173   7.8867   7.9267   8.0584   8.0713   8.1018   8.1135
     8.1689   8.1790   8.2108   8.2365   8.2614   8.2905   8.3204   8.3354
     8.3934   8.4409   8.4883   8.5232   8.5441   8.5819   8.5966   8.6484
     8.6757   8.7039   8.7530   8.8120

          k = 0.2500 0.7454 0.0000 ( 80251 PWs)   bands (ev):

   -41.9204 -41.9204 -41.8161 -41.8161 -41.6491 -41.6491 -41.6121 -41.6121
   -41.5356 -41.5356 -41.5009 -41.5009 -41.4619 -41.4619 -41.4553 -41.4553
   -41.4361 -41.4361 -41.4198 -41.4198 -41.4072 -41.4072 -41.3950 -41.3950
   -41.3924 -41.3924 -41.3920 -41.3920 -41.3550 -41.3550 -41.3315 -41.3315
   -41.3292 -41.3292 -41.3265 -41.3265 -41.3136 -41.3136 -41.3082 -41.3082
   -41.2872 -41.2872 -41.2777 -41.2777 -41.2711 -41.2711 -41.2596 -41.2596
   -41.2399 -41.2399 -41.2365 -41.2365 -41.2292 -41.2292 -41.2226 -41.2226
   -41.2138 -41.2138 -41.1766 -41.1766 -41.1664 -41.1664 -41.1659 -41.1659
   -41.1516 -41.1516 -41.1057 -41.1057 -41.1055 -41.1055 -41.1027 -41.1027
   -41.0982 -41.0982 -41.0673 -41.0673 -41.0551 -41.0551 -41.0447 -41.0447
   -40.9882 -40.9882 -40.9795 -40.9795 -40.9775 -40.9775 -40.9546 -40.9546
   -40.8936 -40.8936 -40.8588 -40.8588 -40.8509 -40.8509 -40.7393 -40.7393
   -40.2217 -40.2217 -40.1726 -40.1726 -40.0847 -40.0847 -39.9513 -39.9513
   -39.9141 -39.9141 -39.8968 -39.8968 -39.8606 -39.8606 -39.8021 -39.8021
   -39.7678 -39.7678 -39.7641 -39.7641 -39.7595 -39.7595 -39.7401 -39.7401
   -39.7206 -39.7206 -39.7112 -39.7112 -39.7081 -39.7081 -39.6974 -39.6974
   -39.6954 -39.6954 -39.6930 -39.6930 -39.6917 -39.6917 -39.6819 -39.6819
   -39.6759 -39.6759 -39.6605 -39.6605 -39.6435 -39.6435 -39.6412 -39.6412
   -39.6359 -39.6359 -39.6270 -39.6270 -39.6235 -39.6235 -39.6045 -39.6045
   -39.5991 -39.5991 -39.5824 -39.5824 -39.5781 -39.5781 -39.5728 -39.5728
   -39.5620 -39.5620 -39.5554 -39.5554 -39.5430 -39.5430 -39.5399 -39.5399
   -39.5358 -39.5358 -39.5318 -39.5318 -39.5245 -39.5245 -39.5174 -39.5174
   -39.5121 -39.5121 -39.5089 -39.5089 -39.4973 -39.4973 -39.4795 -39.4795
   -39.4731 -39.4731 -39.4692 -39.4692 -39.4682 -39.4682 -39.4592 -39.4592
   -39.4392 -39.4392 -39.4240 -39.4240 -39.4205 -39.4205 -39.4105 -39.4105
   -39.4000 -39.4000 -39.3711 -39.3711 -39.3706 -39.3706 -39.3695 -39.3695
   -39.3689 -39.3689 -39.3465 -39.3465 -39.3221 -39.3221 -39.3196 -39.3196
   -39.3091 -39.3091 -39.2774 -39.2774 -39.2560 -39.2560 -39.2556 -39.2556
   -39.2534 -39.2534 -39.2362 -39.2362 -39.2071 -39.2071 -39.1675 -39.1675
   -39.1520 -39.1520 -39.1302 -39.1302 -39.0999 -39.0999 -39.0059 -39.0059
   -16.9525 -16.9525 -16.7214 -16.7214 -16.3804 -16.3804 -16.3469 -16.3469
   -16.3221 -16.3221 -16.2815 -16.2815 -16.2410 -16.2410 -15.8895 -15.8895
   -14.2874 -14.2874 -14.2805 -14.2805 -14.2573 -14.2573 -14.2393 -14.2393
   -14.2331 -14.2331 -14.2212 -14.2212 -14.1849 -14.1849 -14.1643 -14.1643
   -14.1212 -14.1212 -14.1010 -14.1010 -14.0884 -14.0884 -14.0815 -14.0815
   -14.0436 -14.0436 -14.0335 -14.0335 -14.0199 -14.0199 -14.0060 -14.0060
   -11.7571 -11.7571 -11.7335 -11.7334 -11.7226 -11.7224 -11.7002 -11.7000
   -11.6986 -11.6986 -11.6974 -11.6974 -11.6837 -11.6836 -11.6627 -11.6627
   -11.6499 -11.6498 -11.6412 -11.6412 -11.6202 -11.6200 -11.5942 -11.5941
   -11.5891 -11.5889 -11.5693 -11.5691 -11.5548 -11.5546 -11.5511 -11.5510
   -11.5235 -11.5235 -11.5092 -11.5092 -11.4993 -11.4993 -11.4938 -11.4935
   -11.4820 -11.4818 -11.4662 -11.4661 -11.4541 -11.4541 -11.4275 -11.4275
    -9.3175  -9.3175  -9.2505  -9.2505  -9.2091  -9.2091  -9.1019  -9.1019
    -9.0873  -9.0873  -9.0785  -9.0785  -8.9829  -8.9829  -8.9720  -8.9720
    -8.6330  -8.6329  -8.4227  -8.4225  -8.3152  -8.3150  -8.1969  -8.1954
    -8.1371  -8.1353  -8.0948  -8.0938  -8.0357  -8.0344  -7.9757  -7.9732
    -7.9589  -7.9574  -7.9471  -7.9459  -7.8978  -7.8953  -7.8486  -7.8461
    -7.8206  -7.8191  -7.7896  -7.7886  -7.7356  -7.7335  -7.6989  -7.6988
    -7.6690  -7.6684  -7.6512  -7.6508  -7.6259  -7.6247  -7.5808  -7.5795
    -7.5151  -7.5145  -7.4352  -7.4351  -7.3961  -7.3960  -7.3059  -7.3056
    -6.5984  -6.5984  -6.4728  -6.4728  -6.1872  -6.1872  -6.1341  -6.1341
    -6.1058  -6.1058  -6.0948  -6.0948  -6.0052  -6.0052  -5.9938  -5.9938
    -5.8554  -5.8554  -5.7618  -5.7618  -5.7029  -5.7028  -5.5444  -5.5444
    -5.5339  -5.5339  -5.4663  -5.4662  -5.1699  -5.1699  -5.1315  -5.1315
    -4.3545  -4.3540  -3.9943  -3.9936  -3.9594  -3.9588  -3.8299  -3.8289
    -3.7810  -3.7793  -3.6629  -3.6628  -3.5745  -3.5727  -3.5255  -3.5248
    -3.5037  -3.5033  -3.4540  -3.4532  -3.4232  -3.4225  -3.4126  -3.4114
    -3.3893  -3.3882  -3.3243  -3.3238  -3.1696  -3.1693  -2.9611  -2.9594
    -1.7566  -1.7563  -1.6349  -1.6345  -1.6036  -1.6033  -1.5176  -1.5174
    -1.4575  -1.4573  -1.4260  -1.4258  -1.3942  -1.3936  -1.3718  -1.3710
    -1.3429  -1.3428  -1.2252  -1.2247  -1.2128  -1.2126  -1.1236  -1.1227
    -1.1138  -1.1132  -1.0996  -1.0993  -1.0897  -1.0891  -1.0173  -1.0171
     0.2395   0.2561   0.3160   0.3336   0.3641   0.3793   0.3956   0.4177
     0.4547   0.4702   0.4899   0.4947   0.5150   0.5243   0.5515   0.5672
     0.6229   0.6260   0.6502   0.6663   0.7769   0.7945   0.8110   0.8305
     1.1512   1.1873   1.2327   1.2648   1.2829   1.3069   1.3167   1.3395
     1.4135   1.4601   1.5125   1.5213   1.5488   1.5708   1.5876   1.5990
     1.6346   1.6608   1.6809   1.7073   1.7370   1.7775   1.7983   1.8127
     1.8338   1.8415   1.8789   1.9171   1.9226   1.9344   1.9750   1.9839
     2.0091   2.0146   2.0350   2.0566   2.0681   2.0841   2.1057   2.1220
     2.1403   2.1626   2.1744   2.1988   2.2038   2.2440   2.2519   2.2650
     2.2897   2.2962   2.3177   2.3276   2.3507   2.3535   2.3776   2.3930
     2.4050   2.4128   2.4355   2.4491   2.4659   2.4740   2.4904   2.5003
     2.5154   2.5359   2.5417   2.5535   2.5635   2.5882   2.6093   2.6223
     2.6374   2.6620   2.6816   2.7044   2.7104   2.7291   2.7451   2.7691
     2.7822   2.8033   2.8285   2.8490   2.8550   2.8666   2.8826   2.8976
     2.9183   2.9264   2.9447   2.9524   2.9928   3.0097   3.0284   3.0389
     3.0512   3.0660   3.0802   3.0891   3.1209   3.1380   3.1640   3.1748
     3.1935   3.2112   3.2148   3.2350   3.2557   3.2874   3.3154   3.3435
     3.3867   3.4117   3.4599   3.4858   3.5407   3.5847   3.7413   3.8104
     4.9980   5.1439   5.4019   5.4625   5.5312   5.5726   5.7522   5.8609
     5.9670   6.0509   6.2196   6.3305   6.3774   6.4080   6.4735   6.5227
     6.5918   6.6056   6.6908   6.7274   6.7675   6.8246   6.9124   7.0459
     7.3667   7.3720   7.6091   7.6810   7.8022   7.8262   7.9385   7.9667
     8.0457   8.0583   8.0669   8.0892   8.2035   8.2401   8.2576   8.2825
     8.3133   8.3618   8.3882   8.4008   8.4240   8.4625   8.4925   8.5230
     8.5380   8.5585   8.5728   8.6020   8.6661   8.6892   8.7111   8.7320
     8.7741   8.8154   8.8774   8.8979

          k = 0.2500 0.7454 0.2500 ( 80235 PWs)   bands (ev):

   -41.9204 -41.9204 -41.8161 -41.8161 -41.6491 -41.6491 -41.6121 -41.6121
   -41.5356 -41.5356 -41.5009 -41.5009 -41.4619 -41.4619 -41.4553 -41.4553
   -41.4361 -41.4361 -41.4198 -41.4198 -41.4072 -41.4072 -41.3950 -41.3950
   -41.3924 -41.3924 -41.3920 -41.3920 -41.3550 -41.3550 -41.3315 -41.3315
   -41.3292 -41.3292 -41.3265 -41.3265 -41.3136 -41.3136 -41.3082 -41.3082
   -41.2872 -41.2872 -41.2777 -41.2777 -41.2711 -41.2711 -41.2596 -41.2596
   -41.2399 -41.2399 -41.2365 -41.2365 -41.2292 -41.2292 -41.2226 -41.2226
   -41.2138 -41.2138 -41.1766 -41.1766 -41.1664 -41.1664 -41.1658 -41.1658
   -41.1516 -41.1516 -41.1057 -41.1057 -41.1055 -41.1055 -41.1027 -41.1027
   -41.0982 -41.0982 -41.0673 -41.0673 -41.0551 -41.0551 -41.0447 -41.0447
   -40.9882 -40.9882 -40.9795 -40.9795 -40.9775 -40.9775 -40.9546 -40.9546
   -40.8936 -40.8936 -40.8588 -40.8588 -40.8509 -40.8509 -40.7393 -40.7393
   -40.2217 -40.2217 -40.1726 -40.1726 -40.0847 -40.0847 -39.9513 -39.9513
   -39.9141 -39.9141 -39.8968 -39.8968 -39.8606 -39.8606 -39.8021 -39.8021
   -39.7678 -39.7678 -39.7640 -39.7640 -39.7595 -39.7595 -39.7401 -39.7401
   -39.7205 -39.7205 -39.7112 -39.7112 -39.7081 -39.7081 -39.6974 -39.6974
   -39.6954 -39.6954 -39.6930 -39.6930 -39.6917 -39.6917 -39.6819 -39.6819
   -39.6759 -39.6759 -39.6605 -39.6605 -39.6435 -39.6435 -39.6412 -39.6412
   -39.6359 -39.6359 -39.6270 -39.6270 -39.6235 -39.6235 -39.6045 -39.6045
   -39.5991 -39.5991 -39.5824 -39.5824 -39.5781 -39.5781 -39.5728 -39.5728
   -39.5620 -39.5620 -39.5554 -39.5554 -39.5430 -39.5430 -39.5399 -39.5399
   -39.5358 -39.5358 -39.5318 -39.5318 -39.5245 -39.5245 -39.5174 -39.5174
   -39.5121 -39.5121 -39.5089 -39.5089 -39.4973 -39.4973 -39.4795 -39.4795
   -39.4731 -39.4731 -39.4692 -39.4692 -39.4682 -39.4682 -39.4592 -39.4592
   -39.4392 -39.4392 -39.4240 -39.4240 -39.4205 -39.4205 -39.4105 -39.4105
   -39.4000 -39.4000 -39.3711 -39.3711 -39.3706 -39.3706 -39.3695 -39.3695
   -39.3689 -39.3689 -39.3465 -39.3465 -39.3221 -39.3221 -39.3196 -39.3196
   -39.3091 -39.3091 -39.2774 -39.2774 -39.2560 -39.2560 -39.2556 -39.2556
   -39.2534 -39.2534 -39.2362 -39.2362 -39.2071 -39.2071 -39.1675 -39.1675
   -39.1520 -39.1520 -39.1302 -39.1302 -39.0999 -39.0999 -39.0059 -39.0059
   -16.9525 -16.9525 -16.7214 -16.7214 -16.3804 -16.3804 -16.3469 -16.3469
   -16.3221 -16.3221 -16.2816 -16.2816 -16.2410 -16.2410 -15.8895 -15.8895
   -14.2874 -14.2874 -14.2805 -14.2805 -14.2573 -14.2573 -14.2393 -14.2393
   -14.2331 -14.2331 -14.2212 -14.2212 -14.1849 -14.1849 -14.1643 -14.1643
   -14.1212 -14.1212 -14.1010 -14.1010 -14.0884 -14.0884 -14.0815 -14.0815
   -14.0436 -14.0436 -14.0335 -14.0335 -14.0200 -14.0199 -14.0060 -14.0060
   -11.7571 -11.7570 -11.7331 -11.7331 -11.7226 -11.7224 -11.7003 -11.7001
   -11.6986 -11.6985 -11.6978 -11.6975 -11.6837 -11.6837 -11.6627 -11.6627
   -11.6499 -11.6498 -11.6412 -11.6412 -11.6200 -11.6199 -11.5942 -11.5940
   -11.5891 -11.5889 -11.5691 -11.5689 -11.5549 -11.5547 -11.5511 -11.5511
   -11.5235 -11.5235 -11.5093 -11.5093 -11.4993 -11.4993 -11.4939 -11.4935
   -11.4820 -11.4819 -11.4664 -11.4662 -11.4541 -11.4541 -11.4275 -11.4275
    -9.3171  -9.3171  -9.2505  -9.2505  -9.2095  -9.2095  -9.1021  -9.1021
    -9.0873  -9.0873  -9.0784  -9.0784  -8.9827  -8.9826  -8.9720  -8.9720
    -8.6314  -8.6313  -8.4226  -8.4224  -8.3092  -8.3088  -8.1949  -8.1930
    -8.1387  -8.1371  -8.1061  -8.1051  -8.0647  -8.0628  -7.9767  -7.9763
    -7.9663  -7.9639  -7.9194  -7.9175  -7.8929  -7.8895  -7.8502  -7.8467
    -7.8194  -7.8180  -7.7907  -7.7891  -7.7358  -7.7351  -7.6878  -7.6866
    -7.6749  -7.6725  -7.6407  -7.6393  -7.6234  -7.6212  -7.5835  -7.5816
    -7.5168  -7.5164  -7.4376  -7.4373  -7.3979  -7.3978  -7.3086  -7.3082
    -6.5985  -6.5984  -6.4729  -6.4729  -6.1873  -6.1873  -6.1340  -6.1340
    -6.1059  -6.1058  -6.0948  -6.0948  -6.0038  -6.0036  -5.9952  -5.9950
    -5.8549  -5.8549  -5.7614  -5.7614  -5.7030  -5.7030  -5.5444  -5.5444
    -5.5339  -5.5339  -5.4662  -5.4662  -5.1699  -5.1699  -5.1317  -5.1317
    -4.2921  -4.2916  -3.9730  -3.9720  -3.9287  -3.9278  -3.8336  -3.8320
    -3.7984  -3.7966  -3.6639  -3.6637  -3.5911  -3.5896  -3.5297  -3.5290
    -3.4887  -3.4871  -3.4728  -3.4717  -3.4555  -3.4545  -3.4333  -3.4328
    -3.4064  -3.4054  -3.3352  -3.3347  -3.1724  -3.1721  -3.0520  -3.0509
    -1.7565  -1.7562  -1.6341  -1.6339  -1.6035  -1.6034  -1.5173  -1.5171
    -1.4575  -1.4568  -1.4266  -1.4261  -1.3942  -1.3935  -1.3721  -1.3714
    -1.3415  -1.3414  -1.2245  -1.2240  -1.2132  -1.2129  -1.1199  -1.1192
    -1.1137  -1.1127  -1.0991  -1.0980  -1.0894  -1.0892  -1.0198  -1.0195
     0.3251   0.3412   0.3581   0.3819   0.3939   0.3956   0.4787   0.5073
     0.5203   0.5320   0.5623   0.5803   0.6025   0.6059   0.6502   0.6568
     0.6913   0.6978   0.7212   0.7345   0.7798   0.7897   0.8604   0.8820
     1.1467   1.1883   1.2216   1.2564   1.2721   1.2963   1.3163   1.3369
     1.4110   1.4332   1.4764   1.5039   1.5205   1.5383   1.5604   1.5756
     1.5979   1.6149   1.6553   1.6821   1.6935   1.7544   1.7851   1.8021
     1.8078   1.8485   1.8687   1.8752   1.9032   1.9166   1.9331   1.9522
     1.9795   1.9975   2.0077   2.0358   2.0487   2.0693   2.0856   2.0972
     2.1175   2.1323   2.1573   2.1858   2.1914   2.2304   2.2478   2.2566
     2.2644   2.2836   2.2981   2.3138   2.3214   2.3335   2.3452   2.3560
     2.3694   2.3830   2.3941   2.4177   2.4313   2.4526   2.4630   2.4866
     2.4994   2.5137   2.5204   2.5289   2.5618   2.5695   2.5924   2.5990
     2.6298   2.6563   2.6700   2.7040   2.7203   2.7302   2.7604   2.7675
     2.7850   2.8071   2.8307   2.8436   2.8535   2.8685   2.8963   2.9066
     2.9169   2.9321   2.9425   2.9566   2.9747   2.9887   3.0089   3.0266
     3.0431   3.0579   3.0672   3.0797   3.1025   3.1207   3.1324   3.1520
     3.1746   3.1832   3.1895   3.2124   3.2234   3.2464   3.2588   3.2914
     3.3271   3.3437   3.3658   3.4014   3.4246   3.4782   3.5300   3.5897
     5.2890   5.4014   5.6821   5.7484   5.7761   5.8140   5.8804   5.9461
     6.2701   6.3031   6.3508   6.3839   6.4390   6.4971   6.5532   6.5994
     6.6400   6.7325   6.8104   6.8490   6.9303   6.9860   7.0096   7.0308
     7.4053   7.4263   7.5708   7.6214   7.7937   7.8506   7.9152   7.9772
     8.0276   8.0430   8.0763   8.0992   8.1229   8.1499   8.1734   8.2217
     8.2532   8.2788   8.2981   8.3174   8.3644   8.3950   8.4157   8.4600
     8.4812   8.5100   8.5207   8.5626   8.5700   8.6169   8.6330   8.6849
     8.7096   8.7468   8.7994   8.8299

          k = 0.2500 0.7454 0.5000 ( 80230 PWs)   bands (ev):

   -41.9204 -41.9204 -41.8161 -41.8161 -41.6491 -41.6491 -41.6121 -41.6121
   -41.5356 -41.5356 -41.5009 -41.5009 -41.4619 -41.4619 -41.4553 -41.4553
   -41.4361 -41.4361 -41.4198 -41.4198 -41.4072 -41.4072 -41.3950 -41.3950
   -41.3924 -41.3924 -41.3920 -41.3920 -41.3550 -41.3550 -41.3315 -41.3315
   -41.3292 -41.3292 -41.3265 -41.3265 -41.3136 -41.3136 -41.3082 -41.3082
   -41.2872 -41.2872 -41.2777 -41.2777 -41.2711 -41.2711 -41.2596 -41.2596
   -41.2399 -41.2399 -41.2365 -41.2365 -41.2292 -41.2292 -41.2226 -41.2226
   -41.2138 -41.2138 -41.1766 -41.1766 -41.1664 -41.1664 -41.1658 -41.1658
   -41.1516 -41.1516 -41.1057 -41.1057 -41.1055 -41.1055 -41.1027 -41.1027
   -41.0981 -41.0981 -41.0673 -41.0673 -41.0551 -41.0551 -41.0447 -41.0447
   -40.9882 -40.9882 -40.9795 -40.9795 -40.9775 -40.9775 -40.9546 -40.9546
   -40.8936 -40.8936 -40.8588 -40.8588 -40.8509 -40.8509 -40.7393 -40.7393
   -40.2217 -40.2217 -40.1726 -40.1726 -40.0847 -40.0847 -39.9513 -39.9513
   -39.9141 -39.9141 -39.8968 -39.8968 -39.8606 -39.8606 -39.8021 -39.8021
   -39.7678 -39.7678 -39.7640 -39.7640 -39.7595 -39.7595 -39.7401 -39.7401
   -39.7205 -39.7205 -39.7112 -39.7112 -39.7081 -39.7081 -39.6974 -39.6974
   -39.6954 -39.6954 -39.6930 -39.6930 -39.6917 -39.6917 -39.6819 -39.6819
   -39.6759 -39.6759 -39.6605 -39.6605 -39.6435 -39.6435 -39.6412 -39.6412
   -39.6359 -39.6359 -39.6270 -39.6270 -39.6235 -39.6235 -39.6045 -39.6045
   -39.5991 -39.5991 -39.5824 -39.5824 -39.5782 -39.5782 -39.5728 -39.5728
   -39.5620 -39.5620 -39.5554 -39.5554 -39.5430 -39.5430 -39.5399 -39.5399
   -39.5358 -39.5358 -39.5318 -39.5318 -39.5245 -39.5245 -39.5174 -39.5174
   -39.5121 -39.5121 -39.5089 -39.5089 -39.4973 -39.4973 -39.4795 -39.4795
   -39.4731 -39.4731 -39.4692 -39.4692 -39.4682 -39.4682 -39.4592 -39.4592
   -39.4392 -39.4392 -39.4240 -39.4240 -39.4205 -39.4205 -39.4105 -39.4105
   -39.4000 -39.4000 -39.3711 -39.3711 -39.3706 -39.3706 -39.3695 -39.3695
   -39.3689 -39.3689 -39.3465 -39.3465 -39.3221 -39.3221 -39.3196 -39.3196
   -39.3091 -39.3091 -39.2774 -39.2774 -39.2560 -39.2560 -39.2556 -39.2556
   -39.2534 -39.2534 -39.2362 -39.2362 -39.2071 -39.2071 -39.1674 -39.1674
   -39.1520 -39.1520 -39.1302 -39.1302 -39.0999 -39.0999 -39.0059 -39.0059
   -16.9525 -16.9525 -16.7214 -16.7214 -16.3804 -16.3804 -16.3469 -16.3469
   -16.3221 -16.3221 -16.2815 -16.2815 -16.2410 -16.2410 -15.8895 -15.8895
   -14.2874 -14.2874 -14.2805 -14.2805 -14.2573 -14.2572 -14.2393 -14.2393
   -14.2331 -14.2331 -14.2212 -14.2212 -14.1849 -14.1849 -14.1643 -14.1643
   -14.1212 -14.1212 -14.1010 -14.1010 -14.0884 -14.0884 -14.0815 -14.0815
   -14.0436 -14.0436 -14.0335 -14.0335 -14.0200 -14.0200 -14.0060 -14.0060
   -11.7570 -11.7570 -11.7328 -11.7328 -11.7226 -11.7224 -11.7004 -11.7002
   -11.6985 -11.6985 -11.6979 -11.6979 -11.6838 -11.6837 -11.6627 -11.6627
   -11.6499 -11.6498 -11.6412 -11.6412 -11.6199 -11.6197 -11.5942 -11.5940
   -11.5890 -11.5889 -11.5690 -11.5688 -11.5549 -11.5547 -11.5511 -11.5511
   -11.5235 -11.5235 -11.5094 -11.5094 -11.4993 -11.4993 -11.4939 -11.4936
   -11.4821 -11.4819 -11.4665 -11.4663 -11.4541 -11.4540 -11.4275 -11.4275
    -9.3169  -9.3169  -9.2505  -9.2505  -9.2098  -9.2098  -9.1022  -9.1022
    -9.0872  -9.0872  -9.0783  -9.0783  -8.9824  -8.9824  -8.9718  -8.9718
    -8.6309  -8.6308  -8.4220  -8.4218  -8.3005  -8.3001  -8.1882  -8.1867
    -8.1622  -8.1608  -8.1181  -8.1174  -8.0551  -8.0527  -7.9921  -7.9918
    -7.9690  -7.9671  -7.9190  -7.9175  -7.8669  -7.8655  -7.8500  -7.8469
    -7.8178  -7.8171  -7.7982  -7.7958  -7.7393  -7.7378  -7.6844  -7.6831
    -7.6675  -7.6656  -7.6331  -7.6310  -7.6225  -7.6207  -7.5823  -7.5810
    -7.5180  -7.5170  -7.4407  -7.4405  -7.3991  -7.3989  -7.3119  -7.3116
    -6.5985  -6.5985  -6.4731  -6.4730  -6.1873  -6.1873  -6.1340  -6.1340
    -6.1057  -6.1057  -6.0951  -6.0950  -6.0017  -6.0017  -5.9969  -5.9969
    -5.8544  -5.8544  -5.7610  -5.7610  -5.7031  -5.7030  -5.5443  -5.5443
    -5.5338  -5.5338  -5.4663  -5.4663  -5.1700  -5.1700  -5.1319  -5.1319
    -4.1568  -4.1561  -4.0964  -4.0957  -3.8579  -3.8567  -3.7857  -3.7847
    -3.7210  -3.7200  -3.6941  -3.6932  -3.6564  -3.6548  -3.6422  -3.6408
    -3.5153  -3.5140  -3.4951  -3.4947  -3.4404  -3.4401  -3.4320  -3.4316
    -3.3535  -3.3529  -3.2905  -3.2895  -3.2402  -3.2396  -3.1504  -3.1501
    -1.7565  -1.7562  -1.6333  -1.6332  -1.6036  -1.6036  -1.5172  -1.5170
    -1.4571  -1.4569  -1.4273  -1.4271  -1.3936  -1.3930  -1.3722  -1.3715
    -1.3402  -1.3401  -1.2235  -1.2231  -1.2138  -1.2135  -1.1175  -1.1169
    -1.1089  -1.1083  -1.1001  -1.0993  -1.0877  -1.0871  -1.0256  -1.0254
     0.3356   0.3584   0.3988   0.4082   0.4569   0.4643   0.4830   0.4966
     0.5735   0.5767   0.6001   0.6103   0.6994   0.7172   0.7334   0.7393
     0.7816   0.7994   0.9019   0.9070   1.0675   1.0864   1.1226   1.1337
     1.1548   1.1668   1.1842   1.1995   1.2189   1.2399   1.2670   1.2983
     1.3070   1.3265   1.3600   1.3973   1.4356   1.4621   1.4998   1.5297
     1.5509   1.5620   1.6138   1.6259   1.6757   1.7028   1.7169   1.7670
     1.7709   1.8078   1.8255   1.8482   1.8676   1.8755   1.8901   1.9141
     1.9398   1.9598   1.9886   2.0000   2.0142   2.0306   2.0484   2.0598
     2.0887   2.1156   2.1417   2.1581   2.1798   2.2047   2.2166   2.2395
     2.2613   2.2696   2.2795   2.2926   2.3074   2.3136   2.3231   2.3406
     2.3556   2.3621   2.3759   2.3901   2.4062   2.4200   2.4350   2.4485
     2.4695   2.4726   2.4982   2.5057   2.5234   2.5626   2.5769   2.5895
     2.6354   2.6480   2.6842   2.7037   2.7161   2.7252   2.7582   2.7728
     2.7908   2.8096   2.8204   2.8424   2.8614   2.8731   2.8944   2.8991
     2.9125   2.9284   2.9364   2.9582   2.9709   2.9896   3.0015   3.0149
     3.0213   3.0465   3.0542   3.0743   3.0816   3.0981   3.1189   3.1307
     3.1412   3.1577   3.1721   3.1921   3.1989   3.2280   3.2365   3.2504
     3.2660   3.2730   3.3298   3.3648   3.3834   3.4339   3.4631   3.4959
     5.5741   5.5808   5.6839   5.7282   6.0025   6.0703   6.1025   6.1772
     6.2537   6.2988   6.3228   6.3605   6.6736   6.7157   6.8026   6.8303
     6.8991   6.9828   7.0235   7.0957   7.2966   7.3512   7.3615   7.4542
     7.5097   7.5612   7.5808   7.6163   7.6602   7.6983   7.7266   7.7689
     7.7888   7.8185   7.8585   7.8745   7.9804   8.0120   8.0722   8.0901
     8.1333   8.1663   8.1783   8.1957   8.2839   8.3021   8.3148   8.3771
     8.3976   8.4349   8.4558   8.5012   8.5398   8.5777   8.6027   8.6262
     8.6777   8.6952   8.7361   8.7675

          k = 0.2500 0.7454 0.7500 ( 80235 PWs)   bands (ev):

   -41.9204 -41.9204 -41.8161 -41.8161 -41.6491 -41.6491 -41.6121 -41.6121
   -41.5356 -41.5356 -41.5009 -41.5009 -41.4619 -41.4619 -41.4553 -41.4553
   -41.4361 -41.4361 -41.4198 -41.4198 -41.4072 -41.4072 -41.3950 -41.3950
   -41.3924 -41.3924 -41.3920 -41.3920 -41.3550 -41.3550 -41.3315 -41.3315
   -41.3292 -41.3292 -41.3265 -41.3265 -41.3136 -41.3136 -41.3082 -41.3082
   -41.2872 -41.2872 -41.2777 -41.2777 -41.2711 -41.2711 -41.2596 -41.2596
   -41.2399 -41.2399 -41.2365 -41.2365 -41.2292 -41.2292 -41.2226 -41.2226
   -41.2138 -41.2138 -41.1766 -41.1766 -41.1664 -41.1664 -41.1658 -41.1658
   -41.1516 -41.1516 -41.1057 -41.1057 -41.1055 -41.1055 -41.1027 -41.1027
   -41.0982 -41.0982 -41.0673 -41.0673 -41.0551 -41.0551 -41.0447 -41.0447
   -40.9882 -40.9882 -40.9795 -40.9795 -40.9775 -40.9775 -40.9546 -40.9546
   -40.8936 -40.8936 -40.8588 -40.8588 -40.8509 -40.8509 -40.7393 -40.7393
   -40.2217 -40.2217 -40.1726 -40.1726 -40.0847 -40.0847 -39.9513 -39.9513
   -39.9141 -39.9141 -39.8968 -39.8968 -39.8606 -39.8606 -39.8021 -39.8021
   -39.7678 -39.7678 -39.7640 -39.7640 -39.7595 -39.7595 -39.7401 -39.7401
   -39.7205 -39.7205 -39.7112 -39.7112 -39.7081 -39.7081 -39.6974 -39.6974
   -39.6954 -39.6954 -39.6930 -39.6930 -39.6917 -39.6917 -39.6819 -39.6819
   -39.6759 -39.6759 -39.6605 -39.6605 -39.6435 -39.6435 -39.6412 -39.6412
   -39.6359 -39.6359 -39.6270 -39.6270 -39.6235 -39.6235 -39.6045 -39.6045
   -39.5991 -39.5991 -39.5824 -39.5824 -39.5782 -39.5782 -39.5728 -39.5728
   -39.5620 -39.5620 -39.5554 -39.5554 -39.5430 -39.5430 -39.5399 -39.5399
   -39.5358 -39.5358 -39.5318 -39.5318 -39.5245 -39.5245 -39.5174 -39.5174
   -39.5121 -39.5121 -39.5089 -39.5089 -39.4973 -39.4973 -39.4795 -39.4795
   -39.4731 -39.4731 -39.4692 -39.4692 -39.4682 -39.4682 -39.4592 -39.4592
   -39.4392 -39.4392 -39.4240 -39.4240 -39.4205 -39.4205 -39.4105 -39.4105
   -39.4000 -39.4000 -39.3711 -39.3711 -39.3706 -39.3706 -39.3695 -39.3695
   -39.3689 -39.3689 -39.3465 -39.3465 -39.3221 -39.3221 -39.3196 -39.3196
   -39.3091 -39.3091 -39.2774 -39.2774 -39.2560 -39.2560 -39.2556 -39.2556
   -39.2534 -39.2534 -39.2362 -39.2362 -39.2071 -39.2071 -39.1675 -39.1675
   -39.1520 -39.1520 -39.1302 -39.1302 -39.0999 -39.0999 -39.0059 -39.0059
   -16.9525 -16.9525 -16.7214 -16.7214 -16.3804 -16.3804 -16.3469 -16.3469
   -16.3221 -16.3221 -16.2815 -16.2815 -16.2410 -16.2410 -15.8895 -15.8895
   -14.2874 -14.2874 -14.2805 -14.2805 -14.2573 -14.2572 -14.2393 -14.2393
   -14.2331 -14.2331 -14.2212 -14.2212 -14.1849 -14.1849 -14.1643 -14.1643
   -14.1212 -14.1212 -14.1010 -14.1010 -14.0884 -14.0884 -14.0815 -14.0815
   -14.0436 -14.0436 -14.0335 -14.0335 -14.0199 -14.0199 -14.0060 -14.0060
   -11.7571 -11.7570 -11.7331 -11.7331 -11.7226 -11.7224 -11.7003 -11.7001
   -11.6986 -11.6985 -11.6978 -11.6975 -11.6837 -11.6837 -11.6627 -11.6627
   -11.6499 -11.6498 -11.6412 -11.6412 -11.6200 -11.6199 -11.5942 -11.5940
   -11.5890 -11.5889 -11.5691 -11.5689 -11.5549 -11.5547 -11.5511 -11.5511
   -11.5235 -11.5235 -11.5093 -11.5093 -11.4993 -11.4993 -11.4938 -11.4935
   -11.4820 -11.4819 -11.4663 -11.4662 -11.4541 -11.4540 -11.4275 -11.4275
    -9.3172  -9.3172  -9.2505  -9.2505  -9.2095  -9.2095  -9.1020  -9.1020
    -9.0872  -9.0872  -9.0784  -9.0784  -8.9827  -8.9827  -8.9717  -8.9717
    -8.6325  -8.6323  -8.4221  -8.4219  -8.3078  -8.3076  -8.1916  -8.1902
    -8.1551  -8.1538  -8.1052  -8.1047  -8.0339  -8.0311  -7.9970  -7.9965
    -7.9652  -7.9635  -7.9231  -7.9215  -7.8867  -7.8846  -7.8467  -7.8445
    -7.8203  -7.8188  -7.7946  -7.7931  -7.7402  -7.7379  -7.6918  -7.6915
    -7.6691  -7.6674  -7.6375  -7.6352  -7.6261  -7.6241  -7.5819  -7.5811
    -7.5157  -7.5147  -7.4383  -7.4380  -7.3972  -7.3970  -7.3091  -7.3088
    -6.5984  -6.5984  -6.4729  -6.4729  -6.1873  -6.1873  -6.1340  -6.1340
    -6.1056  -6.1056  -6.0951  -6.0950  -6.0039  -6.0038  -5.9951  -5.9949
    -5.8549  -5.8549  -5.7614  -5.7614  -5.7029  -5.7029  -5.5444  -5.5444
    -5.5338  -5.5338  -5.4663  -5.4663  -5.1700  -5.1700  -5.1318  -5.1317
    -4.2895  -4.2888  -3.9911  -3.9905  -3.9229  -3.9220  -3.8183  -3.8175
    -3.7943  -3.7927  -3.6648  -3.6646  -3.6017  -3.6007  -3.5312  -3.5299
    -3.5036  -3.5026  -3.4843  -3.4833  -3.4418  -3.4411  -3.4198  -3.4195
    -3.3999  -3.3989  -3.3313  -3.3311  -3.1781  -3.1774  -3.0531  -3.0517
    -1.7566  -1.7563  -1.6340  -1.6338  -1.6036  -1.6034  -1.5175  -1.5172
    -1.4574  -1.4571  -1.4271  -1.4264  -1.3936  -1.3931  -1.3718  -1.3710
    -1.3416  -1.3414  -1.2242  -1.2235  -1.2134  -1.2133  -1.1197  -1.1183
    -1.1107  -1.1106  -1.1012  -1.0999  -1.0879  -1.0873  -1.0228  -1.0223
     0.3091   0.3313   0.3775   0.3922   0.4260   0.4498   0.4792   0.4970
     0.5040   0.5206   0.5577   0.5605   0.6034   0.6153   0.6274   0.6337
     0.6654   0.6810   0.6933   0.6960   0.8108   0.8226   0.8827   0.8985
     1.1430   1.1801   1.2308   1.2648   1.2760   1.2974   1.3065   1.3394
     1.4031   1.4248   1.4683   1.4961   1.5099   1.5383   1.5759   1.5897
     1.6044   1.6409   1.6794   1.6953   1.7087   1.7415   1.7765   1.7938
     1.8113   1.8343   1.8623   1.8914   1.9067   1.9287   1.9406   1.9538
     1.9679   1.9785   2.0263   2.0327   2.0476   2.0589   2.0720   2.0932
     2.1297   2.1429   2.1712   2.1848   2.1996   2.2141   2.2402   2.2522
     2.2624   2.2777   2.2968   2.3100   2.3217   2.3456   2.3583   2.3698
     2.3846   2.3918   2.3992   2.4063   2.4264   2.4371   2.4519   2.4720
     2.4823   2.5099   2.5118   2.5348   2.5542   2.5687   2.5887   2.6064
     2.6349   2.6557   2.6787   2.6945   2.7067   2.7375   2.7570   2.7743
     2.7801   2.8054   2.8156   2.8386   2.8463   2.8769   2.8851   2.8980
     2.9101   2.9296   2.9433   2.9698   2.9764   2.9910   2.9984   3.0259
     3.0359   3.0566   3.0656   3.0839   3.1078   3.1180   3.1409   3.1531
     3.1651   3.1742   3.2067   3.2142   3.2392   3.2503   3.2631   3.2759
     3.3211   3.3578   3.3758   3.4045   3.4386   3.4631   3.5454   3.5937
     5.2925   5.4233   5.6758   5.7418   5.7674   5.7906   5.8955   5.9421
     6.2547   6.2752   6.3488   6.4004   6.4244   6.5018   6.5616   6.6345
     6.6695   6.7372   6.8284   6.8552   6.9144   6.9482   7.0033   7.0395
     7.4241   7.4435   7.5658   7.6166   7.8224   7.8436   7.8908   7.9071
     7.9849   8.0152   8.0657   8.0892   8.0994   8.1249   8.1837   8.2082
     8.2320   8.2698   8.3007   8.3505   8.3716   8.3965   8.4317   8.4546
     8.4895   8.5178   8.5528   8.5595   8.5917   8.6286   8.6624   8.7208
     8.7369   8.7585   8.7900   8.8472

          k = 0.5000 0.0000 0.0000 ( 80218 PWs)   bands (ev):

   -41.9204 -41.9204 -41.8161 -41.8161 -41.6491 -41.6491 -41.6121 -41.6121
   -41.5356 -41.5356 -41.5009 -41.5009 -41.4619 -41.4619 -41.4553 -41.4553
   -41.4361 -41.4361 -41.4198 -41.4198 -41.4072 -41.4072 -41.3950 -41.3950
   -41.3924 -41.3924 -41.3920 -41.3920 -41.3550 -41.3550 -41.3315 -41.3315
   -41.3292 -41.3292 -41.3265 -41.3265 -41.3135 -41.3135 -41.3082 -41.3082
   -41.2872 -41.2872 -41.2777 -41.2777 -41.2711 -41.2711 -41.2596 -41.2596
   -41.2399 -41.2399 -41.2365 -41.2365 -41.2292 -41.2292 -41.2226 -41.2226
   -41.2138 -41.2138 -41.1766 -41.1766 -41.1664 -41.1664 -41.1658 -41.1658
   -41.1516 -41.1516 -41.1057 -41.1057 -41.1055 -41.1055 -41.1027 -41.1027
   -41.0982 -41.0982 -41.0673 -41.0673 -41.0551 -41.0551 -41.0447 -41.0447
   -40.9882 -40.9882 -40.9795 -40.9795 -40.9775 -40.9775 -40.9546 -40.9546
   -40.8936 -40.8936 -40.8588 -40.8588 -40.8509 -40.8509 -40.7393 -40.7393
   -40.2217 -40.2217 -40.1726 -40.1726 -40.0847 -40.0847 -39.9513 -39.9513
   -39.9141 -39.9141 -39.8968 -39.8968 -39.8606 -39.8606 -39.8021 -39.8021
   -39.7678 -39.7678 -39.7640 -39.7640 -39.7595 -39.7595 -39.7401 -39.7401
   -39.7205 -39.7205 -39.7112 -39.7112 -39.7081 -39.7081 -39.6974 -39.6974
   -39.6954 -39.6954 -39.6930 -39.6930 -39.6917 -39.6917 -39.6819 -39.6819
   -39.6759 -39.6759 -39.6605 -39.6605 -39.6435 -39.6435 -39.6412 -39.6412
   -39.6359 -39.6359 -39.6270 -39.6270 -39.6235 -39.6235 -39.6045 -39.6045
   -39.5991 -39.5991 -39.5824 -39.5824 -39.5782 -39.5782 -39.5728 -39.5728
   -39.5620 -39.5620 -39.5554 -39.5554 -39.5430 -39.5430 -39.5399 -39.5399
   -39.5358 -39.5358 -39.5318 -39.5318 -39.5245 -39.5245 -39.5174 -39.5174
   -39.5121 -39.5121 -39.5089 -39.5089 -39.4973 -39.4973 -39.4795 -39.4795
   -39.4731 -39.4731 -39.4692 -39.4692 -39.4682 -39.4682 -39.4592 -39.4592
   -39.4392 -39.4392 -39.4240 -39.4240 -39.4205 -39.4205 -39.4105 -39.4105
   -39.4000 -39.4000 -39.3711 -39.3711 -39.3706 -39.3706 -39.3695 -39.3695
   -39.3689 -39.3689 -39.3465 -39.3465 -39.3221 -39.3221 -39.3196 -39.3196
   -39.3091 -39.3091 -39.2774 -39.2774 -39.2560 -39.2560 -39.2556 -39.2556
   -39.2534 -39.2534 -39.2362 -39.2362 -39.2071 -39.2071 -39.1675 -39.1675
   -39.1520 -39.1520 -39.1302 -39.1302 -39.0999 -39.0999 -39.0059 -39.0059
   -16.9525 -16.9525 -16.7214 -16.7214 -16.3804 -16.3804 -16.3469 -16.3469
   -16.3220 -16.3220 -16.2816 -16.2816 -16.2410 -16.2410 -15.8895 -15.8895
   -14.2874 -14.2874 -14.2805 -14.2805 -14.2573 -14.2573 -14.2393 -14.2393
   -14.2330 -14.2330 -14.2212 -14.2212 -14.1849 -14.1849 -14.1643 -14.1643
   -14.1212 -14.1212 -14.1010 -14.1010 -14.0884 -14.0884 -14.0815 -14.0815
   -14.0436 -14.0436 -14.0335 -14.0335 -14.0199 -14.0199 -14.0060 -14.0060
   -11.7569 -11.7569 -11.7335 -11.7335 -11.7230 -11.7230 -11.6999 -11.6999
   -11.6985 -11.6985 -11.6973 -11.6973 -11.6834 -11.6834 -11.6627 -11.6627
   -11.6501 -11.6501 -11.6411 -11.6411 -11.6204 -11.6204 -11.5936 -11.5936
   -11.5889 -11.5889 -11.5687 -11.5687 -11.5553 -11.5553 -11.5511 -11.5511
   -11.5235 -11.5235 -11.5093 -11.5093 -11.4993 -11.4993 -11.4943 -11.4943
   -11.4817 -11.4817 -11.4658 -11.4658 -11.4541 -11.4541 -11.4275 -11.4275
    -9.3175  -9.3175  -9.2504  -9.2504  -9.2083  -9.2083  -9.1026  -9.1026
    -9.0861  -9.0861  -9.0790  -9.0790  -8.9865  -8.9865  -8.9712  -8.9712
    -8.6276  -8.6276  -8.4233  -8.4233  -8.2923  -8.2923  -8.2332  -8.2332
    -8.1347  -8.1347  -8.1023  -8.1023  -8.0194  -8.0194  -7.9780  -7.9780
    -7.9703  -7.9703  -7.9489  -7.9489  -7.8966  -7.8966  -7.8520  -7.8520
    -7.8110  -7.8110  -7.7606  -7.7606  -7.7246  -7.7246  -7.6823  -7.6823
    -7.6714  -7.6714  -7.6619  -7.6619  -7.6394  -7.6394  -7.5968  -7.5968
    -7.5054  -7.5054  -7.4432  -7.4432  -7.3958  -7.3958  -7.3005  -7.3005
    -6.5983  -6.5983  -6.4728  -6.4728  -6.1878  -6.1878  -6.1341  -6.1341
    -6.1077  -6.1077  -6.0933  -6.0933  -6.0054  -6.0054  -5.9941  -5.9941
    -5.8558  -5.8558  -5.7617  -5.7617  -5.7028  -5.7028  -5.5442  -5.5442
    -5.5338  -5.5338  -5.4662  -5.4662  -5.1695  -5.1695  -5.1314  -5.1314
    -4.2610  -4.2610  -4.1915  -4.1915  -3.8335  -3.8335  -3.7800  -3.7800
    -3.7418  -3.7418  -3.6660  -3.6660  -3.6124  -3.6124  -3.5983  -3.5983
    -3.5260  -3.5260  -3.5024  -3.5024  -3.4404  -3.4404  -3.4204  -3.4204
    -3.3508  -3.3508  -3.2348  -3.2348  -3.1725  -3.1725  -3.0055  -3.0055
    -1.7559  -1.7559  -1.6358  -1.6358  -1.6030  -1.6030  -1.5170  -1.5170
    -1.4577  -1.4577  -1.4265  -1.4265  -1.3909  -1.3909  -1.3738  -1.3738
    -1.3427  -1.3427  -1.2253  -1.2253  -1.2125  -1.2125  -1.1216  -1.1216
    -1.1118  -1.1118  -1.1002  -1.1002  -1.0888  -1.0888  -1.0189  -1.0189
     0.2200   0.2200   0.2689   0.2689   0.3463   0.3463   0.4204   0.4204
     0.4455   0.4455   0.4763   0.4763   0.5089   0.5089   0.5984   0.5984
     0.8229   0.8229   0.8747   0.8747   0.9021   0.9021   1.0538   1.0538
     1.1437   1.1437   1.1675   1.1675   1.1808   1.1808   1.2495   1.2495
     1.3182   1.3182   1.4549   1.4549   1.5193   1.5193   1.5448   1.5448
     1.5959   1.5959   1.6282   1.6282   1.7023   1.7023   1.7893   1.7893
     1.8166   1.8166   1.8603   1.8603   1.9261   1.9261   1.9683   1.9683
     1.9933   1.9933   2.0257   2.0257   2.0508   2.0508   2.0992   2.0992
     2.1457   2.1457   2.1910   2.1910   2.2250   2.2250   2.2540   2.2540
     2.3230   2.3230   2.3402   2.3402   2.3646   2.3646   2.4019   2.4019
     2.4198   2.4198   2.4343   2.4343   2.4730   2.4730   2.5007   2.5007
     2.5378   2.5378   2.5587   2.5587   2.5857   2.5857   2.6453   2.6453
     2.6667   2.6667   2.7025   2.7025   2.7356   2.7356   2.7602   2.7602
     2.7925   2.7925   2.8279   2.8279   2.8730   2.8730   2.8923   2.8923
     2.9205   2.9205   2.9575   2.9575   2.9826   2.9826   3.0247   3.0247
     3.0469   3.0469   3.0988   3.0988   3.1332   3.1332   3.1528   3.1528
     3.1899   3.1899   3.2267   3.2267   3.3076   3.3076   3.3550   3.3550
     3.4206   3.4206   3.4596   3.4596   3.5666   3.5666   3.8983   3.8983
     5.0420   5.0420   5.1324   5.1324   5.6609   5.6609   5.8367   5.8367
     5.8659   5.8659   6.0078   6.0078   6.1965   6.1965   6.3195   6.3195
     7.1206   7.1206   7.2054   7.2054   7.3209   7.3209   7.4137   7.4137
     7.5061   7.5061   7.6348   7.6348   7.6661   7.6661   7.7068   7.7068
     7.7720   7.7720   7.8255   7.8255   7.9482   7.9482   8.2156   8.2156
     8.3258   8.3258   8.3941   8.3941   8.4550   8.4550   8.5475   8.5475
     8.5903   8.5903   8.6429   8.6429   8.7095   8.7095   8.7362   8.7362
     8.8003   8.8003   8.8728   8.8728

          k = 0.5000 0.0000 0.2500 ( 80264 PWs)   bands (ev):

   -41.9204 -41.9204 -41.8161 -41.8161 -41.6491 -41.6491 -41.6121 -41.6121
   -41.5356 -41.5356 -41.5009 -41.5009 -41.4619 -41.4619 -41.4553 -41.4553
   -41.4361 -41.4361 -41.4198 -41.4198 -41.4072 -41.4072 -41.3950 -41.3950
   -41.3924 -41.3924 -41.3920 -41.3920 -41.3550 -41.3550 -41.3315 -41.3315
   -41.3292 -41.3292 -41.3265 -41.3265 -41.3136 -41.3136 -41.3082 -41.3082
   -41.2872 -41.2872 -41.2777 -41.2777 -41.2711 -41.2711 -41.2596 -41.2596
   -41.2399 -41.2399 -41.2365 -41.2365 -41.2292 -41.2292 -41.2226 -41.2226
   -41.2138 -41.2138 -41.1766 -41.1766 -41.1664 -41.1664 -41.1658 -41.1658
   -41.1516 -41.1516 -41.1057 -41.1057 -41.1055 -41.1055 -41.1028 -41.1028
   -41.0982 -41.0982 -41.0673 -41.0673 -41.0551 -41.0551 -41.0447 -41.0447
   -40.9882 -40.9882 -40.9795 -40.9795 -40.9775 -40.9775 -40.9546 -40.9546
   -40.8936 -40.8936 -40.8588 -40.8588 -40.8509 -40.8509 -40.7393 -40.7393
   -40.2217 -40.2217 -40.1726 -40.1726 -40.0847 -40.0847 -39.9513 -39.9513
   -39.9141 -39.9141 -39.8968 -39.8968 -39.8606 -39.8606 -39.8021 -39.8021
   -39.7678 -39.7678 -39.7640 -39.7640 -39.7595 -39.7595 -39.7401 -39.7401
   -39.7206 -39.7206 -39.7112 -39.7112 -39.7081 -39.7081 -39.6974 -39.6974
   -39.6954 -39.6954 -39.6930 -39.6930 -39.6917 -39.6917 -39.6819 -39.6819
   -39.6759 -39.6759 -39.6605 -39.6605 -39.6435 -39.6435 -39.6412 -39.6412
   -39.6359 -39.6359 -39.6270 -39.6270 -39.6235 -39.6235 -39.6045 -39.6045
   -39.5991 -39.5991 -39.5824 -39.5824 -39.5782 -39.5782 -39.5728 -39.5728
   -39.5620 -39.5620 -39.5554 -39.5554 -39.5430 -39.5430 -39.5399 -39.5399
   -39.5358 -39.5358 -39.5318 -39.5318 -39.5245 -39.5245 -39.5174 -39.5174
   -39.5121 -39.5121 -39.5089 -39.5089 -39.4973 -39.4973 -39.4795 -39.4795
   -39.4731 -39.4731 -39.4692 -39.4692 -39.4682 -39.4682 -39.4593 -39.4593
   -39.4392 -39.4392 -39.4240 -39.4240 -39.4205 -39.4205 -39.4105 -39.4105
   -39.4000 -39.4000 -39.3711 -39.3711 -39.3706 -39.3706 -39.3695 -39.3695
   -39.3689 -39.3689 -39.3465 -39.3465 -39.3221 -39.3221 -39.3196 -39.3196
   -39.3091 -39.3091 -39.2774 -39.2774 -39.2560 -39.2560 -39.2556 -39.2556
   -39.2534 -39.2534 -39.2362 -39.2362 -39.2071 -39.2071 -39.1675 -39.1675
   -39.1520 -39.1520 -39.1302 -39.1302 -39.0999 -39.0999 -39.0059 -39.0059
   -16.9525 -16.9525 -16.7214 -16.7214 -16.3804 -16.3804 -16.3469 -16.3469
   -16.3221 -16.3221 -16.2816 -16.2816 -16.2410 -16.2410 -15.8895 -15.8895
   -14.2874 -14.2874 -14.2805 -14.2805 -14.2573 -14.2573 -14.2393 -14.2393
   -14.2331 -14.2331 -14.2212 -14.2212 -14.1849 -14.1849 -14.1643 -14.1643
   -14.1212 -14.1212 -14.1010 -14.1010 -14.0884 -14.0884 -14.0815 -14.0815
   -14.0437 -14.0437 -14.0335 -14.0335 -14.0200 -14.0200 -14.0060 -14.0060
   -11.7569 -11.7569 -11.7332 -11.7331 -11.7230 -11.7230 -11.7000 -11.6999
   -11.6985 -11.6984 -11.6978 -11.6974 -11.6835 -11.6834 -11.6627 -11.6627
   -11.6501 -11.6501 -11.6412 -11.6412 -11.6203 -11.6203 -11.5936 -11.5936
   -11.5889 -11.5889 -11.5686 -11.5685 -11.5553 -11.5553 -11.5512 -11.5512
   -11.5235 -11.5235 -11.5094 -11.5094 -11.4993 -11.4993 -11.4944 -11.4943
   -11.4818 -11.4818 -11.4659 -11.4659 -11.4541 -11.4541 -11.4275 -11.4275
    -9.3173  -9.3173  -9.2504  -9.2504  -9.2087  -9.2087  -9.1027  -9.1027
    -9.0862  -9.0862  -9.0789  -9.0789  -8.9859  -8.9859  -8.9711  -8.9711
    -8.6276  -8.6275  -8.4219  -8.4218  -8.2876  -8.2873  -8.2274  -8.2267
    -8.1430  -8.1424  -8.1094  -8.1089  -8.0386  -8.0372  -8.0102  -8.0083
    -7.9636  -7.9618  -7.9219  -7.9202  -7.8896  -7.8868  -7.8573  -7.8554
    -7.8017  -7.8001  -7.7632  -7.7617  -7.7305  -7.7292  -7.6810  -7.6805
    -7.6712  -7.6691  -7.6492  -7.6475  -7.6435  -7.6425  -7.5919  -7.5910
    -7.5071  -7.5068  -7.4438  -7.4435  -7.3976  -7.3974  -7.3050  -7.3048
    -6.5985  -6.5985  -6.4729  -6.4729  -6.1879  -6.1879  -6.1340  -6.1340
    -6.1076  -6.1076  -6.0935  -6.0935  -6.0040  -6.0039  -5.9955  -5.9953
    -5.8553  -5.8553  -5.7613  -5.7613  -5.7030  -5.7029  -5.5442  -5.5442
    -5.5339  -5.5338  -5.4662  -5.4662  -5.1695  -5.1695  -5.1316  -5.1316
    -4.2040  -4.2039  -4.1319  -4.1315  -3.8482  -3.8462  -3.8105  -3.8083
    -3.7270  -3.7266  -3.6902  -3.6892  -3.6606  -3.6601  -3.5719  -3.5708
    -3.5229  -3.5220  -3.4983  -3.4980  -3.4412  -3.4407  -3.4168  -3.4159
    -3.3572  -3.3570  -3.2885  -3.2882  -3.1885  -3.1878  -3.0914  -3.0910
    -1.7560  -1.7559  -1.6345  -1.6344  -1.6038  -1.6036  -1.5168  -1.5166
    -1.4577  -1.4572  -1.4277  -1.4271  -1.3904  -1.3903  -1.3739  -1.3737
    -1.3415  -1.3414  -1.2247  -1.2243  -1.2130  -1.2129  -1.1191  -1.1186
    -1.1104  -1.1102  -1.0997  -1.0987  -1.0894  -1.0889  -1.0218  -1.0214
     0.2273   0.2288   0.3693   0.3807   0.4198   0.4291   0.4647   0.4721
     0.5214   0.5362   0.5892   0.5925   0.6198   0.6303   0.6897   0.7124
     0.8532   0.8598   0.8827   0.8973   0.9148   0.9294   1.0329   1.0529
     1.1370   1.1441   1.1617   1.1778   1.1834   1.1928   1.2468   1.2584
     1.3075   1.3374   1.4075   1.4232   1.4844   1.5005   1.5349   1.5401
     1.5699   1.5921   1.6094   1.6192   1.6629   1.6836   1.7185   1.7615
     1.7966   1.8132   1.8398   1.8659   1.8861   1.9019   1.9271   1.9418
     1.9535   1.9806   2.0055   2.0144   2.0377   2.0480   2.0612   2.0878
     2.1140   2.1282   2.1525   2.1802   2.1920   2.2170   2.2337   2.2516
     2.2753   2.2891   2.3117   2.3182   2.3300   2.3405   2.3567   2.3702
     2.3859   2.3938   2.4117   2.4282   2.4433   2.4525   2.4583   2.4837
     2.4902   2.5160   2.5337   2.5442   2.5642   2.5794   2.6016   2.6114
     2.6474   2.6614   2.6705   2.7007   2.7164   2.7430   2.7486   2.7553
     2.7807   2.8072   2.8332   2.8517   2.8727   2.8831   2.8898   2.9066
     2.9194   2.9322   2.9410   2.9592   2.9829   2.9972   3.0087   3.0202
     3.0417   3.0498   3.0758   3.0890   3.1070   3.1263   3.1339   3.1502
     3.1627   3.1880   3.1919   3.2069   3.2343   3.2597   3.2709   3.2885
     3.3388   3.3771   3.3908   3.4121   3.4388   3.4746   3.6819   3.6880
     5.2564   5.2852   5.4056   5.4299   5.6644   5.6936   5.8637   5.8774
     6.1442   6.1605   6.3282   6.3703   6.4328   6.4650   6.6128   6.6776
     7.0929   7.1348   7.1749   7.2029   7.2986   7.3377   7.4578   7.4720
     7.4968   7.5170   7.6138   7.6336   7.6528   7.6853   7.7100   7.7191
     7.7581   7.7997   7.8628   7.8727   7.9669   7.9916   8.1138   8.1263
     8.2382   8.2624   8.3018   8.3132   8.3561   8.3812   8.4106   8.4467
     8.4618   8.5024   8.5507   8.5733   8.6144   8.6356   8.6574   8.6832
     8.7445   8.7905   8.7998   8.8280

          k = 0.5000 0.0000 0.5000 ( 80252 PWs)   bands (ev):

   -41.9204 -41.9204 -41.8161 -41.8161 -41.6491 -41.6491 -41.6121 -41.6121
   -41.5356 -41.5356 -41.5009 -41.5009 -41.4619 -41.4619 -41.4553 -41.4553
   -41.4361 -41.4361 -41.4198 -41.4198 -41.4072 -41.4072 -41.3950 -41.3950
   -41.3924 -41.3924 -41.3920 -41.3920 -41.3550 -41.3550 -41.3315 -41.3315
   -41.3292 -41.3292 -41.3265 -41.3265 -41.3136 -41.3136 -41.3082 -41.3082
   -41.2872 -41.2872 -41.2777 -41.2777 -41.2711 -41.2711 -41.2596 -41.2596
   -41.2399 -41.2399 -41.2365 -41.2365 -41.2292 -41.2292 -41.2226 -41.2226
   -41.2138 -41.2138 -41.1766 -41.1766 -41.1664 -41.1664 -41.1658 -41.1658
   -41.1516 -41.1516 -41.1057 -41.1057 -41.1055 -41.1055 -41.1027 -41.1027
   -41.0982 -41.0982 -41.0673 -41.0673 -41.0551 -41.0551 -41.0447 -41.0447
   -40.9882 -40.9882 -40.9795 -40.9795 -40.9775 -40.9775 -40.9546 -40.9546
   -40.8936 -40.8936 -40.8588 -40.8588 -40.8509 -40.8509 -40.7393 -40.7393
   -40.2217 -40.2217 -40.1726 -40.1726 -40.0847 -40.0847 -39.9513 -39.9513
   -39.9141 -39.9141 -39.8968 -39.8968 -39.8606 -39.8606 -39.8021 -39.8021
   -39.7678 -39.7678 -39.7640 -39.7640 -39.7595 -39.7595 -39.7401 -39.7401
   -39.7206 -39.7206 -39.7112 -39.7112 -39.7081 -39.7081 -39.6974 -39.6974
   -39.6954 -39.6954 -39.6930 -39.6930 -39.6917 -39.6917 -39.6819 -39.6819
   -39.6759 -39.6759 -39.6605 -39.6605 -39.6435 -39.6435 -39.6412 -39.6412
   -39.6359 -39.6359 -39.6270 -39.6270 -39.6235 -39.6235 -39.6045 -39.6045
   -39.5991 -39.5991 -39.5824 -39.5824 -39.5782 -39.5782 -39.5728 -39.5728
   -39.5620 -39.5620 -39.5554 -39.5554 -39.5430 -39.5430 -39.5399 -39.5399
   -39.5358 -39.5358 -39.5318 -39.5318 -39.5245 -39.5245 -39.5174 -39.5174
   -39.5121 -39.5121 -39.5089 -39.5089 -39.4973 -39.4973 -39.4795 -39.4795
   -39.4731 -39.4731 -39.4692 -39.4692 -39.4682 -39.4682 -39.4593 -39.4593
   -39.4392 -39.4392 -39.4240 -39.4240 -39.4205 -39.4205 -39.4105 -39.4105
   -39.4000 -39.4000 -39.3711 -39.3711 -39.3706 -39.3706 -39.3695 -39.3695
   -39.3689 -39.3689 -39.3465 -39.3465 -39.3221 -39.3221 -39.3196 -39.3196
   -39.3091 -39.3091 -39.2774 -39.2774 -39.2560 -39.2560 -39.2556 -39.2556
   -39.2534 -39.2534 -39.2362 -39.2362 -39.2071 -39.2071 -39.1675 -39.1675
   -39.1520 -39.1520 -39.1302 -39.1302 -39.0999 -39.0999 -39.0059 -39.0059
   -16.9525 -16.9525 -16.7214 -16.7214 -16.3804 -16.3804 -16.3469 -16.3469
   -16.3221 -16.3221 -16.2815 -16.2815 -16.2410 -16.2410 -15.8895 -15.8895
   -14.2874 -14.2874 -14.2805 -14.2805 -14.2573 -14.2573 -14.2393 -14.2393
   -14.2331 -14.2331 -14.2212 -14.2212 -14.1849 -14.1849 -14.1643 -14.1643
   -14.1212 -14.1212 -14.1010 -14.1010 -14.0884 -14.0884 -14.0815 -14.0815
   -14.0436 -14.0436 -14.0335 -14.0335 -14.0200 -14.0200 -14.0060 -14.0060
   -11.7568 -11.7568 -11.7328 -11.7328 -11.7230 -11.7230 -11.7000 -11.7000
   -11.6983 -11.6983 -11.6978 -11.6978 -11.6835 -11.6835 -11.6627 -11.6627
   -11.6501 -11.6501 -11.6412 -11.6412 -11.6201 -11.6201 -11.5936 -11.5936
   -11.5889 -11.5889 -11.5684 -11.5684 -11.5554 -11.5554 -11.5512 -11.5512
   -11.5235 -11.5235 -11.5095 -11.5095 -11.4993 -11.4993 -11.4944 -11.4944
   -11.4818 -11.4818 -11.4660 -11.4660 -11.4541 -11.4541 -11.4275 -11.4275
    -9.3171  -9.3171  -9.2504  -9.2504  -9.2090  -9.2090  -9.1028  -9.1028
    -9.0862  -9.0862  -9.0788  -9.0788  -8.9854  -8.9854  -8.9711  -8.9711
    -8.6275  -8.6275  -8.4204  -8.4204  -8.2818  -8.2818  -8.2183  -8.2183
    -8.1576  -8.1576  -8.1133  -8.1133  -8.0574  -8.0574  -8.0090  -8.0090
    -7.9728  -7.9728  -7.9199  -7.9199  -7.8637  -7.8637  -7.8566  -7.8566
    -7.7931  -7.7931  -7.7677  -7.7677  -7.7338  -7.7338  -7.6767  -7.6767
    -7.6724  -7.6724  -7.6485  -7.6485  -7.6341  -7.6341  -7.5848  -7.5848
    -7.5089  -7.5089  -7.4442  -7.4442  -7.3991  -7.3991  -7.3095  -7.3095
    -6.5985  -6.5985  -6.4730  -6.4730  -6.1880  -6.1880  -6.1340  -6.1340
    -6.1075  -6.1075  -6.0938  -6.0938  -6.0018  -6.0018  -5.9973  -5.9973
    -5.8547  -5.8547  -5.7610  -5.7610  -5.7031  -5.7031  -5.5441  -5.5441
    -5.5339  -5.5339  -5.4662  -5.4662  -5.1695  -5.1695  -5.1318  -5.1318
    -4.1056  -4.1056  -4.0508  -4.0508  -3.8869  -3.8869  -3.8684  -3.8684
    -3.8165  -3.8165  -3.6798  -3.6798  -3.6280  -3.6280  -3.5662  -3.5662
    -3.5084  -3.5084  -3.4689  -3.4689  -3.4412  -3.4412  -3.4026  -3.4026
    -3.3671  -3.3671  -3.3141  -3.3141  -3.2887  -3.2887  -3.1517  -3.1517
    -1.7560  -1.7560  -1.6330  -1.6330  -1.6045  -1.6045  -1.5164  -1.5164
    -1.4572  -1.4572  -1.4282  -1.4282  -1.3899  -1.3899  -1.3737  -1.3737
    -1.3402  -1.3402  -1.2238  -1.2238  -1.2132  -1.2132  -1.1173  -1.1173
    -1.1076  -1.1076  -1.0982  -1.0982  -1.0896  -1.0896  -1.0246  -1.0246
     0.2339   0.2339   0.3883   0.3883   0.4507   0.4507   0.5458   0.5458
     0.6827   0.6827   0.7334   0.7334   0.7929   0.7929   0.8189   0.8189
     0.8489   0.8489   0.9936   0.9936   1.0590   1.0590   1.1211   1.1211
     1.1682   1.1682   1.1918   1.1918   1.2349   1.2349   1.2590   1.2590
     1.3008   1.3008   1.3479   1.3479   1.4029   1.4029   1.4501   1.4501
     1.4691   1.4691   1.5584   1.5584   1.6168   1.6168   1.6786   1.6786
     1.7572   1.7572   1.8184   1.8184   1.8498   1.8498   1.8827   1.8827
     1.9396   1.9396   1.9591   1.9591   2.0081   2.0081   2.0518   2.0518
     2.0937   2.0937   2.1303   2.1303   2.1774   2.1774   2.1980   2.1980
     2.2569   2.2569   2.2870   2.2870   2.3126   2.3126   2.3429   2.3429
     2.3691   2.3691   2.3946   2.3946   2.4099   2.4099   2.4438   2.4438
     2.4874   2.4874   2.5363   2.5363   2.5489   2.5489   2.5841   2.5841
     2.6418   2.6418   2.6864   2.6864   2.7052   2.7052   2.7653   2.7653
     2.8057   2.8057   2.8423   2.8423   2.8816   2.8816   2.9045   2.9045
     2.9310   2.9310   2.9605   2.9605   2.9851   2.9851   3.0073   3.0073
     3.0421   3.0421   3.0749   3.0749   3.1034   3.1034   3.1286   3.1286
     3.1491   3.1491   3.1712   3.1712   3.2093   3.2093   3.2684   3.2684
     3.3071   3.3071   3.3582   3.3582   3.4075   3.4075   3.5791   3.5791
     5.5080   5.5080   5.5418   5.5418   5.6929   5.6929   5.7559   5.7559
     6.6440   6.6440   6.7300   6.7300   6.8791   6.8791   7.0469   7.0469
     7.1250   7.1250   7.1949   7.1949   7.2989   7.2989   7.4421   7.4421
     7.5640   7.5640   7.6623   7.6623   7.6943   7.6943   7.7449   7.7449
     7.8136   7.8136   7.8766   7.8766   7.9422   7.9422   8.0080   8.0080
     8.1021   8.1021   8.1359   8.1359   8.2091   8.2091   8.2545   8.2545
     8.3370   8.3370   8.3873   8.3873   8.4629   8.4629   8.5106   8.5106
     8.6104   8.6104   8.7827   8.7827

          k = 0.5000 0.0000 0.7500 ( 80264 PWs)   bands (ev):

   -41.9204 -41.9204 -41.8161 -41.8161 -41.6491 -41.6491 -41.6121 -41.6121
   -41.5356 -41.5356 -41.5009 -41.5009 -41.4619 -41.4619 -41.4553 -41.4553
   -41.4361 -41.4361 -41.4198 -41.4198 -41.4072 -41.4072 -41.3950 -41.3950
   -41.3924 -41.3924 -41.3920 -41.3920 -41.3550 -41.3550 -41.3315 -41.3315
   -41.3292 -41.3292 -41.3265 -41.3265 -41.3136 -41.3136 -41.3082 -41.3082
   -41.2872 -41.2872 -41.2777 -41.2777 -41.2711 -41.2711 -41.2596 -41.2596
   -41.2399 -41.2399 -41.2365 -41.2365 -41.2292 -41.2292 -41.2226 -41.2226
   -41.2138 -41.2138 -41.1766 -41.1766 -41.1664 -41.1664 -41.1658 -41.1658
   -41.1516 -41.1516 -41.1057 -41.1057 -41.1055 -41.1055 -41.1028 -41.1028
   -41.0982 -41.0982 -41.0673 -41.0673 -41.0551 -41.0551 -41.0447 -41.0447
   -40.9882 -40.9882 -40.9795 -40.9795 -40.9775 -40.9775 -40.9546 -40.9546
   -40.8936 -40.8936 -40.8588 -40.8588 -40.8509 -40.8509 -40.7393 -40.7393
   -40.2217 -40.2217 -40.1726 -40.1726 -40.0847 -40.0847 -39.9513 -39.9513
   -39.9141 -39.9141 -39.8968 -39.8968 -39.8606 -39.8606 -39.8021 -39.8021
   -39.7678 -39.7678 -39.7640 -39.7640 -39.7595 -39.7595 -39.7401 -39.7401
   -39.7206 -39.7206 -39.7112 -39.7112 -39.7081 -39.7081 -39.6974 -39.6974
   -39.6954 -39.6954 -39.6930 -39.6930 -39.6917 -39.6917 -39.6819 -39.6819
   -39.6759 -39.6759 -39.6605 -39.6605 -39.6435 -39.6435 -39.6412 -39.6412
   -39.6359 -39.6359 -39.6270 -39.6270 -39.6235 -39.6235 -39.6045 -39.6045
   -39.5991 -39.5991 -39.5824 -39.5824 -39.5782 -39.5782 -39.5728 -39.5728
   -39.5620 -39.5620 -39.5554 -39.5554 -39.5430 -39.5430 -39.5399 -39.5399
   -39.5358 -39.5358 -39.5318 -39.5318 -39.5245 -39.5245 -39.5174 -39.5174
   -39.5121 -39.5121 -39.5089 -39.5089 -39.4973 -39.4973 -39.4795 -39.4795
   -39.4731 -39.4731 -39.4692 -39.4692 -39.4682 -39.4682 -39.4593 -39.4593
   -39.4392 -39.4392 -39.4240 -39.4240 -39.4205 -39.4205 -39.4105 -39.4105
   -39.4000 -39.4000 -39.3711 -39.3711 -39.3706 -39.3706 -39.3695 -39.3695
   -39.3689 -39.3689 -39.3465 -39.3465 -39.3221 -39.3221 -39.3196 -39.3196
   -39.3091 -39.3091 -39.2774 -39.2774 -39.2560 -39.2560 -39.2556 -39.2556
   -39.2534 -39.2534 -39.2362 -39.2362 -39.2071 -39.2071 -39.1675 -39.1675
   -39.1520 -39.1520 -39.1302 -39.1302 -39.0999 -39.0999 -39.0059 -39.0059
   -16.9525 -16.9525 -16.7214 -16.7214 -16.3804 -16.3804 -16.3469 -16.3469
   -16.3221 -16.3221 -16.2816 -16.2816 -16.2410 -16.2410 -15.8895 -15.8895
   -14.2874 -14.2874 -14.2805 -14.2805 -14.2573 -14.2573 -14.2393 -14.2393
   -14.2331 -14.2331 -14.2212 -14.2212 -14.1849 -14.1849 -14.1643 -14.1643
   -14.1212 -14.1212 -14.1010 -14.1010 -14.0884 -14.0884 -14.0815 -14.0815
   -14.0437 -14.0437 -14.0335 -14.0335 -14.0200 -14.0200 -14.0060 -14.0060
   -11.7569 -11.7569 -11.7332 -11.7331 -11.7230 -11.7230 -11.7000 -11.6999
   -11.6985 -11.6984 -11.6978 -11.6974 -11.6835 -11.6834 -11.6627 -11.6627
   -11.6501 -11.6501 -11.6412 -11.6412 -11.6203 -11.6203 -11.5936 -11.5936
   -11.5889 -11.5889 -11.5686 -11.5685 -11.5553 -11.5553 -11.5512 -11.5512
   -11.5235 -11.5235 -11.5094 -11.5094 -11.4993 -11.4993 -11.4944 -11.4943
   -11.4818 -11.4818 -11.4659 -11.4659 -11.4541 -11.4541 -11.4275 -11.4275
    -9.3173  -9.3173  -9.2504  -9.2504  -9.2087  -9.2087  -9.1027  -9.1027
    -9.0862  -9.0862  -9.0789  -9.0789  -8.9859  -8.9859  -8.9711  -8.9711
    -8.6276  -8.6275  -8.4219  -8.4218  -8.2876  -8.2873  -8.2274  -8.2267
    -8.1430  -8.1424  -8.1094  -8.1089  -8.0386  -8.0372  -8.0102  -8.0083
    -7.9636  -7.9618  -7.9219  -7.9202  -7.8896  -7.8868  -7.8573  -7.8554
    -7.8017  -7.8001  -7.7632  -7.7617  -7.7305  -7.7292  -7.6810  -7.6805
    -7.6712  -7.6691  -7.6492  -7.6475  -7.6435  -7.6425  -7.5919  -7.5910
    -7.5071  -7.5068  -7.4438  -7.4435  -7.3976  -7.3974  -7.3050  -7.3048
    -6.5985  -6.5985  -6.4729  -6.4729  -6.1879  -6.1879  -6.1340  -6.1340
    -6.1076  -6.1076  -6.0935  -6.0935  -6.0040  -6.0039  -5.9955  -5.9953
    -5.8553  -5.8553  -5.7613  -5.7613  -5.7030  -5.7029  -5.5442  -5.5442
    -5.5339  -5.5338  -5.4662  -5.4662  -5.1695  -5.1695  -5.1316  -5.1316
    -4.2040  -4.2039  -4.1319  -4.1315  -3.8482  -3.8462  -3.8105  -3.8083
    -3.7270  -3.7266  -3.6902  -3.6892  -3.6606  -3.6601  -3.5719  -3.5708
    -3.5229  -3.5220  -3.4983  -3.4980  -3.4412  -3.4407  -3.4168  -3.4159
    -3.3572  -3.3570  -3.2885  -3.2882  -3.1885  -3.1878  -3.0914  -3.0910
    -1.7560  -1.7559  -1.6345  -1.6344  -1.6038  -1.6036  -1.5168  -1.5166
    -1.4577  -1.4572  -1.4277  -1.4271  -1.3904  -1.3903  -1.3739  -1.3737
    -1.3415  -1.3414  -1.2247  -1.2243  -1.2130  -1.2129  -1.1191  -1.1186
    -1.1104  -1.1102  -1.0997  -1.0987  -1.0894  -1.0889  -1.0218  -1.0214
     0.2273   0.2288   0.3693   0.3807   0.4198   0.4291   0.4647   0.4721
     0.5214   0.5362   0.5892   0.5925   0.6198   0.6303   0.6897   0.7124
     0.8532   0.8598   0.8827   0.8973   0.9148   0.9294   1.0329   1.0529
     1.1370   1.1441   1.1617   1.1778   1.1834   1.1928   1.2468   1.2584
     1.3075   1.3374   1.4075   1.4232   1.4844   1.5005   1.5349   1.5401
     1.5699   1.5921   1.6094   1.6192   1.6629   1.6836   1.7185   1.7615
     1.7966   1.8132   1.8398   1.8659   1.8861   1.9019   1.9271   1.9418
     1.9535   1.9806   2.0055   2.0144   2.0377   2.0480   2.0612   2.0878
     2.1140   2.1282   2.1525   2.1802   2.1920   2.2170   2.2337   2.2516
     2.2753   2.2891   2.3117   2.3182   2.3300   2.3405   2.3567   2.3702
     2.3859   2.3938   2.4117   2.4282   2.4433   2.4525   2.4583   2.4837
     2.4902   2.5160   2.5337   2.5442   2.5642   2.5794   2.6016   2.6114
     2.6474   2.6614   2.6705   2.7007   2.7164   2.7430   2.7486   2.7553
     2.7807   2.8072   2.8332   2.8517   2.8727   2.8831   2.8898   2.9066
     2.9194   2.9322   2.9410   2.9592   2.9829   2.9972   3.0087   3.0202
     3.0417   3.0498   3.0758   3.0890   3.1070   3.1263   3.1339   3.1502
     3.1627   3.1880   3.1919   3.2069   3.2343   3.2597   3.2709   3.2885
     3.3388   3.3771   3.3908   3.4121   3.4388   3.4746   3.6819   3.6880
     5.2564   5.2852   5.4056   5.4299   5.6644   5.6936   5.8637   5.8774
     6.1442   6.1605   6.3282   6.3703   6.4328   6.4650   6.6128   6.6776
     7.0929   7.1348   7.1749   7.2029   7.2986   7.3377   7.4578   7.4720
     7.4968   7.5170   7.6138   7.6336   7.6528   7.6853   7.7100   7.7191
     7.7581   7.7997   7.8628   7.8727   7.9669   7.9916   8.1138   8.1263
     8.2382   8.2624   8.3018   8.3132   8.3561   8.3812   8.4106   8.4467
     8.4618   8.5024   8.5507   8.5733   8.6144   8.6356   8.6574   8.6832
     8.7445   8.7905   8.7998   8.8280

          k = 0.5000 0.2485 0.0000 ( 80228 PWs)   bands (ev):

   -41.9204 -41.9204 -41.8161 -41.8161 -41.6491 -41.6491 -41.6121 -41.6121
   -41.5356 -41.5356 -41.5009 -41.5009 -41.4619 -41.4619 -41.4553 -41.4553
   -41.4361 -41.4361 -41.4198 -41.4198 -41.4072 -41.4072 -41.3950 -41.3950
   -41.3924 -41.3924 -41.3920 -41.3920 -41.3550 -41.3550 -41.3315 -41.3315
   -41.3292 -41.3292 -41.3265 -41.3265 -41.3136 -41.3136 -41.3082 -41.3082
   -41.2872 -41.2872 -41.2777 -41.2777 -41.2711 -41.2711 -41.2596 -41.2596
   -41.2399 -41.2399 -41.2365 -41.2365 -41.2292 -41.2292 -41.2226 -41.2226
   -41.2138 -41.2138 -41.1766 -41.1766 -41.1664 -41.1664 -41.1658 -41.1658
   -41.1516 -41.1516 -41.1057 -41.1057 -41.1055 -41.1055 -41.1027 -41.1027
   -41.0982 -41.0982 -41.0673 -41.0673 -41.0551 -41.0551 -41.0446 -41.0446
   -40.9882 -40.9882 -40.9795 -40.9795 -40.9775 -40.9775 -40.9546 -40.9546
   -40.8936 -40.8936 -40.8588 -40.8588 -40.8508 -40.8508 -40.7393 -40.7393
   -40.2217 -40.2217 -40.1726 -40.1726 -40.0847 -40.0847 -39.9513 -39.9513
   -39.9141 -39.9141 -39.8968 -39.8968 -39.8606 -39.8606 -39.8021 -39.8021
   -39.7678 -39.7678 -39.7640 -39.7640 -39.7595 -39.7595 -39.7401 -39.7401
   -39.7205 -39.7205 -39.7112 -39.7112 -39.7081 -39.7081 -39.6974 -39.6974
   -39.6954 -39.6954 -39.6930 -39.6930 -39.6917 -39.6917 -39.6819 -39.6819
   -39.6759 -39.6759 -39.6605 -39.6605 -39.6435 -39.6435 -39.6412 -39.6412
   -39.6359 -39.6359 -39.6270 -39.6270 -39.6235 -39.6235 -39.6045 -39.6045
   -39.5991 -39.5991 -39.5824 -39.5824 -39.5781 -39.5781 -39.5728 -39.5728
   -39.5619 -39.5619 -39.5554 -39.5554 -39.5430 -39.5430 -39.5399 -39.5399
   -39.5358 -39.5358 -39.5318 -39.5318 -39.5245 -39.5245 -39.5174 -39.5174
   -39.5121 -39.5121 -39.5089 -39.5089 -39.4973 -39.4973 -39.4795 -39.4795
   -39.4731 -39.4731 -39.4692 -39.4692 -39.4682 -39.4682 -39.4592 -39.4592
   -39.4392 -39.4392 -39.4240 -39.4240 -39.4205 -39.4205 -39.4105 -39.4105
   -39.4000 -39.4000 -39.3711 -39.3711 -39.3706 -39.3706 -39.3695 -39.3695
   -39.3689 -39.3689 -39.3465 -39.3465 -39.3221 -39.3221 -39.3196 -39.3196
   -39.3091 -39.3091 -39.2774 -39.2774 -39.2560 -39.2560 -39.2556 -39.2556
   -39.2534 -39.2534 -39.2362 -39.2362 -39.2071 -39.2071 -39.1675 -39.1675
   -39.1520 -39.1520 -39.1302 -39.1302 -39.0999 -39.0999 -39.0059 -39.0059
   -16.9525 -16.9525 -16.7214 -16.7214 -16.3804 -16.3804 -16.3469 -16.3469
   -16.3221 -16.3221 -16.2815 -16.2815 -16.2410 -16.2410 -15.8895 -15.8895
   -14.2874 -14.2874 -14.2805 -14.2805 -14.2573 -14.2573 -14.2393 -14.2393
   -14.2331 -14.2331 -14.2212 -14.2212 -14.1849 -14.1849 -14.1643 -14.1643
   -14.1212 -14.1212 -14.1010 -14.1010 -14.0884 -14.0884 -14.0815 -14.0815
   -14.0436 -14.0436 -14.0335 -14.0335 -14.0199 -14.0199 -14.0060 -14.0060
   -11.7569 -11.7569 -11.7334 -11.7334 -11.7226 -11.7224 -11.7001 -11.7000
   -11.6986 -11.6985 -11.6974 -11.6974 -11.6836 -11.6835 -11.6627 -11.6627
   -11.6501 -11.6500 -11.6412 -11.6412 -11.6202 -11.6200 -11.5940 -11.5938
   -11.5890 -11.5888 -11.5687 -11.5687 -11.5553 -11.5553 -11.5512 -11.5512
   -11.5235 -11.5235 -11.5093 -11.5093 -11.4993 -11.4993 -11.4938 -11.4935
   -11.4821 -11.4819 -11.4662 -11.4661 -11.4541 -11.4540 -11.4275 -11.4275
    -9.3175  -9.3175  -9.2504  -9.2504  -9.2083  -9.2083  -9.1018  -9.1018
    -9.0861  -9.0861  -9.0797  -9.0797  -8.9851  -8.9850  -8.9725  -8.9725
    -8.6264  -8.6264  -8.4176  -8.4175  -8.3042  -8.3042  -8.2271  -8.2266
    -8.1445  -8.1441  -8.0998  -8.0994  -8.0269  -8.0258  -7.9810  -7.9794
    -7.9704  -7.9701  -7.9518  -7.9515  -7.9003  -7.8978  -7.8419  -7.8402
    -7.8042  -7.8018  -7.7603  -7.7597  -7.7263  -7.7256  -7.6887  -7.6883
    -7.6765  -7.6759  -7.6582  -7.6570  -7.6352  -7.6334  -7.5803  -7.5791
    -7.5123  -7.5117  -7.4437  -7.4437  -7.3971  -7.3970  -7.3063  -7.3060
    -6.5983  -6.5983  -6.4727  -6.4727  -6.1873  -6.1873  -6.1341  -6.1341
    -6.1058  -6.1058  -6.0947  -6.0947  -6.0053  -6.0053  -5.9940  -5.9940
    -5.8559  -5.8559  -5.7618  -5.7618  -5.7030  -5.7030  -5.5442  -5.5442
    -5.5339  -5.5339  -5.4662  -5.4661  -5.1694  -5.1694  -5.1314  -5.1313
    -4.2084  -4.2080  -4.1375  -4.1369  -3.8619  -3.8613  -3.8243  -3.8237
    -3.7214  -3.7192  -3.6808  -3.6785  -3.6537  -3.6529  -3.5522  -3.5500
    -3.5325  -3.5319  -3.4978  -3.4969  -3.4412  -3.4411  -3.4226  -3.4223
    -3.3530  -3.3526  -3.2883  -3.2881  -3.1803  -3.1797  -3.0790  -3.0781
    -1.7552  -1.7551  -1.6345  -1.6341  -1.6036  -1.6033  -1.5172  -1.5171
    -1.4575  -1.4574  -1.4262  -1.4260  -1.3908  -1.3906  -1.3737  -1.3736
    -1.3427  -1.3426  -1.2249  -1.2246  -1.2127  -1.2125  -1.1210  -1.1204
    -1.1139  -1.1133  -1.0998  -1.0995  -1.0891  -1.0890  -1.0186  -1.0184
     0.2634   0.2681   0.3576   0.3715   0.3850   0.3938   0.4173   0.4277
     0.4856   0.4979   0.5413   0.5495   0.6149   0.6287   0.7653   0.7732
     0.8484   0.8532   0.8913   0.9146   0.9288   0.9416   1.0490   1.0649
     1.1352   1.1390   1.1488   1.1698   1.1830   1.2016   1.2286   1.2702
     1.2933   1.3245   1.4242   1.4507   1.4764   1.4989   1.5278   1.5330
     1.5557   1.5814   1.6044   1.6296   1.6571   1.6842   1.7439   1.7685
     1.7965   1.8100   1.8462   1.8601   1.8879   1.9185   1.9335   1.9402
     1.9706   1.9856   2.0049   2.0147   2.0314   2.0495   2.0742   2.0939
     2.1014   2.1241   2.1542   2.1669   2.1827   2.2091   2.2218   2.2539
     2.2745   2.2869   2.2931   2.3051   2.3258   2.3429   2.3474   2.3609
     2.3803   2.3957   2.4189   2.4235   2.4457   2.4561   2.4754   2.4941
     2.4995   2.5197   2.5303   2.5388   2.5626   2.5831   2.6152   2.6271
     2.6388   2.6587   2.6665   2.6998   2.7187   2.7345   2.7385   2.7545
     2.7899   2.8095   2.8329   2.8437   2.8585   2.8742   2.8838   2.8995
     2.9175   2.9314   2.9527   2.9687   2.9862   2.9976   3.0085   3.0307
     3.0417   3.0544   3.0704   3.0986   3.1177   3.1288   3.1388   3.1569
     3.1713   3.1883   3.2096   3.2240   3.2561   3.2737   3.2804   3.2914
     3.3330   3.3684   3.4022   3.4206   3.4706   3.4919   3.6871   3.7678
     5.2392   5.2535   5.3256   5.4974   5.7007   5.7159   5.8208   5.8883
     6.1130   6.1515   6.2877   6.3670   6.4108   6.4483   6.5156   6.7163
     7.0640   7.1295   7.1654   7.2100   7.2874   7.3468   7.4498   7.4626
     7.5071   7.5180   7.5654   7.5964   7.6141   7.6294   7.7169   7.7736
     7.7932   7.8112   7.8587   7.8638   7.9685   7.9818   8.0877   8.1223
     8.1904   8.2044   8.2613   8.2831   8.3579   8.3807   8.4261   8.4472
     8.4742   8.5464   8.5560   8.5758   8.6033   8.6309   8.6645   8.6807
     8.7393   8.7934   8.8130   8.8252

          k = 0.5000 0.2485 0.2500 ( 80230 PWs)   bands (ev):

   -41.9204 -41.9204 -41.8161 -41.8161 -41.6491 -41.6491 -41.6121 -41.6121
   -41.5356 -41.5356 -41.5009 -41.5009 -41.4619 -41.4619 -41.4553 -41.4553
   -41.4361 -41.4361 -41.4198 -41.4198 -41.4072 -41.4072 -41.3950 -41.3950
   -41.3924 -41.3924 -41.3920 -41.3920 -41.3550 -41.3550 -41.3315 -41.3315
   -41.3292 -41.3292 -41.3265 -41.3265 -41.3136 -41.3136 -41.3082 -41.3082
   -41.2872 -41.2872 -41.2777 -41.2777 -41.2711 -41.2711 -41.2596 -41.2596
   -41.2399 -41.2399 -41.2365 -41.2365 -41.2292 -41.2292 -41.2226 -41.2226
   -41.2138 -41.2138 -41.1766 -41.1766 -41.1664 -41.1664 -41.1658 -41.1658
   -41.1516 -41.1516 -41.1057 -41.1057 -41.1055 -41.1055 -41.1027 -41.1027
   -41.0982 -41.0982 -41.0673 -41.0673 -41.0551 -41.0551 -41.0446 -41.0446
   -40.9882 -40.9882 -40.9795 -40.9795 -40.9775 -40.9775 -40.9546 -40.9546
   -40.8936 -40.8936 -40.8588 -40.8588 -40.8509 -40.8509 -40.7393 -40.7393
   -40.2217 -40.2217 -40.1726 -40.1726 -40.0847 -40.0847 -39.9513 -39.9513
   -39.9141 -39.9141 -39.8968 -39.8968 -39.8606 -39.8606 -39.8021 -39.8021
   -39.7678 -39.7678 -39.7640 -39.7640 -39.7595 -39.7595 -39.7401 -39.7401
   -39.7205 -39.7205 -39.7112 -39.7112 -39.7081 -39.7081 -39.6974 -39.6974
   -39.6954 -39.6954 -39.6930 -39.6930 -39.6917 -39.6917 -39.6819 -39.6819
   -39.6759 -39.6759 -39.6605 -39.6605 -39.6435 -39.6435 -39.6412 -39.6412
   -39.6359 -39.6359 -39.6270 -39.6270 -39.6235 -39.6235 -39.6045 -39.6045
   -39.5991 -39.5991 -39.5824 -39.5824 -39.5781 -39.5781 -39.5728 -39.5728
   -39.5619 -39.5619 -39.5554 -39.5554 -39.5430 -39.5430 -39.5399 -39.5399
   -39.5358 -39.5358 -39.5318 -39.5318 -39.5245 -39.5245 -39.5174 -39.5174
   -39.5121 -39.5121 -39.5089 -39.5089 -39.4973 -39.4973 -39.4795 -39.4795
   -39.4731 -39.4731 -39.4692 -39.4692 -39.4682 -39.4682 -39.4592 -39.4592
   -39.4392 -39.4392 -39.4240 -39.4240 -39.4205 -39.4205 -39.4105 -39.4105
   -39.4000 -39.4000 -39.3711 -39.3711 -39.3706 -39.3706 -39.3695 -39.3695
   -39.3689 -39.3689 -39.3465 -39.3465 -39.3221 -39.3221 -39.3196 -39.3196
   -39.3091 -39.3091 -39.2774 -39.2774 -39.2560 -39.2560 -39.2556 -39.2556
   -39.2534 -39.2534 -39.2362 -39.2362 -39.2071 -39.2071 -39.1675 -39.1675
   -39.1520 -39.1520 -39.1302 -39.1302 -39.0999 -39.0999 -39.0059 -39.0059
   -16.9525 -16.9525 -16.7214 -16.7214 -16.3804 -16.3804 -16.3469 -16.3469
   -16.3221 -16.3221 -16.2815 -16.2815 -16.2410 -16.2410 -15.8895 -15.8895
   -14.2874 -14.2874 -14.2805 -14.2805 -14.2573 -14.2572 -14.2393 -14.2393
   -14.2331 -14.2331 -14.2212 -14.2212 -14.1849 -14.1849 -14.1643 -14.1643
   -14.1212 -14.1212 -14.1010 -14.1010 -14.0884 -14.0884 -14.0815 -14.0815
   -14.0436 -14.0436 -14.0335 -14.0335 -14.0199 -14.0199 -14.0060 -14.0060
   -11.7569 -11.7569 -11.7331 -11.7331 -11.7226 -11.7224 -11.7003 -11.7001
   -11.6985 -11.6984 -11.6978 -11.6975 -11.6836 -11.6836 -11.6627 -11.6627
   -11.6500 -11.6500 -11.6412 -11.6412 -11.6200 -11.6199 -11.5940 -11.5938
   -11.5890 -11.5888 -11.5686 -11.5685 -11.5553 -11.5553 -11.5512 -11.5512
   -11.5235 -11.5235 -11.5094 -11.5094 -11.4993 -11.4993 -11.4939 -11.4935
   -11.4821 -11.4820 -11.4663 -11.4662 -11.4541 -11.4540 -11.4275 -11.4275
    -9.3173  -9.3173  -9.2504  -9.2504  -9.2087  -9.2087  -9.1020  -9.1020
    -9.0862  -9.0862  -9.0795  -9.0795  -8.9847  -8.9846  -8.9723  -8.9723
    -8.6266  -8.6265  -8.4159  -8.4158  -8.2996  -8.2994  -8.2198  -8.2189
    -8.1524  -8.1519  -8.1100  -8.1091  -8.0342  -8.0326  -8.0208  -8.0186
    -7.9673  -7.9653  -7.9237  -7.9222  -7.8928  -7.8903  -7.8403  -7.8386
    -7.7974  -7.7951  -7.7640  -7.7628  -7.7330  -7.7321  -7.6873  -7.6868
    -7.6728  -7.6719  -7.6480  -7.6448  -7.6296  -7.6270  -7.5836  -7.5829
    -7.5141  -7.5130  -7.4439  -7.4436  -7.3988  -7.3987  -7.3095  -7.3093
    -6.5984  -6.5984  -6.4728  -6.4728  -6.1874  -6.1874  -6.1341  -6.1341
    -6.1057  -6.1056  -6.0950  -6.0950  -6.0040  -6.0039  -5.9952  -5.9951
    -5.8553  -5.8553  -5.7614  -5.7614  -5.7030  -5.7030  -5.5441  -5.5441
    -5.5338  -5.5338  -5.4662  -5.4662  -5.1695  -5.1695  -5.1316  -5.1316
    -4.1551  -4.1546  -4.0804  -4.0797  -3.8562  -3.8554  -3.7909  -3.7903
    -3.7530  -3.7527  -3.6749  -3.6742  -3.6397  -3.6385  -3.6284  -3.6270
    -3.5366  -3.5357  -3.5015  -3.5012  -3.4454  -3.4449  -3.4227  -3.4222
    -3.3684  -3.3677  -3.3333  -3.3328  -3.2149  -3.2135  -3.1368  -3.1364
    -1.7553  -1.7551  -1.6336  -1.6335  -1.6036  -1.6034  -1.5171  -1.5169
    -1.4574  -1.4571  -1.4273  -1.4266  -1.3902  -1.3901  -1.3737  -1.3735
    -1.3413  -1.3412  -1.2240  -1.2234  -1.2134  -1.2132  -1.1189  -1.1180
    -1.1107  -1.1106  -1.1000  -1.0991  -1.0893  -1.0888  -1.0214  -1.0210
     0.3336   0.3646   0.4395   0.4587   0.4771   0.4896   0.5560   0.5650
     0.5859   0.5993   0.6239   0.6306   0.6705   0.6953   0.7837   0.7942
     0.8664   0.8814   0.9059   0.9194   0.9325   0.9563   1.0405   1.0651
     1.1205   1.1388   1.1521   1.1735   1.1819   1.2061   1.2283   1.2748
     1.3053   1.3348   1.4031   1.4105   1.4452   1.4859   1.5094   1.5317
     1.5438   1.5559   1.5824   1.6074   1.6393   1.6554   1.7119   1.7342
     1.7627   1.8073   1.8243   1.8485   1.8772   1.8974   1.9242   1.9329
     1.9498   1.9693   1.9906   2.0039   2.0162   2.0340   2.0538   2.0615
     2.0909   2.1199   2.1382   2.1469   2.1781   2.1856   2.2138   2.2245
     2.2362   2.2433   2.2683   2.2856   2.2973   2.3041   2.3293   2.3354
     2.3463   2.3654   2.3690   2.3913   2.4041   2.4153   2.4350   2.4557
     2.4700   2.4885   2.5012   2.5265   2.5369   2.5560   2.5847   2.5926
     2.6366   2.6467   2.6642   2.7044   2.7110   2.7344   2.7469   2.7684
     2.7902   2.8031   2.8364   2.8399   2.8627   2.8772   2.8902   2.9077
     2.9162   2.9192   2.9461   2.9544   2.9728   2.9854   3.0091   3.0131
     3.0282   3.0555   3.0623   3.0760   3.0942   3.1089   3.1201   3.1363
     3.1596   3.1693   3.1819   3.1965   3.2099   3.2240   3.2318   3.2565
     3.2776   3.2863   3.3246   3.3388   3.3766   3.4150   3.4953   3.5509
     5.5188   5.5526   5.6711   5.8098   5.9357   5.9825   6.1555   6.1675
     6.1788   6.2827   6.3143   6.4070   6.5811   6.6449   6.7567   6.9031
     7.0376   7.1065   7.1493   7.2039   7.2950   7.3697   7.4620   7.4736
     7.5534   7.5652   7.5789   7.6101   7.6450   7.6524   7.6946   7.7364
     7.7619   7.8089   7.8966   7.9071   7.9924   8.0056   8.0644   8.0972
     8.1454   8.1704   8.2092   8.2402   8.2997   8.3340   8.3556   8.3697
     8.3887   8.4306   8.4639   8.5102   8.5454   8.5770   8.5845   8.6189
     8.6268   8.6349   8.6791   8.7472

          k = 0.5000 0.2485 0.5000 ( 80184 PWs)   bands (ev):

   -41.9204 -41.9204 -41.8161 -41.8161 -41.6491 -41.6491 -41.6121 -41.6121
   -41.5356 -41.5356 -41.5009 -41.5009 -41.4619 -41.4619 -41.4553 -41.4553
   -41.4361 -41.4361 -41.4198 -41.4198 -41.4072 -41.4072 -41.3950 -41.3950
   -41.3924 -41.3924 -41.3920 -41.3920 -41.3550 -41.3550 -41.3315 -41.3315
   -41.3292 -41.3292 -41.3265 -41.3265 -41.3135 -41.3135 -41.3082 -41.3082
   -41.2872 -41.2872 -41.2777 -41.2777 -41.2711 -41.2711 -41.2596 -41.2596
   -41.2399 -41.2399 -41.2365 -41.2365 -41.2292 -41.2292 -41.2226 -41.2226
   -41.2138 -41.2138 -41.1766 -41.1766 -41.1664 -41.1664 -41.1658 -41.1658
   -41.1516 -41.1516 -41.1057 -41.1057 -41.1055 -41.1055 -41.1027 -41.1027
   -41.0981 -41.0981 -41.0673 -41.0673 -41.0550 -41.0550 -41.0446 -41.0446
   -40.9882 -40.9882 -40.9795 -40.9795 -40.9775 -40.9775 -40.9546 -40.9546
   -40.8936 -40.8936 -40.8588 -40.8588 -40.8508 -40.8508 -40.7393 -40.7393
   -40.2217 -40.2217 -40.1726 -40.1726 -40.0847 -40.0847 -39.9513 -39.9513
   -39.9141 -39.9141 -39.8968 -39.8968 -39.8606 -39.8606 -39.8020 -39.8020
   -39.7678 -39.7678 -39.7640 -39.7640 -39.7595 -39.7595 -39.7401 -39.7401
   -39.7205 -39.7205 -39.7112 -39.7112 -39.7081 -39.7081 -39.6974 -39.6974
   -39.6954 -39.6954 -39.6930 -39.6930 -39.6917 -39.6917 -39.6819 -39.6819
   -39.6759 -39.6759 -39.6605 -39.6605 -39.6435 -39.6435 -39.6412 -39.6412
   -39.6359 -39.6359 -39.6270 -39.6270 -39.6235 -39.6235 -39.6045 -39.6045
   -39.5991 -39.5991 -39.5824 -39.5824 -39.5781 -39.5781 -39.5728 -39.5728
   -39.5619 -39.5619 -39.5554 -39.5554 -39.5430 -39.5430 -39.5399 -39.5399
   -39.5358 -39.5358 -39.5318 -39.5318 -39.5245 -39.5245 -39.5174 -39.5174
   -39.5121 -39.5121 -39.5089 -39.5089 -39.4973 -39.4973 -39.4794 -39.4794
   -39.4731 -39.4731 -39.4692 -39.4692 -39.4682 -39.4682 -39.4592 -39.4592
   -39.4392 -39.4392 -39.4240 -39.4240 -39.4205 -39.4205 -39.4105 -39.4105
   -39.4000 -39.4000 -39.3711 -39.3711 -39.3706 -39.3706 -39.3695 -39.3695
   -39.3689 -39.3689 -39.3465 -39.3465 -39.3221 -39.3221 -39.3195 -39.3195
   -39.3091 -39.3091 -39.2774 -39.2774 -39.2560 -39.2560 -39.2556 -39.2556
   -39.2534 -39.2534 -39.2362 -39.2362 -39.2071 -39.2071 -39.1674 -39.1674
   -39.1520 -39.1520 -39.1302 -39.1302 -39.0999 -39.0999 -39.0059 -39.0059
   -16.9525 -16.9525 -16.7214 -16.7214 -16.3804 -16.3804 -16.3469 -16.3469
   -16.3220 -16.3220 -16.2815 -16.2815 -16.2410 -16.2410 -15.8895 -15.8895
   -14.2874 -14.2874 -14.2805 -14.2805 -14.2572 -14.2572 -14.2393 -14.2393
   -14.2331 -14.2330 -14.2212 -14.2212 -14.1849 -14.1849 -14.1643 -14.1643
   -14.1212 -14.1212 -14.1010 -14.1010 -14.0884 -14.0884 -14.0815 -14.0815
   -14.0436 -14.0436 -14.0335 -14.0335 -14.0199 -14.0199 -14.0060 -14.0060
   -11.7568 -11.7568 -11.7328 -11.7328 -11.7226 -11.7224 -11.7003 -11.7002
   -11.6984 -11.6984 -11.6979 -11.6978 -11.6837 -11.6836 -11.6627 -11.6627
   -11.6500 -11.6500 -11.6412 -11.6411 -11.6199 -11.6197 -11.5940 -11.5938
   -11.5890 -11.5888 -11.5684 -11.5684 -11.5554 -11.5554 -11.5512 -11.5512
   -11.5235 -11.5235 -11.5095 -11.5095 -11.4993 -11.4993 -11.4939 -11.4936
   -11.4822 -11.4820 -11.4665 -11.4663 -11.4541 -11.4540 -11.4275 -11.4275
    -9.3171  -9.3171  -9.2504  -9.2504  -9.2090  -9.2090  -9.1021  -9.1021
    -9.0862  -9.0862  -9.0794  -9.0794  -8.9841  -8.9841  -8.9723  -8.9723
    -8.6265  -8.6265  -8.4146  -8.4145  -8.2938  -8.2937  -8.2119  -8.2110
    -8.1608  -8.1603  -8.1161  -8.1156  -8.0611  -8.0599  -8.0160  -8.0151
    -7.9775  -7.9770  -7.9221  -7.9206  -7.8682  -7.8671  -7.8364  -7.8338
    -7.7921  -7.7909  -7.7689  -7.7683  -7.7390  -7.7385  -7.6840  -7.6830
    -7.6725  -7.6704  -7.6402  -7.6377  -7.6228  -7.6209  -7.5828  -7.5817
    -7.5178  -7.5168  -7.4440  -7.4439  -7.4005  -7.4004  -7.3126  -7.3123
    -6.5984  -6.5984  -6.4729  -6.4729  -6.1874  -6.1874  -6.1340  -6.1340
    -6.1057  -6.1056  -6.0949  -6.0949  -6.0017  -6.0017  -5.9971  -5.9971
    -5.8548  -5.8548  -5.7610  -5.7610  -5.7032  -5.7031  -5.5440  -5.5440
    -5.5338  -5.5338  -5.4661  -5.4661  -5.1695  -5.1695  -5.1317  -5.1317
    -4.0609  -4.0602  -4.0057  -4.0049  -3.8610  -3.8602  -3.8264  -3.8257
    -3.7965  -3.7962  -3.6990  -3.6981  -3.6503  -3.6496  -3.6158  -3.6147
    -3.5091  -3.5084  -3.4936  -3.4934  -3.4513  -3.4509  -3.4182  -3.4177
    -3.4037  -3.4026  -3.3670  -3.3660  -3.3226  -3.3222  -3.1573  -3.1572
    -1.7552  -1.7552  -1.6328  -1.6328  -1.6036  -1.6035  -1.5169  -1.5167
    -1.4571  -1.4569  -1.4274  -1.4273  -1.3900  -1.3899  -1.3734  -1.3733
    -1.3401  -1.3400  -1.2231  -1.2228  -1.2139  -1.2137  -1.1169  -1.1167
    -1.1081  -1.1078  -1.0985  -1.0983  -1.0894  -1.0893  -1.0240  -1.0239
     0.3607   0.3860   0.4980   0.5012   0.5872   0.5940   0.6731   0.6982
     0.7068   0.7189   0.7562   0.7689   0.7993   0.8114   0.8306   0.8415
     0.8536   0.8790   0.9791   0.9883   1.0504   1.0733   1.1117   1.1299
     1.1391   1.1657   1.1911   1.2010   1.2240   1.2280   1.2441   1.2613
     1.2837   1.3031   1.3292   1.3515   1.3825   1.3896   1.4359   1.4454
     1.4592   1.4892   1.5228   1.5516   1.5927   1.6105   1.6523   1.6670
     1.7386   1.7692   1.7976   1.8087   1.8333   1.8524   1.8693   1.8922
     1.9146   1.9439   1.9614   1.9775   1.9934   2.0149   2.0292   2.0542
     2.0641   2.0855   2.1041   2.1195   2.1456   2.1591   2.1832   2.1979
     2.2038   2.2111   2.2341   2.2398   2.2707   2.2855   2.2985   2.3071
     2.3212   2.3292   2.3500   2.3581   2.3790   2.3842   2.4047   2.4237
     2.4394   2.4530   2.4795   2.4936   2.5141   2.5419   2.5564   2.5713
     2.6293   2.6532   2.6694   2.6978   2.7054   2.7416   2.7540   2.7714
     2.7908   2.8056   2.8265   2.8525   2.8622   2.8743   2.8935   2.9078
     2.9221   2.9273   2.9424   2.9547   2.9633   2.9825   2.9845   3.0013
     3.0119   3.0386   3.0513   3.0614   3.0750   3.0879   3.1030   3.1115
     3.1301   3.1483   3.1563   3.1699   3.1754   3.1972   3.2136   3.2322
     3.2479   3.2585   3.2844   3.3018   3.3312   3.3671   3.4173   3.4625
     5.8120   5.8266   5.8637   5.9250   5.9974   6.0822   6.1147   6.2340
     6.5943   6.6260   6.6761   6.7388   6.8250   6.8865   6.9787   7.0653
     7.1457   7.1826   7.2313   7.2726   7.3181   7.3545   7.4729   7.5444
     7.5794   7.6028   7.6484   7.6776   7.7003   7.7242   7.7574   7.7686
     7.8106   7.8344   7.8766   7.9020   7.9292   7.9473   7.9981   8.0119
     8.0583   8.0860   8.1175   8.1368   8.1565   8.1836   8.2015   8.2313
     8.2790   8.2945   8.3089   8.3290   8.3542   8.3895   8.4157   8.4337
     8.5140   8.5426   8.5725   8.6080

          k = 0.5000 0.2485 0.7500 ( 80230 PWs)   bands (ev):

   -41.9204 -41.9204 -41.8161 -41.8161 -41.6491 -41.6491 -41.6121 -41.6121
   -41.5356 -41.5356 -41.5009 -41.5009 -41.4619 -41.4619 -41.4553 -41.4553
   -41.4361 -41.4361 -41.4198 -41.4198 -41.4072 -41.4072 -41.3950 -41.3950
   -41.3924 -41.3924 -41.3920 -41.3920 -41.3550 -41.3550 -41.3315 -41.3315
   -41.3292 -41.3292 -41.3265 -41.3265 -41.3136 -41.3136 -41.3082 -41.3082
   -41.2872 -41.2872 -41.2777 -41.2777 -41.2711 -41.2711 -41.2596 -41.2596
   -41.2399 -41.2399 -41.2365 -41.2365 -41.2292 -41.2292 -41.2226 -41.2226
   -41.2138 -41.2138 -41.1766 -41.1766 -41.1664 -41.1664 -41.1658 -41.1658
   -41.1516 -41.1516 -41.1057 -41.1057 -41.1055 -41.1055 -41.1027 -41.1027
   -41.0982 -41.0982 -41.0673 -41.0673 -41.0551 -41.0551 -41.0446 -41.0446
   -40.9882 -40.9882 -40.9795 -40.9795 -40.9775 -40.9775 -40.9546 -40.9546
   -40.8936 -40.8936 -40.8588 -40.8588 -40.8509 -40.8509 -40.7393 -40.7393
   -40.2217 -40.2217 -40.1726 -40.1726 -40.0847 -40.0847 -39.9513 -39.9513
   -39.9141 -39.9141 -39.8968 -39.8968 -39.8606 -39.8606 -39.8021 -39.8021
   -39.7678 -39.7678 -39.7640 -39.7640 -39.7595 -39.7595 -39.7401 -39.7401
   -39.7205 -39.7205 -39.7112 -39.7112 -39.7081 -39.7081 -39.6974 -39.6974
   -39.6954 -39.6954 -39.6930 -39.6930 -39.6917 -39.6917 -39.6819 -39.6819
   -39.6759 -39.6759 -39.6605 -39.6605 -39.6435 -39.6435 -39.6412 -39.6412
   -39.6359 -39.6359 -39.6270 -39.6270 -39.6235 -39.6235 -39.6045 -39.6045
   -39.5991 -39.5991 -39.5824 -39.5824 -39.5781 -39.5781 -39.5728 -39.5728
   -39.5619 -39.5619 -39.5554 -39.5554 -39.5430 -39.5430 -39.5399 -39.5399
   -39.5358 -39.5358 -39.5318 -39.5318 -39.5245 -39.5245 -39.5174 -39.5174
   -39.5121 -39.5121 -39.5089 -39.5089 -39.4973 -39.4973 -39.4795 -39.4795
   -39.4731 -39.4731 -39.4692 -39.4692 -39.4682 -39.4682 -39.4592 -39.4592
   -39.4392 -39.4392 -39.4240 -39.4240 -39.4205 -39.4205 -39.4105 -39.4105
   -39.4000 -39.4000 -39.3711 -39.3711 -39.3706 -39.3706 -39.3695 -39.3695
   -39.3689 -39.3689 -39.3465 -39.3465 -39.3221 -39.3221 -39.3196 -39.3196
   -39.3091 -39.3091 -39.2774 -39.2774 -39.2560 -39.2560 -39.2556 -39.2556
   -39.2534 -39.2534 -39.2362 -39.2362 -39.2071 -39.2071 -39.1675 -39.1675
   -39.1520 -39.1520 -39.1302 -39.1302 -39.0999 -39.0999 -39.0059 -39.0059
   -16.9525 -16.9525 -16.7214 -16.7214 -16.3804 -16.3804 -16.3469 -16.3469
   -16.3221 -16.3221 -16.2815 -16.2815 -16.2410 -16.2410 -15.8895 -15.8895
   -14.2874 -14.2874 -14.2805 -14.2805 -14.2573 -14.2573 -14.2393 -14.2393
   -14.2331 -14.2331 -14.2212 -14.2212 -14.1849 -14.1849 -14.1643 -14.1643
   -14.1212 -14.1212 -14.1010 -14.1010 -14.0884 -14.0884 -14.0815 -14.0815
   -14.0436 -14.0436 -14.0335 -14.0335 -14.0199 -14.0199 -14.0060 -14.0060
   -11.7569 -11.7569 -11.7331 -11.7331 -11.7226 -11.7224 -11.7003 -11.7000
   -11.6985 -11.6984 -11.6978 -11.6975 -11.6836 -11.6836 -11.6627 -11.6627
   -11.6500 -11.6500 -11.6412 -11.6412 -11.6200 -11.6199 -11.5940 -11.5938
   -11.5890 -11.5888 -11.5686 -11.5686 -11.5553 -11.5553 -11.5512 -11.5512
   -11.5235 -11.5235 -11.5094 -11.5094 -11.4993 -11.4993 -11.4939 -11.4935
   -11.4821 -11.4820 -11.4664 -11.4662 -11.4541 -11.4540 -11.4275 -11.4275
    -9.3173  -9.3173  -9.2504  -9.2504  -9.2087  -9.2087  -9.1019  -9.1019
    -9.0862  -9.0862  -9.0796  -9.0796  -8.9845  -8.9844  -8.9725  -8.9725
    -8.6264  -8.6264  -8.4163  -8.4161  -8.2993  -8.2990  -8.2224  -8.2213
    -8.1464  -8.1453  -8.1085  -8.1077  -8.0509  -8.0499  -8.0097  -8.0071
    -7.9665  -7.9650  -7.9229  -7.9213  -7.8956  -7.8927  -7.8382  -7.8354
    -7.7989  -7.7968  -7.7631  -7.7612  -7.7331  -7.7319  -7.6843  -7.6833
    -7.6777  -7.6761  -7.6496  -7.6484  -7.6278  -7.6259  -7.5811  -7.5793
    -7.5155  -7.5150  -7.4441  -7.4437  -7.3988  -7.3986  -7.3093  -7.3089
    -6.5984  -6.5984  -6.4728  -6.4728  -6.1874  -6.1874  -6.1340  -6.1340
    -6.1059  -6.1059  -6.0947  -6.0946  -6.0038  -6.0036  -5.9954  -5.9953
    -5.8554  -5.8553  -5.7614  -5.7614  -5.7031  -5.7031  -5.5441  -5.5441
    -5.5340  -5.5340  -5.4661  -5.4661  -5.1695  -5.1695  -5.1315  -5.1315
    -4.1526  -4.1523  -4.0793  -4.0785  -3.8546  -3.8537  -3.8122  -3.8107
    -3.7480  -3.7473  -3.6699  -3.6689  -3.6465  -3.6452  -3.6202  -3.6185
    -3.5355  -3.5344  -3.4969  -3.4965  -3.4447  -3.4440  -3.4212  -3.4202
    -3.3741  -3.3736  -3.3231  -3.3227  -3.2215  -3.2206  -3.1392  -3.1387
    -1.7553  -1.7552  -1.6337  -1.6335  -1.6036  -1.6035  -1.5171  -1.5169
    -1.4576  -1.4569  -1.4268  -1.4263  -1.3905  -1.3904  -1.3736  -1.3734
    -1.3414  -1.3412  -1.2241  -1.2237  -1.2134  -1.2131  -1.1176  -1.1171
    -1.1129  -1.1125  -1.0989  -1.0980  -1.0896  -1.0891  -1.0213  -1.0208
     0.3520   0.3815   0.4292   0.4489   0.4707   0.4866   0.5644   0.5755
     0.5929   0.6096   0.6199   0.6300   0.6593   0.6845   0.7534   0.7664
     0.8698   0.8772   0.9140   0.9279   0.9492   0.9802   1.0383   1.0571
     1.1257   1.1415   1.1600   1.1721   1.1931   1.2048   1.2310   1.2584
     1.2880   1.3188   1.3959   1.4276   1.4599   1.4710   1.5072   1.5333
     1.5487   1.5699   1.5902   1.6012   1.6343   1.6631   1.6912   1.7266
     1.7799   1.8083   1.8316   1.8453   1.8808   1.8877   1.9010   1.9286
     1.9443   1.9631   1.9836   1.9987   2.0239   2.0432   2.0612   2.0655
     2.0950   2.1154   2.1419   2.1488   2.1610   2.1957   2.2145   2.2268
     2.2492   2.2558   2.2633   2.2784   2.2965   2.3052   2.3233   2.3376
     2.3444   2.3608   2.3778   2.3891   2.4079   2.4138   2.4305   2.4577
     2.4752   2.4926   2.5069   2.5251   2.5358   2.5599   2.5718   2.5960
     2.6216   2.6499   2.6611   2.7053   2.7169   2.7384   2.7514   2.7839
     2.7884   2.8149   2.8252   2.8330   2.8621   2.8847   2.8901   2.9043
     2.9113   2.9265   2.9480   2.9613   2.9784   2.9833   3.0046   3.0126
     3.0448   3.0547   3.0687   3.0822   3.1064   3.1178   3.1221   3.1356
     3.1587   3.1679   3.1843   3.2053   3.2083   3.2163   3.2315   3.2402
     3.2775   3.2939   3.3032   3.3238   3.3614   3.3988   3.4879   3.5646
     5.5338   5.5445   5.6406   5.8175   5.9358   6.0131   6.1447   6.1675
     6.2242   6.2817   6.3276   6.4090   6.5701   6.5882   6.7179   6.9176
     7.0497   7.1048   7.1460   7.2125   7.2882   7.3641   7.4696   7.4916
     7.5337   7.5471   7.5964   7.6205   7.6577   7.6649   7.6985   7.7407
     7.7774   7.8150   7.8780   7.8965   7.9896   8.0089   8.0586   8.0986
     8.1437   8.1924   8.2158   8.2455   8.2920   8.3188   8.3231   8.3395
     8.4002   8.4381   8.4677   8.5040   8.5194   8.5806   8.5933   8.6096
     8.6439   8.6665   8.6919   8.7344

          k = 0.5000 0.4969 0.0000 ( 80284 PWs)   bands (ev):

   -41.9204 -41.9204 -41.8161 -41.8161 -41.6491 -41.6491 -41.6121 -41.6121
   -41.5356 -41.5356 -41.5009 -41.5009 -41.4619 -41.4619 -41.4553 -41.4553
   -41.4361 -41.4361 -41.4198 -41.4198 -41.4072 -41.4072 -41.3950 -41.3950
   -41.3924 -41.3924 -41.3920 -41.3920 -41.3550 -41.3550 -41.3315 -41.3315
   -41.3292 -41.3292 -41.3265 -41.3265 -41.3136 -41.3136 -41.3082 -41.3082
   -41.2872 -41.2872 -41.2777 -41.2777 -41.2711 -41.2711 -41.2596 -41.2596
   -41.2399 -41.2399 -41.2365 -41.2365 -41.2292 -41.2292 -41.2226 -41.2226
   -41.2138 -41.2138 -41.1767 -41.1767 -41.1664 -41.1664 -41.1659 -41.1659
   -41.1516 -41.1516 -41.1057 -41.1057 -41.1055 -41.1055 -41.1027 -41.1027
   -41.0982 -41.0982 -41.0673 -41.0673 -41.0551 -41.0551 -41.0447 -41.0447
   -40.9882 -40.9882 -40.9795 -40.9795 -40.9775 -40.9775 -40.9546 -40.9546
   -40.8936 -40.8936 -40.8588 -40.8588 -40.8509 -40.8509 -40.7394 -40.7394
   -40.2217 -40.2217 -40.1726 -40.1726 -40.0847 -40.0847 -39.9513 -39.9513
   -39.9141 -39.9141 -39.8968 -39.8968 -39.8606 -39.8606 -39.8021 -39.8021
   -39.7678 -39.7678 -39.7641 -39.7641 -39.7595 -39.7595 -39.7401 -39.7401
   -39.7206 -39.7206 -39.7112 -39.7112 -39.7081 -39.7081 -39.6974 -39.6974
   -39.6954 -39.6954 -39.6930 -39.6930 -39.6917 -39.6917 -39.6819 -39.6819
   -39.6759 -39.6759 -39.6605 -39.6605 -39.6435 -39.6435 -39.6412 -39.6412
   -39.6359 -39.6359 -39.6270 -39.6270 -39.6235 -39.6235 -39.6045 -39.6045
   -39.5991 -39.5991 -39.5824 -39.5824 -39.5781 -39.5781 -39.5728 -39.5728
   -39.5620 -39.5620 -39.5554 -39.5554 -39.5430 -39.5430 -39.5399 -39.5399
   -39.5358 -39.5358 -39.5318 -39.5318 -39.5245 -39.5245 -39.5174 -39.5174
   -39.5121 -39.5121 -39.5089 -39.5089 -39.4973 -39.4973 -39.4795 -39.4795
   -39.4731 -39.4731 -39.4692 -39.4692 -39.4682 -39.4682 -39.4593 -39.4593
   -39.4392 -39.4392 -39.4240 -39.4240 -39.4205 -39.4205 -39.4105 -39.4105
   -39.4001 -39.4001 -39.3711 -39.3711 -39.3706 -39.3706 -39.3695 -39.3695
   -39.3689 -39.3689 -39.3465 -39.3465 -39.3221 -39.3221 -39.3196 -39.3196
   -39.3091 -39.3091 -39.2774 -39.2774 -39.2560 -39.2560 -39.2556 -39.2556
   -39.2534 -39.2534 -39.2362 -39.2362 -39.2071 -39.2071 -39.1675 -39.1675
   -39.1520 -39.1520 -39.1302 -39.1302 -39.0999 -39.0999 -39.0059 -39.0059
   -16.9525 -16.9525 -16.7214 -16.7214 -16.3804 -16.3804 -16.3469 -16.3469
   -16.3221 -16.3221 -16.2816 -16.2816 -16.2410 -16.2410 -15.8895 -15.8895
   -14.2874 -14.2874 -14.2805 -14.2805 -14.2573 -14.2573 -14.2393 -14.2393
   -14.2331 -14.2331 -14.2212 -14.2212 -14.1849 -14.1849 -14.1643 -14.1643
   -14.1212 -14.1212 -14.1010 -14.1010 -14.0884 -14.0884 -14.0815 -14.0815
   -14.0436 -14.0436 -14.0335 -14.0335 -14.0200 -14.0200 -14.0060 -14.0060
   -11.7569 -11.7569 -11.7334 -11.7334 -11.7220 -11.7220 -11.7003 -11.7003
   -11.6986 -11.6986 -11.6975 -11.6975 -11.6837 -11.6837 -11.6627 -11.6627
   -11.6500 -11.6500 -11.6412 -11.6412 -11.6198 -11.6198 -11.5942 -11.5942
   -11.5890 -11.5890 -11.5688 -11.5688 -11.5553 -11.5553 -11.5512 -11.5512
   -11.5235 -11.5235 -11.5093 -11.5093 -11.4993 -11.4993 -11.4929 -11.4929
   -11.4823 -11.4823 -11.4666 -11.4666 -11.4541 -11.4541 -11.4275 -11.4275
    -9.3175  -9.3175  -9.2504  -9.2504  -9.2083  -9.2083  -9.1010  -9.1010
    -9.0861  -9.0861  -9.0804  -9.0804  -8.9832  -8.9832  -8.9743  -8.9743
    -8.6252  -8.6252  -8.4107  -8.4107  -8.3165  -8.3165  -8.2199  -8.2199
    -8.1549  -8.1549  -8.0955  -8.0955  -8.0353  -8.0353  -7.9833  -7.9833
    -7.9700  -7.9700  -7.9529  -7.9529  -7.8998  -7.8998  -7.8345  -7.8345
    -7.7906  -7.7906  -7.7594  -7.7594  -7.7269  -7.7269  -7.6934  -7.6934
    -7.6826  -7.6826  -7.6569  -7.6569  -7.6291  -7.6291  -7.5540  -7.5540
    -7.5258  -7.5258  -7.4442  -7.4442  -7.3983  -7.3983  -7.3122  -7.3122
    -6.5982  -6.5982  -6.4726  -6.4726  -6.1869  -6.1869  -6.1342  -6.1342
    -6.1030  -6.1030  -6.0970  -6.0970  -6.0052  -6.0052  -5.9940  -5.9940
    -5.8560  -5.8560  -5.7620  -5.7620  -5.7032  -5.7032  -5.5441  -5.5441
    -5.5341  -5.5341  -5.4661  -5.4661  -5.1694  -5.1694  -5.1313  -5.1313
    -4.1202  -4.1202  -4.0568  -4.0568  -3.9571  -3.9571  -3.8308  -3.8308
    -3.8058  -3.8058  -3.6744  -3.6744  -3.5995  -3.5995  -3.5613  -3.5613
    -3.5126  -3.5126  -3.4690  -3.4690  -3.4410  -3.4410  -3.4251  -3.4251
    -3.3673  -3.3673  -3.3409  -3.3409  -3.1997  -3.1997  -3.1546  -3.1546
    -1.7545  -1.7545  -1.6329  -1.6329  -1.6041  -1.6041  -1.5175  -1.5175
    -1.4572  -1.4572  -1.4257  -1.4257  -1.3905  -1.3905  -1.3736  -1.3736
    -1.3426  -1.3426  -1.2242  -1.2242  -1.2128  -1.2128  -1.1192  -1.1192
    -1.1158  -1.1158  -1.0993  -1.0993  -1.0894  -1.0894  -1.0182  -1.0182
     0.2842   0.2842   0.3775   0.3775   0.4045   0.4045   0.4802   0.4802
     0.5799   0.5799   0.6377   0.6377   0.8175   0.8175   0.8818   0.8818
     0.9403   0.9403   1.0046   1.0046   1.0149   1.0149   1.1057   1.1057
     1.1550   1.1550   1.1874   1.1874   1.2226   1.2226   1.2631   1.2631
     1.2908   1.2908   1.3551   1.3551   1.3922   1.3922   1.4515   1.4515
     1.5077   1.5077   1.5608   1.5608   1.6216   1.6216   1.7115   1.7115
     1.7529   1.7529   1.8250   1.8250   1.8615   1.8615   1.8999   1.8999
     1.9540   1.9540   1.9780   1.9780   2.0017   2.0017   2.0578   2.0578
     2.0830   2.0830   2.1296   2.1296   2.1576   2.1576   2.1859   2.1859
     2.2427   2.2427   2.2671   2.2671   2.3045   2.3045   2.3258   2.3258
     2.3680   2.3680   2.3919   2.3919   2.4303   2.4303   2.4696   2.4696
     2.4937   2.4937   2.5119   2.5119   2.5596   2.5596   2.6171   2.6171
     2.6351   2.6351   2.6939   2.6939   2.7244   2.7244   2.7424   2.7424
     2.7913   2.7913   2.8345   2.8345   2.8695   2.8695   2.8981   2.8981
     2.9243   2.9243   2.9679   2.9679   2.9818   2.9818   3.0274   3.0274
     3.0556   3.0556   3.0991   3.0991   3.1261   3.1261   3.1480   3.1480
     3.1631   3.1631   3.1907   3.1907   3.2163   3.2163   3.2575   3.2575
     3.3075   3.3075   3.3410   3.3410   3.4823   3.4823   3.6216   3.6216
     5.4446   5.4446   5.5873   5.5873   5.6500   5.6500   5.8020   5.8020
     6.6371   6.6371   6.7254   6.7254   6.8501   6.8501   6.9527   6.9527
     7.0655   7.0655   7.1834   7.1834   7.2350   7.2350   7.4004   7.4004
     7.5092   7.5092   7.6063   7.6063   7.6926   7.6926   7.7475   7.7475
     7.8139   7.8139   7.8733   7.8733   7.9517   7.9517   7.9880   7.9880
     8.0766   8.0766   8.1148   8.1148   8.1610   8.1610   8.2185   8.2185
     8.3483   8.3483   8.3865   8.3865   8.4929   8.4929   8.5472   8.5472
     8.6963   8.6963   8.8017   8.8017

          k = 0.5000 0.4969 0.2500 ( 80232 PWs)   bands (ev):

   -41.9204 -41.9204 -41.8161 -41.8161 -41.6491 -41.6491 -41.6121 -41.6121
   -41.5356 -41.5356 -41.5009 -41.5009 -41.4619 -41.4619 -41.4553 -41.4553
   -41.4361 -41.4361 -41.4198 -41.4198 -41.4072 -41.4072 -41.3950 -41.3950
   -41.3924 -41.3924 -41.3920 -41.3920 -41.3550 -41.3550 -41.3315 -41.3315
   -41.3292 -41.3292 -41.3265 -41.3265 -41.3135 -41.3135 -41.3082 -41.3082
   -41.2872 -41.2872 -41.2777 -41.2777 -41.2711 -41.2711 -41.2596 -41.2596
   -41.2399 -41.2399 -41.2365 -41.2365 -41.2292 -41.2292 -41.2226 -41.2226
   -41.2138 -41.2138 -41.1766 -41.1766 -41.1664 -41.1664 -41.1658 -41.1658
   -41.1516 -41.1516 -41.1057 -41.1057 -41.1055 -41.1055 -41.1027 -41.1027
   -41.0981 -41.0981 -41.0673 -41.0673 -41.0551 -41.0551 -41.0447 -41.0447
   -40.9882 -40.9882 -40.9795 -40.9795 -40.9775 -40.9775 -40.9546 -40.9546
   -40.8936 -40.8936 -40.8588 -40.8588 -40.8509 -40.8509 -40.7393 -40.7393
   -40.2217 -40.2217 -40.1726 -40.1726 -40.0847 -40.0847 -39.9513 -39.9513
   -39.9141 -39.9141 -39.8968 -39.8968 -39.8606 -39.8606 -39.8021 -39.8021
   -39.7678 -39.7678 -39.7640 -39.7640 -39.7595 -39.7595 -39.7401 -39.7401
   -39.7205 -39.7205 -39.7112 -39.7112 -39.7081 -39.7081 -39.6974 -39.6974
   -39.6954 -39.6954 -39.6930 -39.6930 -39.6917 -39.6917 -39.6819 -39.6819
   -39.6759 -39.6759 -39.6605 -39.6605 -39.6435 -39.6435 -39.6412 -39.6412
   -39.6359 -39.6359 -39.6270 -39.6270 -39.6235 -39.6235 -39.6045 -39.6045
   -39.5991 -39.5991 -39.5824 -39.5824 -39.5781 -39.5781 -39.5728 -39.5728
   -39.5619 -39.5619 -39.5554 -39.5554 -39.5430 -39.5430 -39.5399 -39.5399
   -39.5358 -39.5358 -39.5318 -39.5318 -39.5245 -39.5245 -39.5174 -39.5174
   -39.5121 -39.5121 -39.5089 -39.5089 -39.4973 -39.4973 -39.4795 -39.4795
   -39.4731 -39.4731 -39.4692 -39.4692 -39.4682 -39.4682 -39.4592 -39.4592
   -39.4392 -39.4392 -39.4240 -39.4240 -39.4205 -39.4205 -39.4105 -39.4105
   -39.4000 -39.4000 -39.3711 -39.3711 -39.3706 -39.3706 -39.3695 -39.3695
   -39.3689 -39.3689 -39.3465 -39.3465 -39.3221 -39.3221 -39.3196 -39.3196
   -39.3091 -39.3091 -39.2774 -39.2774 -39.2560 -39.2560 -39.2556 -39.2556
   -39.2534 -39.2534 -39.2362 -39.2362 -39.2071 -39.2071 -39.1675 -39.1675
   -39.1520 -39.1520 -39.1302 -39.1302 -39.0999 -39.0999 -39.0059 -39.0059
   -16.9525 -16.9525 -16.7214 -16.7214 -16.3804 -16.3804 -16.3469 -16.3469
   -16.3221 -16.3221 -16.2815 -16.2815 -16.2410 -16.2410 -15.8895 -15.8895
   -14.2874 -14.2874 -14.2805 -14.2805 -14.2572 -14.2572 -14.2393 -14.2393
   -14.2331 -14.2331 -14.2212 -14.2212 -14.1849 -14.1849 -14.1643 -14.1643
   -14.1212 -14.1212 -14.1010 -14.1010 -14.0884 -14.0884 -14.0815 -14.0815
   -14.0436 -14.0436 -14.0335 -14.0335 -14.0199 -14.0199 -14.0060 -14.0060
   -11.7569 -11.7569 -11.7331 -11.7331 -11.7220 -11.7220 -11.7005 -11.7004
   -11.6985 -11.6985 -11.6978 -11.6976 -11.6838 -11.6838 -11.6627 -11.6627
   -11.6500 -11.6500 -11.6412 -11.6412 -11.6196 -11.6196 -11.5942 -11.5942
   -11.5890 -11.5890 -11.5686 -11.5686 -11.5553 -11.5553 -11.5513 -11.5513
   -11.5235 -11.5235 -11.5094 -11.5094 -11.4993 -11.4993 -11.4930 -11.4930
   -11.4824 -11.4824 -11.4667 -11.4667 -11.4541 -11.4541 -11.4275 -11.4275
    -9.3173  -9.3173  -9.2504  -9.2504  -9.2087  -9.2087  -9.1012  -9.1012
    -9.0862  -9.0862  -9.0803  -9.0803  -8.9828  -8.9828  -8.9741  -8.9740
    -8.6254  -8.6253  -8.4091  -8.4091  -8.3119  -8.3117  -8.2139  -8.2127
    -8.1579  -8.1566  -8.1067  -8.1056  -8.0513  -8.0503  -8.0187  -8.0158
    -7.9685  -7.9669  -7.9230  -7.9221  -7.8955  -7.8934  -7.8270  -7.8260
    -7.7895  -7.7882  -7.7635  -7.7620  -7.7352  -7.7343  -7.6923  -7.6915
    -7.6803  -7.6791  -7.6444  -7.6418  -7.6204  -7.6186  -7.5645  -7.5637
    -7.5269  -7.5266  -7.4442  -7.4438  -7.4001  -7.3999  -7.3139  -7.3137
    -6.5983  -6.5983  -6.4728  -6.4728  -6.1869  -6.1869  -6.1341  -6.1341
    -6.1032  -6.1032  -6.0969  -6.0968  -6.0038  -6.0037  -5.9952  -5.9950
    -5.8554  -5.8554  -5.7616  -5.7616  -5.7032  -5.7032  -5.5441  -5.5441
    -5.5339  -5.5339  -5.4661  -5.4661  -5.1695  -5.1694  -5.1315  -5.1315
    -4.0708  -4.0707  -4.0041  -4.0038  -3.9162  -3.9160  -3.8224  -3.8217
    -3.7541  -3.7535  -3.6863  -3.6862  -3.6431  -3.6428  -3.5944  -3.5933
    -3.5538  -3.5532  -3.4897  -3.4892  -3.4593  -3.4585  -3.4292  -3.4287
    -3.4083  -3.4079  -3.3451  -3.3448  -3.2881  -3.2875  -3.1583  -3.1582
    -1.7546  -1.7545  -1.6329  -1.6327  -1.6034  -1.6034  -1.5174  -1.5173
    -1.4573  -1.4568  -1.4264  -1.4258  -1.3903  -1.3902  -1.3734  -1.3732
    -1.3413  -1.3412  -1.2233  -1.2227  -1.2138  -1.2136  -1.1170  -1.1159
    -1.1138  -1.1133  -1.0992  -1.0983  -1.0894  -1.0891  -1.0209  -1.0205
     0.4207   0.4446   0.4879   0.5139   0.5444   0.5528   0.6115   0.6238
     0.6366   0.6530   0.6711   0.6891   0.8295   0.8433   0.8920   0.9057
     0.9346   0.9435   0.9868   0.9950   1.0103   1.0202   1.0811   1.1015
     1.1420   1.1463   1.1767   1.1929   1.2072   1.2296   1.2522   1.2662
     1.2872   1.3071   1.3444   1.3610   1.3941   1.4129   1.4333   1.4497
     1.4711   1.4983   1.5299   1.5552   1.5847   1.6060   1.6768   1.6917
     1.7235   1.7693   1.7976   1.8222   1.8546   1.8737   1.8869   1.8969
     1.9352   1.9412   1.9585   1.9631   1.9886   2.0154   2.0363   2.0470
     2.0677   2.0872   2.1051   2.1267   2.1395   2.1548   2.1685   2.1840
     2.1860   2.2100   2.2287   2.2426   2.2505   2.2758   2.2933   2.3106
     2.3259   2.3383   2.3487   2.3625   2.3757   2.3870   2.4023   2.4274
     2.4498   2.4657   2.4943   2.5035   2.5141   2.5288   2.5536   2.5904
     2.6229   2.6394   2.6747   2.7076   2.7210   2.7311   2.7489   2.7627
     2.7964   2.8084   2.8243   2.8363   2.8709   2.8746   2.8900   2.9073
     2.9182   2.9306   2.9433   2.9536   2.9624   2.9786   2.9921   3.0121
     3.0376   3.0429   3.0514   3.0732   3.0962   3.1104   3.1177   3.1305
     3.1433   3.1550   3.1726   3.1793   3.1888   3.2042   3.2127   3.2231
     3.2395   3.2504   3.2694   3.2758   3.3121   3.3635   3.4564   3.4759
     5.7841   5.8111   5.9246   5.9576   5.9929   6.0310   6.2150   6.2566
     6.5899   6.6078   6.6914   6.7358   6.8140   6.8353   6.9739   7.0052
     7.0615   7.0746   7.2517   7.2642   7.2888   7.3287   7.4363   7.4513
     7.5338   7.5602   7.6094   7.6252   7.7058   7.7362   7.7629   7.7681
     7.8197   7.8340   7.8645   7.8954   7.9369   7.9404   7.9855   8.0031
     8.0575   8.0850   8.0961   8.1193   8.1436   8.1672   8.2185   8.2379
     8.2713   8.2975   8.3110   8.3529   8.3941   8.4048   8.4478   8.4746
     8.4972   8.5463   8.5750   8.6164

          k = 0.5000 0.4969 0.5000 ( 80272 PWs)   bands (ev):

   -41.9204 -41.9204 -41.8161 -41.8161 -41.6491 -41.6491 -41.6121 -41.6121
   -41.5356 -41.5356 -41.5009 -41.5009 -41.4619 -41.4619 -41.4553 -41.4553
   -41.4361 -41.4361 -41.4198 -41.4198 -41.4072 -41.4072 -41.3950 -41.3950
   -41.3924 -41.3924 -41.3920 -41.3920 -41.3550 -41.3550 -41.3315 -41.3315
   -41.3292 -41.3292 -41.3265 -41.3265 -41.3136 -41.3136 -41.3082 -41.3082
   -41.2872 -41.2872 -41.2777 -41.2777 -41.2711 -41.2711 -41.2597 -41.2597
   -41.2399 -41.2399 -41.2365 -41.2365 -41.2292 -41.2292 -41.2226 -41.2226
   -41.2138 -41.2138 -41.1766 -41.1766 -41.1664 -41.1664 -41.1658 -41.1658
   -41.1516 -41.1516 -41.1057 -41.1057 -41.1055 -41.1055 -41.1028 -41.1028
   -41.0982 -41.0982 -41.0673 -41.0673 -41.0551 -41.0551 -41.0447 -41.0447
   -40.9882 -40.9882 -40.9795 -40.9795 -40.9775 -40.9775 -40.9546 -40.9546
   -40.8936 -40.8936 -40.8588 -40.8588 -40.8509 -40.8509 -40.7393 -40.7393
   -40.2217 -40.2217 -40.1726 -40.1726 -40.0847 -40.0847 -39.9513 -39.9513
   -39.9141 -39.9141 -39.8968 -39.8968 -39.8606 -39.8606 -39.8021 -39.8021
   -39.7678 -39.7678 -39.7640 -39.7640 -39.7595 -39.7595 -39.7401 -39.7401
   -39.7206 -39.7206 -39.7112 -39.7112 -39.7081 -39.7081 -39.6974 -39.6974
   -39.6954 -39.6954 -39.6930 -39.6930 -39.6917 -39.6917 -39.6819 -39.6819
   -39.6759 -39.6759 -39.6605 -39.6605 -39.6435 -39.6435 -39.6412 -39.6412
   -39.6359 -39.6359 -39.6270 -39.6270 -39.6235 -39.6235 -39.6045 -39.6045
   -39.5991 -39.5991 -39.5824 -39.5824 -39.5782 -39.5782 -39.5728 -39.5728
   -39.5620 -39.5620 -39.5554 -39.5554 -39.5430 -39.5430 -39.5399 -39.5399
   -39.5358 -39.5358 -39.5318 -39.5318 -39.5245 -39.5245 -39.5174 -39.5174
   -39.5121 -39.5121 -39.5089 -39.5089 -39.4973 -39.4973 -39.4795 -39.4795
   -39.4731 -39.4731 -39.4692 -39.4692 -39.4682 -39.4682 -39.4593 -39.4593
   -39.4392 -39.4392 -39.4240 -39.4240 -39.4205 -39.4205 -39.4105 -39.4105
   -39.4000 -39.4000 -39.3711 -39.3711 -39.3706 -39.3706 -39.3695 -39.3695
   -39.3689 -39.3689 -39.3465 -39.3465 -39.3221 -39.3221 -39.3196 -39.3196
   -39.3091 -39.3091 -39.2774 -39.2774 -39.2560 -39.2560 -39.2556 -39.2556
   -39.2534 -39.2534 -39.2362 -39.2362 -39.2071 -39.2071 -39.1675 -39.1675
   -39.1520 -39.1520 -39.1302 -39.1302 -39.0999 -39.0999 -39.0059 -39.0059
   -16.9525 -16.9525 -16.7214 -16.7214 -16.3804 -16.3804 -16.3469 -16.3469
   -16.3221 -16.3221 -16.2816 -16.2816 -16.2410 -16.2410 -15.8895 -15.8895
   -14.2874 -14.2874 -14.2805 -14.2805 -14.2572 -14.2572 -14.2393 -14.2393
   -14.2331 -14.2331 -14.2212 -14.2212 -14.1849 -14.1849 -14.1643 -14.1643
   -14.1212 -14.1212 -14.1010 -14.1010 -14.0884 -14.0884 -14.0815 -14.0815
   -14.0437 -14.0437 -14.0335 -14.0335 -14.0200 -14.0200 -14.0060 -14.0060
   -11.7568 -11.7568 -11.7328 -11.7328 -11.7220 -11.7220 -11.7006 -11.7006
   -11.6985 -11.6985 -11.6979 -11.6979 -11.6838 -11.6838 -11.6627 -11.6627
   -11.6500 -11.6500 -11.6412 -11.6412 -11.6195 -11.6195 -11.5942 -11.5942
   -11.5890 -11.5890 -11.5685 -11.5685 -11.5554 -11.5554 -11.5513 -11.5513
   -11.5235 -11.5235 -11.5095 -11.5095 -11.4993 -11.4993 -11.4931 -11.4931
   -11.4824 -11.4824 -11.4668 -11.4668 -11.4541 -11.4541 -11.4275 -11.4275
    -9.3171  -9.3171  -9.2505  -9.2505  -9.2091  -9.2091  -9.1014  -9.1014
    -9.0862  -9.0862  -9.0802  -9.0802  -8.9825  -8.9825  -8.9738  -8.9738
    -8.6255  -8.6255  -8.4075  -8.4075  -8.3065  -8.3065  -8.2034  -8.2034
    -8.1659  -8.1659  -8.1147  -8.1147  -8.0661  -8.0661  -8.0257  -8.0257
    -7.9781  -7.9781  -7.9204  -7.9204  -7.8688  -7.8688  -7.8202  -7.8202
    -7.7868  -7.7868  -7.7690  -7.7690  -7.7428  -7.7428  -7.6930  -7.6930
    -7.6715  -7.6715  -7.6263  -7.6263  -7.6124  -7.6124  -7.5771  -7.5771
    -7.5280  -7.5280  -7.4437  -7.4437  -7.4017  -7.4017  -7.3155  -7.3155
    -6.5984  -6.5984  -6.4729  -6.4729  -6.1870  -6.1870  -6.1341  -6.1341
    -6.1033  -6.1033  -6.0968  -6.0968  -6.0017  -6.0017  -5.9969  -5.9969
    -5.8548  -5.8548  -5.7612  -5.7612  -5.7032  -5.7032  -5.5441  -5.5441
    -5.5338  -5.5338  -5.4661  -5.4661  -5.1695  -5.1695  -5.1317  -5.1317
    -3.9931  -3.9931  -3.9322  -3.9322  -3.8787  -3.8787  -3.7788  -3.7788
    -3.7440  -3.7440  -3.7182  -3.7182  -3.6767  -3.6767  -3.6405  -3.6405
    -3.5683  -3.5683  -3.5266  -3.5266  -3.4863  -3.4863  -3.4629  -3.4629
    -3.4208  -3.4208  -3.3952  -3.3952  -3.3364  -3.3364  -3.1609  -3.1609
    -1.7546  -1.7546  -1.6329  -1.6329  -1.6029  -1.6029  -1.5173  -1.5173
    -1.4570  -1.4570  -1.4266  -1.4266  -1.3901  -1.3901  -1.3732  -1.3732
    -1.3400  -1.3400  -1.2220  -1.2220  -1.2146  -1.2146  -1.1163  -1.1163
    -1.1085  -1.1085  -1.0986  -1.0986  -1.0892  -1.0892  -1.0235  -1.0235
     0.5298   0.5298   0.5904   0.5904   0.7027   0.7027   0.7518   0.7518
     0.8031   0.8031   0.8375   0.8375   0.8748   0.8748   0.9378   0.9378
     0.9675   0.9675   0.9985   0.9985   1.0351   1.0351   1.0918   1.0918
     1.1365   1.1365   1.1704   1.1704   1.2146   1.2146   1.2327   1.2327
     1.2602   1.2602   1.3549   1.3549   1.3915   1.3915   1.4364   1.4364
     1.4676   1.4676   1.4905   1.4905   1.5482   1.5482   1.6065   1.6065
     1.7294   1.7294   1.7759   1.7759   1.8265   1.8265   1.8682   1.8682
     1.9157   1.9157   1.9445   1.9445   1.9805   1.9805   2.0197   2.0197
     2.0359   2.0359   2.0882   2.0882   2.1309   2.1309   2.1489   2.1489
     2.1720   2.1720   2.1853   2.1853   2.2312   2.2312   2.2455   2.2455
     2.2865   2.2865   2.3168   2.3168   2.3532   2.3532   2.3677   2.3677
     2.4297   2.4297   2.4580   2.4580   2.4948   2.4948   2.5424   2.5424
     2.6415   2.6415   2.6855   2.6855   2.7349   2.7349   2.7667   2.7667
     2.7935   2.7935   2.8174   2.8174   2.8650   2.8650   2.8931   2.8931
     2.9080   2.9080   2.9403   2.9403   2.9612   2.9612   2.9748   2.9748
     3.0090   3.0090   3.0267   3.0267   3.0693   3.0693   3.0978   3.0978
     3.1295   3.1295   3.1618   3.1618   3.1819   3.1819   3.2073   3.2073
     3.2343   3.2343   3.2585   3.2585   3.2944   3.2944   3.4141   3.4141
     6.1942   6.1942   6.2695   6.2695   6.3752   6.3752   6.5288   6.5288
     6.5908   6.5908   6.7181   6.7181   6.8075   6.8075   6.9218   6.9218
     7.2419   7.2419   7.3926   7.3926   7.4931   7.4931   7.5987   7.5987
     7.6396   7.6396   7.7074   7.7074   7.7521   7.7521   7.7735   7.7735
     7.8367   7.8367   7.8659   7.8659   7.9011   7.9011   7.9398   7.9398
     7.9973   7.9973   8.0550   8.0550   8.1414   8.1414   8.1786   8.1786
     8.2163   8.2163   8.2307   8.2307   8.2581   8.2581   8.3131   8.3131
     8.3396   8.3396   8.3896   8.3896

          k = 0.5000 0.4969 0.7500 ( 80232 PWs)   bands (ev):

   -41.9204 -41.9204 -41.8161 -41.8161 -41.6491 -41.6491 -41.6121 -41.6121
   -41.5356 -41.5356 -41.5009 -41.5009 -41.4619 -41.4619 -41.4553 -41.4553
   -41.4361 -41.4361 -41.4198 -41.4198 -41.4072 -41.4072 -41.3950 -41.3950
   -41.3924 -41.3924 -41.3920 -41.3920 -41.3550 -41.3550 -41.3315 -41.3315
   -41.3292 -41.3292 -41.3265 -41.3265 -41.3135 -41.3135 -41.3082 -41.3082
   -41.2872 -41.2872 -41.2777 -41.2777 -41.2711 -41.2711 -41.2596 -41.2596
   -41.2399 -41.2399 -41.2365 -41.2365 -41.2292 -41.2292 -41.2226 -41.2226
   -41.2138 -41.2138 -41.1766 -41.1766 -41.1664 -41.1664 -41.1658 -41.1658
   -41.1516 -41.1516 -41.1057 -41.1057 -41.1055 -41.1055 -41.1027 -41.1027
   -41.0981 -41.0981 -41.0673 -41.0673 -41.0551 -41.0551 -41.0447 -41.0447
   -40.9882 -40.9882 -40.9795 -40.9795 -40.9775 -40.9775 -40.9546 -40.9546
   -40.8936 -40.8936 -40.8588 -40.8588 -40.8509 -40.8509 -40.7393 -40.7393
   -40.2217 -40.2217 -40.1726 -40.1726 -40.0847 -40.0847 -39.9513 -39.9513
   -39.9141 -39.9141 -39.8968 -39.8968 -39.8606 -39.8606 -39.8021 -39.8021
   -39.7678 -39.7678 -39.7640 -39.7640 -39.7595 -39.7595 -39.7401 -39.7401
   -39.7205 -39.7205 -39.7112 -39.7112 -39.7081 -39.7081 -39.6974 -39.6974
   -39.6954 -39.6954 -39.6930 -39.6930 -39.6917 -39.6917 -39.6819 -39.6819
   -39.6759 -39.6759 -39.6605 -39.6605 -39.6435 -39.6435 -39.6412 -39.6412
   -39.6359 -39.6359 -39.6270 -39.6270 -39.6235 -39.6235 -39.6045 -39.6045
   -39.5991 -39.5991 -39.5824 -39.5824 -39.5781 -39.5781 -39.5728 -39.5728
   -39.5619 -39.5619 -39.5554 -39.5554 -39.5430 -39.5430 -39.5399 -39.5399
   -39.5358 -39.5358 -39.5318 -39.5318 -39.5245 -39.5245 -39.5174 -39.5174
   -39.5121 -39.5121 -39.5089 -39.5089 -39.4973 -39.4973 -39.4795 -39.4795
   -39.4731 -39.4731 -39.4692 -39.4692 -39.4682 -39.4682 -39.4592 -39.4592
   -39.4392 -39.4392 -39.4240 -39.4240 -39.4205 -39.4205 -39.4105 -39.4105
   -39.4000 -39.4000 -39.3711 -39.3711 -39.3706 -39.3706 -39.3695 -39.3695
   -39.3689 -39.3689 -39.3465 -39.3465 -39.3221 -39.3221 -39.3196 -39.3196
   -39.3091 -39.3091 -39.2774 -39.2774 -39.2560 -39.2560 -39.2556 -39.2556
   -39.2534 -39.2534 -39.2362 -39.2362 -39.2071 -39.2071 -39.1675 -39.1675
   -39.1520 -39.1520 -39.1302 -39.1302 -39.0999 -39.0999 -39.0059 -39.0059
   -16.9525 -16.9525 -16.7214 -16.7214 -16.3804 -16.3804 -16.3469 -16.3469
   -16.3221 -16.3221 -16.2815 -16.2815 -16.2410 -16.2410 -15.8895 -15.8895
   -14.2874 -14.2874 -14.2805 -14.2805 -14.2572 -14.2572 -14.2393 -14.2393
   -14.2331 -14.2331 -14.2212 -14.2212 -14.1849 -14.1849 -14.1643 -14.1643
   -14.1212 -14.1212 -14.1010 -14.1010 -14.0884 -14.0884 -14.0815 -14.0815
   -14.0436 -14.0436 -14.0335 -14.0335 -14.0199 -14.0199 -14.0060 -14.0060
   -11.7569 -11.7569 -11.7331 -11.7331 -11.7220 -11.7220 -11.7005 -11.7004
   -11.6985 -11.6985 -11.6978 -11.6976 -11.6838 -11.6838 -11.6627 -11.6627
   -11.6500 -11.6500 -11.6412 -11.6412 -11.6196 -11.6196 -11.5942 -11.5942
   -11.5890 -11.5890 -11.5686 -11.5686 -11.5553 -11.5553 -11.5513 -11.5513
   -11.5235 -11.5235 -11.5094 -11.5094 -11.4993 -11.4993 -11.4930 -11.4930
   -11.4824 -11.4824 -11.4667 -11.4667 -11.4541 -11.4541 -11.4275 -11.4275
    -9.3173  -9.3173  -9.2504  -9.2504  -9.2087  -9.2087  -9.1012  -9.1012
    -9.0862  -9.0862  -9.0803  -9.0803  -8.9828  -8.9828  -8.9741  -8.9740
    -8.6254  -8.6253  -8.4091  -8.4091  -8.3119  -8.3117  -8.2139  -8.2127
    -8.1579  -8.1566  -8.1067  -8.1056  -8.0513  -8.0503  -8.0187  -8.0158
    -7.9685  -7.9669  -7.9230  -7.9221  -7.8955  -7.8934  -7.8270  -7.8260
    -7.7895  -7.7882  -7.7635  -7.7620  -7.7352  -7.7343  -7.6923  -7.6915
    -7.6803  -7.6791  -7.6444  -7.6418  -7.6204  -7.6186  -7.5645  -7.5637
    -7.5269  -7.5266  -7.4442  -7.4438  -7.4001  -7.3999  -7.3139  -7.3137
    -6.5983  -6.5983  -6.4728  -6.4728  -6.1869  -6.1869  -6.1341  -6.1341
    -6.1032  -6.1032  -6.0969  -6.0968  -6.0038  -6.0037  -5.9952  -5.9950
    -5.8554  -5.8554  -5.7616  -5.7616  -5.7032  -5.7032  -5.5441  -5.5441
    -5.5339  -5.5339  -5.4661  -5.4661  -5.1695  -5.1694  -5.1315  -5.1315
    -4.0708  -4.0707  -4.0041  -4.0038  -3.9162  -3.9160  -3.8224  -3.8217
    -3.7541  -3.7535  -3.6863  -3.6862  -3.6431  -3.6428  -3.5944  -3.5933
    -3.5538  -3.5532  -3.4897  -3.4892  -3.4593  -3.4585  -3.4292  -3.4287
    -3.4083  -3.4079  -3.3451  -3.3448  -3.2881  -3.2875  -3.1583  -3.1582
    -1.7546  -1.7545  -1.6329  -1.6327  -1.6034  -1.6034  -1.5174  -1.5173
    -1.4573  -1.4568  -1.4264  -1.4258  -1.3903  -1.3902  -1.3734  -1.3732
    -1.3413  -1.3412  -1.2233  -1.2227  -1.2138  -1.2136  -1.1170  -1.1159
    -1.1138  -1.1133  -1.0992  -1.0983  -1.0894  -1.0891  -1.0209  -1.0205
     0.4207   0.4446   0.4879   0.5139   0.5444   0.5528   0.6115   0.6238
     0.6366   0.6530   0.6711   0.6891   0.8295   0.8433   0.8920   0.9057
     0.9346   0.9435   0.9868   0.9950   1.0103   1.0202   1.0811   1.1015
     1.1420   1.1463   1.1767   1.1929   1.2072   1.2296   1.2522   1.2662
     1.2872   1.3071   1.3444   1.3610   1.3941   1.4129   1.4333   1.4497
     1.4711   1.4983   1.5299   1.5552   1.5847   1.6060   1.6768   1.6917
     1.7235   1.7693   1.7976   1.8222   1.8546   1.8737   1.8869   1.8969
     1.9352   1.9412   1.9585   1.9631   1.9886   2.0154   2.0363   2.0470
     2.0677   2.0872   2.1051   2.1267   2.1395   2.1548   2.1685   2.1840
     2.1860   2.2100   2.2287   2.2426   2.2505   2.2758   2.2933   2.3106
     2.3259   2.3383   2.3487   2.3625   2.3757   2.3870   2.4023   2.4274
     2.4498   2.4657   2.4943   2.5035   2.5141   2.5288   2.5536   2.5904
     2.6229   2.6394   2.6747   2.7076   2.7210   2.7311   2.7489   2.7627
     2.7964   2.8084   2.8243   2.8363   2.8709   2.8746   2.8900   2.9073
     2.9182   2.9306   2.9433   2.9536   2.9624   2.9786   2.9921   3.0121
     3.0376   3.0429   3.0514   3.0732   3.0962   3.1104   3.1177   3.1305
     3.1433   3.1550   3.1726   3.1793   3.1888   3.2042   3.2127   3.2231
     3.2395   3.2504   3.2694   3.2758   3.3121   3.3635   3.4564   3.4759
     5.7841   5.8111   5.9246   5.9576   5.9929   6.0310   6.2150   6.2566
     6.5899   6.6078   6.6914   6.7358   6.8140   6.8353   6.9739   7.0052
     7.0615   7.0746   7.2517   7.2642   7.2888   7.3287   7.4363   7.4513
     7.5338   7.5602   7.6094   7.6252   7.7058   7.7362   7.7629   7.7681
     7.8197   7.8340   7.8645   7.8954   7.9369   7.9404   7.9855   8.0031
     8.0575   8.0850   8.0961   8.1193   8.1436   8.1672   8.2185   8.2379
     8.2713   8.2975   8.3110   8.3529   8.3941   8.4048   8.4478   8.4746
     8.4972   8.5463   8.5750   8.6164

          k = 0.5000 0.7454 0.0000 ( 80228 PWs)   bands (ev):

   -41.9204 -41.9204 -41.8161 -41.8161 -41.6491 -41.6491 -41.6121 -41.6121
   -41.5356 -41.5356 -41.5009 -41.5009 -41.4619 -41.4619 -41.4553 -41.4553
   -41.4361 -41.4361 -41.4198 -41.4198 -41.4072 -41.4072 -41.3950 -41.3950
   -41.3924 -41.3924 -41.3920 -41.3920 -41.3550 -41.3550 -41.3315 -41.3315
   -41.3292 -41.3292 -41.3265 -41.3265 -41.3136 -41.3136 -41.3082 -41.3082
   -41.2872 -41.2872 -41.2777 -41.2777 -41.2711 -41.2711 -41.2596 -41.2596
   -41.2399 -41.2399 -41.2365 -41.2365 -41.2292 -41.2292 -41.2226 -41.2226
   -41.2138 -41.2138 -41.1766 -41.1766 -41.1664 -41.1664 -41.1658 -41.1658
   -41.1516 -41.1516 -41.1057 -41.1057 -41.1055 -41.1055 -41.1027 -41.1027
   -41.0982 -41.0982 -41.0673 -41.0673 -41.0551 -41.0551 -41.0446 -41.0446
   -40.9882 -40.9882 -40.9795 -40.9795 -40.9775 -40.9775 -40.9546 -40.9546
   -40.8936 -40.8936 -40.8588 -40.8588 -40.8508 -40.8508 -40.7393 -40.7393
   -40.2217 -40.2217 -40.1726 -40.1726 -40.0847 -40.0847 -39.9513 -39.9513
   -39.9141 -39.9141 -39.8968 -39.8968 -39.8606 -39.8606 -39.8021 -39.8021
   -39.7678 -39.7678 -39.7640 -39.7640 -39.7595 -39.7595 -39.7401 -39.7401
   -39.7205 -39.7205 -39.7112 -39.7112 -39.7081 -39.7081 -39.6974 -39.6974
   -39.6954 -39.6954 -39.6930 -39.6930 -39.6917 -39.6917 -39.6819 -39.6819
   -39.6759 -39.6759 -39.6605 -39.6605 -39.6435 -39.6435 -39.6412 -39.6412
   -39.6359 -39.6359 -39.6270 -39.6270 -39.6235 -39.6235 -39.6045 -39.6045
   -39.5991 -39.5991 -39.5824 -39.5824 -39.5781 -39.5781 -39.5728 -39.5728
   -39.5619 -39.5619 -39.5554 -39.5554 -39.5430 -39.5430 -39.5399 -39.5399
   -39.5358 -39.5358 -39.5318 -39.5318 -39.5245 -39.5245 -39.5174 -39.5174
   -39.5121 -39.5121 -39.5089 -39.5089 -39.4973 -39.4973 -39.4795 -39.4795
   -39.4731 -39.4731 -39.4692 -39.4692 -39.4682 -39.4682 -39.4592 -39.4592
   -39.4392 -39.4392 -39.4240 -39.4240 -39.4205 -39.4205 -39.4105 -39.4105
   -39.4000 -39.4000 -39.3711 -39.3711 -39.3706 -39.3706 -39.3695 -39.3695
   -39.3689 -39.3689 -39.3465 -39.3465 -39.3221 -39.3221 -39.3196 -39.3196
   -39.3091 -39.3091 -39.2774 -39.2774 -39.2560 -39.2560 -39.2556 -39.2556
   -39.2534 -39.2534 -39.2362 -39.2362 -39.2071 -39.2071 -39.1675 -39.1675
   -39.1520 -39.1520 -39.1302 -39.1302 -39.0999 -39.0999 -39.0059 -39.0059
   -16.9525 -16.9525 -16.7214 -16.7214 -16.3804 -16.3804 -16.3469 -16.3469
   -16.3221 -16.3221 -16.2815 -16.2815 -16.2410 -16.2410 -15.8895 -15.8895
   -14.2874 -14.2874 -14.2805 -14.2805 -14.2573 -14.2573 -14.2393 -14.2393
   -14.2331 -14.2331 -14.2212 -14.2212 -14.1849 -14.1849 -14.1643 -14.1643
   -14.1212 -14.1212 -14.1010 -14.1010 -14.0884 -14.0884 -14.0815 -14.0815
   -14.0436 -14.0436 -14.0335 -14.0335 -14.0199 -14.0199 -14.0060 -14.0060
   -11.7569 -11.7569 -11.7334 -11.7334 -11.7226 -11.7224 -11.7001 -11.7000
   -11.6986 -11.6985 -11.6974 -11.6974 -11.6836 -11.6835 -11.6627 -11.6627
   -11.6501 -11.6500 -11.6412 -11.6412 -11.6202 -11.6200 -11.5940 -11.5938
   -11.5890 -11.5888 -11.5687 -11.5687 -11.5553 -11.5553 -11.5512 -11.5512
   -11.5235 -11.5235 -11.5093 -11.5093 -11.4993 -11.4993 -11.4938 -11.4935
   -11.4821 -11.4819 -11.4662 -11.4661 -11.4541 -11.4540 -11.4275 -11.4275
    -9.3175  -9.3175  -9.2504  -9.2504  -9.2083  -9.2083  -9.1018  -9.1018
    -9.0861  -9.0861  -9.0797  -9.0797  -8.9851  -8.9850  -8.9725  -8.9725
    -8.6264  -8.6264  -8.4176  -8.4175  -8.3042  -8.3042  -8.2271  -8.2266
    -8.1445  -8.1441  -8.0998  -8.0994  -8.0269  -8.0258  -7.9810  -7.9794
    -7.9704  -7.9701  -7.9518  -7.9515  -7.9003  -7.8978  -7.8419  -7.8402
    -7.8042  -7.8018  -7.7603  -7.7597  -7.7263  -7.7256  -7.6887  -7.6883
    -7.6765  -7.6759  -7.6582  -7.6570  -7.6352  -7.6334  -7.5803  -7.5791
    -7.5123  -7.5117  -7.4437  -7.4437  -7.3971  -7.3970  -7.3063  -7.3060
    -6.5983  -6.5983  -6.4727  -6.4727  -6.1873  -6.1873  -6.1341  -6.1341
    -6.1058  -6.1058  -6.0947  -6.0947  -6.0053  -6.0053  -5.9940  -5.9940
    -5.8559  -5.8559  -5.7618  -5.7618  -5.7030  -5.7030  -5.5442  -5.5442
    -5.5339  -5.5339  -5.4662  -5.4661  -5.1694  -5.1694  -5.1314  -5.1313
    -4.2084  -4.2080  -4.1375  -4.1369  -3.8619  -3.8613  -3.8243  -3.8237
    -3.7214  -3.7192  -3.6808  -3.6785  -3.6537  -3.6529  -3.5522  -3.5500
    -3.5325  -3.5319  -3.4978  -3.4969  -3.4412  -3.4411  -3.4226  -3.4223
    -3.3530  -3.3526  -3.2883  -3.2881  -3.1803  -3.1797  -3.0790  -3.0781
    -1.7552  -1.7551  -1.6345  -1.6341  -1.6036  -1.6033  -1.5172  -1.5171
    -1.4575  -1.4574  -1.4262  -1.4260  -1.3908  -1.3906  -1.3737  -1.3736
    -1.3427  -1.3426  -1.2249  -1.2246  -1.2127  -1.2125  -1.1210  -1.1204
    -1.1139  -1.1133  -1.0998  -1.0995  -1.0891  -1.0890  -1.0186  -1.0184
     0.2634   0.2681   0.3576   0.3715   0.3850   0.3938   0.4173   0.4277
     0.4856   0.4979   0.5413   0.5495   0.6149   0.6287   0.7653   0.7732
     0.8484   0.8532   0.8913   0.9146   0.9288   0.9416   1.0490   1.0649
     1.1352   1.1390   1.1488   1.1698   1.1830   1.2016   1.2286   1.2702
     1.2933   1.3245   1.4242   1.4507   1.4764   1.4989   1.5278   1.5330
     1.5557   1.5814   1.6044   1.6296   1.6571   1.6842   1.7439   1.7685
     1.7965   1.8100   1.8462   1.8601   1.8879   1.9185   1.9335   1.9402
     1.9706   1.9856   2.0049   2.0147   2.0314   2.0495   2.0742   2.0939
     2.1014   2.1241   2.1542   2.1669   2.1827   2.2091   2.2218   2.2539
     2.2745   2.2869   2.2931   2.3051   2.3258   2.3429   2.3474   2.3609
     2.3803   2.3957   2.4189   2.4235   2.4457   2.4561   2.4754   2.4941
     2.4995   2.5197   2.5303   2.5388   2.5626   2.5831   2.6152   2.6271
     2.6388   2.6587   2.6665   2.6998   2.7187   2.7345   2.7385   2.7545
     2.7899   2.8095   2.8329   2.8437   2.8585   2.8742   2.8838   2.8995
     2.9175   2.9314   2.9527   2.9687   2.9862   2.9976   3.0085   3.0307
     3.0417   3.0544   3.0704   3.0986   3.1177   3.1288   3.1388   3.1569
     3.1713   3.1883   3.2096   3.2240   3.2561   3.2737   3.2804   3.2914
     3.3330   3.3684   3.4022   3.4206   3.4706   3.4919   3.6871   3.7678
     5.2392   5.2535   5.3256   5.4974   5.7007   5.7159   5.8208   5.8883
     6.1130   6.1515   6.2877   6.3670   6.4108   6.4483   6.5156   6.7163
     7.0640   7.1295   7.1654   7.2100   7.2874   7.3468   7.4498   7.4626
     7.5071   7.5180   7.5654   7.5964   7.6141   7.6294   7.7169   7.7736
     7.7932   7.8112   7.8587   7.8638   7.9685   7.9818   8.0877   8.1223
     8.1904   8.2044   8.2613   8.2831   8.3579   8.3807   8.4261   8.4472
     8.4742   8.5464   8.5560   8.5758   8.6033   8.6309   8.6645   8.6807
     8.7393   8.7934   8.8130   8.8252

          k = 0.5000 0.7454 0.2500 ( 80230 PWs)   bands (ev):

   -41.9204 -41.9204 -41.8161 -41.8161 -41.6491 -41.6491 -41.6121 -41.6121
   -41.5356 -41.5356 -41.5009 -41.5009 -41.4619 -41.4619 -41.4553 -41.4553
   -41.4361 -41.4361 -41.4198 -41.4198 -41.4072 -41.4072 -41.3950 -41.3950
   -41.3924 -41.3924 -41.3920 -41.3920 -41.3550 -41.3550 -41.3315 -41.3315
   -41.3292 -41.3292 -41.3265 -41.3265 -41.3136 -41.3136 -41.3082 -41.3082
   -41.2872 -41.2872 -41.2777 -41.2777 -41.2711 -41.2711 -41.2596 -41.2596
   -41.2399 -41.2399 -41.2365 -41.2365 -41.2292 -41.2292 -41.2226 -41.2226
   -41.2138 -41.2138 -41.1766 -41.1766 -41.1664 -41.1664 -41.1658 -41.1658
   -41.1516 -41.1516 -41.1057 -41.1057 -41.1055 -41.1055 -41.1027 -41.1027
   -41.0982 -41.0982 -41.0673 -41.0673 -41.0551 -41.0551 -41.0446 -41.0446
   -40.9882 -40.9882 -40.9795 -40.9795 -40.9775 -40.9775 -40.9546 -40.9546
   -40.8936 -40.8936 -40.8588 -40.8588 -40.8509 -40.8509 -40.7393 -40.7393
   -40.2217 -40.2217 -40.1726 -40.1726 -40.0847 -40.0847 -39.9513 -39.9513
   -39.9141 -39.9141 -39.8968 -39.8968 -39.8606 -39.8606 -39.8021 -39.8021
   -39.7678 -39.7678 -39.7640 -39.7640 -39.7595 -39.7595 -39.7401 -39.7401
   -39.7205 -39.7205 -39.7112 -39.7112 -39.7081 -39.7081 -39.6974 -39.6974
   -39.6954 -39.6954 -39.6930 -39.6930 -39.6917 -39.6917 -39.6819 -39.6819
   -39.6759 -39.6759 -39.6605 -39.6605 -39.6435 -39.6435 -39.6412 -39.6412
   -39.6359 -39.6359 -39.6270 -39.6270 -39.6235 -39.6235 -39.6045 -39.6045
   -39.5991 -39.5991 -39.5824 -39.5824 -39.5781 -39.5781 -39.5728 -39.5728
   -39.5619 -39.5619 -39.5554 -39.5554 -39.5430 -39.5430 -39.5399 -39.5399
   -39.5358 -39.5358 -39.5318 -39.5318 -39.5245 -39.5245 -39.5174 -39.5174
   -39.5121 -39.5121 -39.5089 -39.5089 -39.4973 -39.4973 -39.4795 -39.4795
   -39.4731 -39.4731 -39.4692 -39.4692 -39.4682 -39.4682 -39.4592 -39.4592
   -39.4392 -39.4392 -39.4240 -39.4240 -39.4205 -39.4205 -39.4105 -39.4105
   -39.4000 -39.4000 -39.3711 -39.3711 -39.3706 -39.3706 -39.3695 -39.3695
   -39.3689 -39.3689 -39.3465 -39.3465 -39.3221 -39.3221 -39.3196 -39.3196
   -39.3091 -39.3091 -39.2774 -39.2774 -39.2560 -39.2560 -39.2556 -39.2556
   -39.2534 -39.2534 -39.2362 -39.2362 -39.2071 -39.2071 -39.1675 -39.1675
   -39.1520 -39.1520 -39.1302 -39.1302 -39.0999 -39.0999 -39.0059 -39.0059
   -16.9525 -16.9525 -16.7214 -16.7214 -16.3804 -16.3804 -16.3469 -16.3469
   -16.3221 -16.3221 -16.2815 -16.2815 -16.2410 -16.2410 -15.8895 -15.8895
   -14.2874 -14.2874 -14.2805 -14.2805 -14.2573 -14.2573 -14.2393 -14.2393
   -14.2331 -14.2331 -14.2212 -14.2212 -14.1849 -14.1849 -14.1643 -14.1643
   -14.1212 -14.1212 -14.1010 -14.1010 -14.0884 -14.0884 -14.0815 -14.0815
   -14.0436 -14.0436 -14.0335 -14.0335 -14.0199 -14.0199 -14.0060 -14.0060
   -11.7569 -11.7569 -11.7331 -11.7331 -11.7226 -11.7224 -11.7003 -11.7000
   -11.6985 -11.6984 -11.6978 -11.6975 -11.6836 -11.6836 -11.6627 -11.6627
   -11.6500 -11.6500 -11.6412 -11.6412 -11.6200 -11.6199 -11.5940 -11.5938
   -11.5890 -11.5888 -11.5686 -11.5686 -11.5553 -11.5553 -11.5512 -11.5512
   -11.5235 -11.5235 -11.5094 -11.5094 -11.4993 -11.4993 -11.4939 -11.4935
   -11.4821 -11.4820 -11.4664 -11.4662 -11.4541 -11.4540 -11.4275 -11.4275
    -9.3173  -9.3173  -9.2504  -9.2504  -9.2087  -9.2087  -9.1019  -9.1019
    -9.0862  -9.0862  -9.0796  -9.0796  -8.9845  -8.9844  -8.9725  -8.9725
    -8.6264  -8.6264  -8.4163  -8.4161  -8.2993  -8.2990  -8.2224  -8.2213
    -8.1464  -8.1453  -8.1085  -8.1077  -8.0509  -8.0499  -8.0097  -8.0071
    -7.9665  -7.9650  -7.9229  -7.9213  -7.8956  -7.8927  -7.8382  -7.8354
    -7.7989  -7.7968  -7.7631  -7.7612  -7.7331  -7.7319  -7.6843  -7.6833
    -7.6777  -7.6761  -7.6496  -7.6484  -7.6278  -7.6259  -7.5811  -7.5793
    -7.5155  -7.5150  -7.4441  -7.4437  -7.3988  -7.3986  -7.3093  -7.3089
    -6.5984  -6.5984  -6.4728  -6.4728  -6.1874  -6.1874  -6.1340  -6.1340
    -6.1059  -6.1059  -6.0947  -6.0946  -6.0038  -6.0036  -5.9954  -5.9953
    -5.8554  -5.8553  -5.7614  -5.7614  -5.7031  -5.7031  -5.5441  -5.5441
    -5.5340  -5.5340  -5.4661  -5.4661  -5.1695  -5.1695  -5.1315  -5.1315
    -4.1526  -4.1523  -4.0793  -4.0785  -3.8546  -3.8537  -3.8122  -3.8107
    -3.7480  -3.7473  -3.6699  -3.6689  -3.6465  -3.6452  -3.6202  -3.6185
    -3.5355  -3.5344  -3.4969  -3.4965  -3.4447  -3.4440  -3.4212  -3.4202
    -3.3741  -3.3736  -3.3231  -3.3227  -3.2215  -3.2206  -3.1392  -3.1387
    -1.7553  -1.7552  -1.6337  -1.6335  -1.6036  -1.6035  -1.5171  -1.5169
    -1.4576  -1.4569  -1.4268  -1.4263  -1.3905  -1.3904  -1.3736  -1.3734
    -1.3414  -1.3412  -1.2241  -1.2237  -1.2134  -1.2131  -1.1176  -1.1171
    -1.1129  -1.1125  -1.0989  -1.0980  -1.0896  -1.0891  -1.0213  -1.0208
     0.3520   0.3815   0.4292   0.4489   0.4707   0.4866   0.5644   0.5755
     0.5929   0.6096   0.6199   0.6300   0.6593   0.6845   0.7534   0.7664
     0.8698   0.8772   0.9140   0.9279   0.9492   0.9802   1.0383   1.0571
     1.1257   1.1415   1.1600   1.1721   1.1931   1.2048   1.2310   1.2584
     1.2880   1.3188   1.3959   1.4276   1.4599   1.4710   1.5072   1.5333
     1.5487   1.5699   1.5902   1.6012   1.6343   1.6631   1.6912   1.7266
     1.7799   1.8083   1.8316   1.8453   1.8808   1.8877   1.9010   1.9286
     1.9443   1.9631   1.9836   1.9987   2.0239   2.0432   2.0612   2.0655
     2.0950   2.1154   2.1419   2.1488   2.1610   2.1957   2.2145   2.2268
     2.2492   2.2558   2.2633   2.2784   2.2965   2.3052   2.3233   2.3376
     2.3444   2.3608   2.3778   2.3891   2.4079   2.4138   2.4305   2.4577
     2.4752   2.4926   2.5069   2.5251   2.5358   2.5599   2.5718   2.5960
     2.6216   2.6499   2.6611   2.7053   2.7169   2.7384   2.7514   2.7839
     2.7884   2.8149   2.8252   2.8330   2.8621   2.8847   2.8901   2.9043
     2.9113   2.9265   2.9480   2.9613   2.9784   2.9833   3.0046   3.0126
     3.0448   3.0547   3.0687   3.0822   3.1064   3.1178   3.1221   3.1356
     3.1587   3.1679   3.1843   3.2053   3.2083   3.2163   3.2315   3.2402
     3.2775   3.2939   3.3032   3.3238   3.3614   3.3988   3.4879   3.5646
     5.5338   5.5445   5.6406   5.8175   5.9358   6.0131   6.1447   6.1675
     6.2242   6.2817   6.3276   6.4090   6.5701   6.5882   6.7179   6.9176
     7.0497   7.1048   7.1460   7.2125   7.2882   7.3641   7.4696   7.4916
     7.5337   7.5471   7.5964   7.6205   7.6577   7.6649   7.6985   7.7407
     7.7774   7.8150   7.8780   7.8965   7.9896   8.0089   8.0586   8.0986
     8.1437   8.1924   8.2158   8.2455   8.2920   8.3188   8.3231   8.3395
     8.4002   8.4381   8.4677   8.5040   8.5194   8.5806   8.5933   8.6096
     8.6439   8.6665   8.6919   8.7344

          k = 0.5000 0.7454 0.5000 ( 80184 PWs)   bands (ev):

   -41.9204 -41.9204 -41.8161 -41.8161 -41.6491 -41.6491 -41.6121 -41.6121
   -41.5356 -41.5356 -41.5009 -41.5009 -41.4619 -41.4619 -41.4553 -41.4553
   -41.4361 -41.4361 -41.4198 -41.4198 -41.4072 -41.4072 -41.3950 -41.3950
   -41.3924 -41.3924 -41.3920 -41.3920 -41.3550 -41.3550 -41.3315 -41.3315
   -41.3292 -41.3292 -41.3265 -41.3265 -41.3135 -41.3135 -41.3082 -41.3082
   -41.2872 -41.2872 -41.2777 -41.2777 -41.2711 -41.2711 -41.2596 -41.2596
   -41.2399 -41.2399 -41.2365 -41.2365 -41.2292 -41.2292 -41.2226 -41.2226
   -41.2138 -41.2138 -41.1766 -41.1766 -41.1664 -41.1664 -41.1658 -41.1658
   -41.1516 -41.1516 -41.1057 -41.1057 -41.1055 -41.1055 -41.1027 -41.1027
   -41.0981 -41.0981 -41.0673 -41.0673 -41.0550 -41.0550 -41.0446 -41.0446
   -40.9882 -40.9882 -40.9795 -40.9795 -40.9775 -40.9775 -40.9546 -40.9546
   -40.8936 -40.8936 -40.8588 -40.8588 -40.8508 -40.8508 -40.7393 -40.7393
   -40.2217 -40.2217 -40.1726 -40.1726 -40.0847 -40.0847 -39.9513 -39.9513
   -39.9141 -39.9141 -39.8968 -39.8968 -39.8606 -39.8606 -39.8020 -39.8020
   -39.7678 -39.7678 -39.7640 -39.7640 -39.7595 -39.7595 -39.7401 -39.7401
   -39.7205 -39.7205 -39.7112 -39.7112 -39.7081 -39.7081 -39.6974 -39.6974
   -39.6954 -39.6954 -39.6930 -39.6930 -39.6917 -39.6917 -39.6819 -39.6819
   -39.6759 -39.6759 -39.6605 -39.6605 -39.6435 -39.6435 -39.6412 -39.6412
   -39.6359 -39.6359 -39.6270 -39.6270 -39.6235 -39.6235 -39.6045 -39.6045
   -39.5991 -39.5991 -39.5824 -39.5824 -39.5781 -39.5781 -39.5728 -39.5728
   -39.5619 -39.5619 -39.5554 -39.5554 -39.5430 -39.5430 -39.5399 -39.5399
   -39.5358 -39.5358 -39.5318 -39.5318 -39.5245 -39.5245 -39.5174 -39.5174
   -39.5121 -39.5121 -39.5089 -39.5089 -39.4973 -39.4973 -39.4794 -39.4794
   -39.4731 -39.4731 -39.4692 -39.4692 -39.4682 -39.4682 -39.4592 -39.4592
   -39.4392 -39.4392 -39.4240 -39.4240 -39.4205 -39.4205 -39.4105 -39.4105
   -39.4000 -39.4000 -39.3711 -39.3711 -39.3706 -39.3706 -39.3695 -39.3695
   -39.3689 -39.3689 -39.3465 -39.3465 -39.3221 -39.3221 -39.3195 -39.3195
   -39.3091 -39.3091 -39.2774 -39.2774 -39.2560 -39.2560 -39.2556 -39.2556
   -39.2534 -39.2534 -39.2362 -39.2362 -39.2071 -39.2071 -39.1674 -39.1674
   -39.1520 -39.1520 -39.1302 -39.1302 -39.0999 -39.0999 -39.0059 -39.0059
   -16.9525 -16.9525 -16.7214 -16.7214 -16.3804 -16.3804 -16.3469 -16.3469
   -16.3220 -16.3220 -16.2815 -16.2815 -16.2410 -16.2410 -15.8895 -15.8895
   -14.2874 -14.2874 -14.2805 -14.2805 -14.2572 -14.2572 -14.2393 -14.2393
   -14.2331 -14.2330 -14.2212 -14.2212 -14.1849 -14.1849 -14.1643 -14.1643
   -14.1212 -14.1212 -14.1010 -14.1010 -14.0884 -14.0884 -14.0815 -14.0815
   -14.0436 -14.0436 -14.0335 -14.0335 -14.0199 -14.0199 -14.0060 -14.0060
   -11.7568 -11.7568 -11.7328 -11.7328 -11.7226 -11.7224 -11.7003 -11.7002
   -11.6984 -11.6984 -11.6979 -11.6978 -11.6837 -11.6836 -11.6627 -11.6627
   -11.6500 -11.6500 -11.6412 -11.6411 -11.6199 -11.6197 -11.5940 -11.5938
   -11.5890 -11.5888 -11.5684 -11.5684 -11.5554 -11.5554 -11.5512 -11.5512
   -11.5235 -11.5235 -11.5095 -11.5095 -11.4993 -11.4993 -11.4939 -11.4936
   -11.4822 -11.4820 -11.4665 -11.4663 -11.4541 -11.4540 -11.4275 -11.4275
    -9.3171  -9.3171  -9.2504  -9.2504  -9.2090  -9.2090  -9.1021  -9.1021
    -9.0862  -9.0862  -9.0794  -9.0794  -8.9841  -8.9841  -8.9723  -8.9723
    -8.6265  -8.6265  -8.4146  -8.4145  -8.2938  -8.2937  -8.2119  -8.2110
    -8.1608  -8.1603  -8.1161  -8.1156  -8.0611  -8.0599  -8.0160  -8.0151
    -7.9775  -7.9770  -7.9221  -7.9206  -7.8682  -7.8671  -7.8364  -7.8338
    -7.7921  -7.7909  -7.7689  -7.7683  -7.7390  -7.7385  -7.6840  -7.6830
    -7.6725  -7.6704  -7.6402  -7.6377  -7.6228  -7.6209  -7.5828  -7.5817
    -7.5178  -7.5168  -7.4440  -7.4439  -7.4005  -7.4004  -7.3126  -7.3123
    -6.5984  -6.5984  -6.4729  -6.4729  -6.1874  -6.1874  -6.1340  -6.1340
    -6.1057  -6.1056  -6.0949  -6.0949  -6.0017  -6.0017  -5.9971  -5.9971
    -5.8548  -5.8548  -5.7610  -5.7610  -5.7032  -5.7031  -5.5440  -5.5440
    -5.5338  -5.5338  -5.4661  -5.4661  -5.1695  -5.1695  -5.1317  -5.1317
    -4.0609  -4.0602  -4.0057  -4.0049  -3.8610  -3.8602  -3.8264  -3.8257
    -3.7965  -3.7962  -3.6990  -3.6981  -3.6503  -3.6496  -3.6158  -3.6147
    -3.5091  -3.5084  -3.4936  -3.4934  -3.4513  -3.4509  -3.4182  -3.4177
    -3.4037  -3.4026  -3.3670  -3.3660  -3.3226  -3.3222  -3.1573  -3.1572
    -1.7552  -1.7552  -1.6328  -1.6328  -1.6036  -1.6035  -1.5169  -1.5167
    -1.4571  -1.4569  -1.4274  -1.4273  -1.3900  -1.3899  -1.3734  -1.3733
    -1.3401  -1.3400  -1.2231  -1.2228  -1.2139  -1.2137  -1.1169  -1.1167
    -1.1081  -1.1078  -1.0985  -1.0983  -1.0894  -1.0893  -1.0240  -1.0239
     0.3607   0.3860   0.4980   0.5012   0.5872   0.5940   0.6731   0.6982
     0.7068   0.7189   0.7562   0.7689   0.7993   0.8114   0.8306   0.8415
     0.8536   0.8790   0.9791   0.9883   1.0504   1.0733   1.1117   1.1299
     1.1391   1.1657   1.1911   1.2010   1.2240   1.2280   1.2441   1.2613
     1.2837   1.3031   1.3292   1.3515   1.3825   1.3896   1.4359   1.4454
     1.4592   1.4892   1.5228   1.5516   1.5927   1.6105   1.6523   1.6670
     1.7386   1.7692   1.7976   1.8087   1.8333   1.8524   1.8693   1.8922
     1.9146   1.9439   1.9614   1.9775   1.9934   2.0149   2.0292   2.0542
     2.0641   2.0855   2.1041   2.1195   2.1456   2.1591   2.1832   2.1979
     2.2038   2.2111   2.2341   2.2398   2.2707   2.2855   2.2985   2.3071
     2.3212   2.3292   2.3500   2.3581   2.3790   2.3842   2.4047   2.4237
     2.4394   2.4530   2.4795   2.4936   2.5141   2.5419   2.5564   2.5713
     2.6293   2.6532   2.6694   2.6978   2.7054   2.7416   2.7540   2.7714
     2.7908   2.8056   2.8265   2.8525   2.8622   2.8743   2.8935   2.9078
     2.9221   2.9273   2.9424   2.9547   2.9633   2.9825   2.9845   3.0013
     3.0119   3.0386   3.0513   3.0614   3.0750   3.0879   3.1030   3.1115
     3.1301   3.1483   3.1563   3.1699   3.1754   3.1972   3.2136   3.2322
     3.2479   3.2585   3.2844   3.3018   3.3312   3.3671   3.4173   3.4625
     5.8120   5.8266   5.8637   5.9250   5.9974   6.0822   6.1147   6.2340
     6.5943   6.6260   6.6761   6.7388   6.8250   6.8865   6.9787   7.0653
     7.1457   7.1826   7.2313   7.2726   7.3181   7.3545   7.4729   7.5444
     7.5794   7.6028   7.6484   7.6776   7.7003   7.7242   7.7574   7.7686
     7.8106   7.8344   7.8766   7.9020   7.9292   7.9473   7.9981   8.0119
     8.0583   8.0860   8.1175   8.1368   8.1565   8.1836   8.2015   8.2313
     8.2790   8.2945   8.3089   8.3290   8.3542   8.3895   8.4157   8.4337
     8.5140   8.5426   8.5725   8.6080

          k = 0.5000 0.7454 0.7500 ( 80230 PWs)   bands (ev):

   -41.9204 -41.9204 -41.8161 -41.8161 -41.6491 -41.6491 -41.6121 -41.6121
   -41.5356 -41.5356 -41.5009 -41.5009 -41.4619 -41.4619 -41.4553 -41.4553
   -41.4361 -41.4361 -41.4198 -41.4198 -41.4072 -41.4072 -41.3950 -41.3950
   -41.3924 -41.3924 -41.3920 -41.3920 -41.3550 -41.3550 -41.3315 -41.3315
   -41.3292 -41.3292 -41.3265 -41.3265 -41.3136 -41.3136 -41.3082 -41.3082
   -41.2872 -41.2872 -41.2777 -41.2777 -41.2711 -41.2711 -41.2596 -41.2596
   -41.2399 -41.2399 -41.2365 -41.2365 -41.2292 -41.2292 -41.2226 -41.2226
   -41.2138 -41.2138 -41.1766 -41.1766 -41.1664 -41.1664 -41.1658 -41.1658
   -41.1516 -41.1516 -41.1057 -41.1057 -41.1055 -41.1055 -41.1027 -41.1027
   -41.0982 -41.0982 -41.0673 -41.0673 -41.0551 -41.0551 -41.0446 -41.0446
   -40.9882 -40.9882 -40.9795 -40.9795 -40.9775 -40.9775 -40.9546 -40.9546
   -40.8936 -40.8936 -40.8588 -40.8588 -40.8509 -40.8509 -40.7393 -40.7393
   -40.2217 -40.2217 -40.1726 -40.1726 -40.0847 -40.0847 -39.9513 -39.9513
   -39.9141 -39.9141 -39.8968 -39.8968 -39.8606 -39.8606 -39.8021 -39.8021
   -39.7678 -39.7678 -39.7640 -39.7640 -39.7595 -39.7595 -39.7401 -39.7401
   -39.7205 -39.7205 -39.7112 -39.7112 -39.7081 -39.7081 -39.6974 -39.6974
   -39.6954 -39.6954 -39.6930 -39.6930 -39.6917 -39.6917 -39.6819 -39.6819
   -39.6759 -39.6759 -39.6605 -39.6605 -39.6435 -39.6435 -39.6412 -39.6412
   -39.6359 -39.6359 -39.6270 -39.6270 -39.6235 -39.6235 -39.6045 -39.6045
   -39.5991 -39.5991 -39.5824 -39.5824 -39.5781 -39.5781 -39.5728 -39.5728
   -39.5619 -39.5619 -39.5554 -39.5554 -39.5430 -39.5430 -39.5399 -39.5399
   -39.5358 -39.5358 -39.5318 -39.5318 -39.5245 -39.5245 -39.5174 -39.5174
   -39.5121 -39.5121 -39.5089 -39.5089 -39.4973 -39.4973 -39.4795 -39.4795
   -39.4731 -39.4731 -39.4692 -39.4692 -39.4682 -39.4682 -39.4592 -39.4592
   -39.4392 -39.4392 -39.4240 -39.4240 -39.4205 -39.4205 -39.4105 -39.4105
   -39.4000 -39.4000 -39.3711 -39.3711 -39.3706 -39.3706 -39.3695 -39.3695
   -39.3689 -39.3689 -39.3465 -39.3465 -39.3221 -39.3221 -39.3196 -39.3196
   -39.3091 -39.3091 -39.2774 -39.2774 -39.2560 -39.2560 -39.2556 -39.2556
   -39.2534 -39.2534 -39.2362 -39.2362 -39.2071 -39.2071 -39.1675 -39.1675
   -39.1520 -39.1520 -39.1302 -39.1302 -39.0999 -39.0999 -39.0059 -39.0059
   -16.9525 -16.9525 -16.7214 -16.7214 -16.3804 -16.3804 -16.3469 -16.3469
   -16.3221 -16.3221 -16.2815 -16.2815 -16.2410 -16.2410 -15.8895 -15.8895
   -14.2874 -14.2874 -14.2805 -14.2805 -14.2573 -14.2572 -14.2393 -14.2393
   -14.2331 -14.2331 -14.2212 -14.2212 -14.1849 -14.1849 -14.1643 -14.1643
   -14.1212 -14.1212 -14.1010 -14.1010 -14.0884 -14.0884 -14.0815 -14.0815
   -14.0436 -14.0436 -14.0335 -14.0335 -14.0199 -14.0199 -14.0060 -14.0060
   -11.7569 -11.7569 -11.7331 -11.7331 -11.7226 -11.7224 -11.7003 -11.7001
   -11.6985 -11.6984 -11.6978 -11.6975 -11.6836 -11.6836 -11.6627 -11.6627
   -11.6500 -11.6500 -11.6412 -11.6412 -11.6200 -11.6199 -11.5940 -11.5938
   -11.5890 -11.5888 -11.5686 -11.5685 -11.5553 -11.5553 -11.5512 -11.5512
   -11.5235 -11.5235 -11.5094 -11.5094 -11.4993 -11.4993 -11.4939 -11.4935
   -11.4821 -11.4820 -11.4663 -11.4662 -11.4541 -11.4540 -11.4275 -11.4275
    -9.3173  -9.3173  -9.2504  -9.2504  -9.2087  -9.2087  -9.1020  -9.1020
    -9.0862  -9.0862  -9.0795  -9.0795  -8.9847  -8.9846  -8.9723  -8.9723
    -8.6266  -8.6265  -8.4159  -8.4158  -8.2996  -8.2994  -8.2198  -8.2189
    -8.1524  -8.1519  -8.1100  -8.1091  -8.0342  -8.0326  -8.0208  -8.0186
    -7.9673  -7.9653  -7.9237  -7.9222  -7.8928  -7.8903  -7.8403  -7.8386
    -7.7974  -7.7951  -7.7640  -7.7628  -7.7330  -7.7321  -7.6873  -7.6868
    -7.6728  -7.6719  -7.6480  -7.6448  -7.6296  -7.6270  -7.5836  -7.5829
    -7.5141  -7.5130  -7.4439  -7.4436  -7.3988  -7.3987  -7.3095  -7.3093
    -6.5984  -6.5984  -6.4728  -6.4728  -6.1874  -6.1874  -6.1341  -6.1341
    -6.1057  -6.1056  -6.0950  -6.0950  -6.0040  -6.0039  -5.9952  -5.9951
    -5.8553  -5.8553  -5.7614  -5.7614  -5.7030  -5.7030  -5.5441  -5.5441
    -5.5338  -5.5338  -5.4662  -5.4662  -5.1695  -5.1695  -5.1316  -5.1316
    -4.1551  -4.1546  -4.0804  -4.0797  -3.8562  -3.8554  -3.7909  -3.7903
    -3.7530  -3.7527  -3.6749  -3.6742  -3.6397  -3.6385  -3.6284  -3.6270
    -3.5366  -3.5357  -3.5015  -3.5012  -3.4454  -3.4449  -3.4227  -3.4222
    -3.3684  -3.3677  -3.3333  -3.3328  -3.2149  -3.2135  -3.1368  -3.1364
    -1.7553  -1.7551  -1.6336  -1.6335  -1.6036  -1.6034  -1.5171  -1.5169
    -1.4574  -1.4571  -1.4273  -1.4266  -1.3902  -1.3901  -1.3737  -1.3735
    -1.3413  -1.3412  -1.2240  -1.2234  -1.2134  -1.2132  -1.1189  -1.1180
    -1.1107  -1.1106  -1.1000  -1.0991  -1.0893  -1.0888  -1.0214  -1.0210
     0.3336   0.3646   0.4395   0.4587   0.4771   0.4896   0.5560   0.5650
     0.5859   0.5993   0.6239   0.6306   0.6705   0.6953   0.7837   0.7942
     0.8664   0.8814   0.9059   0.9194   0.9325   0.9563   1.0405   1.0651
     1.1205   1.1388   1.1521   1.1735   1.1819   1.2061   1.2283   1.2748
     1.3053   1.3348   1.4031   1.4105   1.4452   1.4859   1.5094   1.5317
     1.5438   1.5559   1.5824   1.6074   1.6393   1.6554   1.7119   1.7342
     1.7627   1.8073   1.8243   1.8485   1.8772   1.8974   1.9242   1.9329
     1.9498   1.9693   1.9906   2.0039   2.0162   2.0340   2.0538   2.0615
     2.0909   2.1199   2.1382   2.1469   2.1781   2.1856   2.2138   2.2245
     2.2362   2.2433   2.2683   2.2856   2.2973   2.3041   2.3293   2.3354
     2.3463   2.3654   2.3690   2.3913   2.4041   2.4153   2.4350   2.4557
     2.4700   2.4885   2.5012   2.5265   2.5369   2.5560   2.5847   2.5926
     2.6366   2.6467   2.6642   2.7044   2.7110   2.7344   2.7469   2.7684
     2.7902   2.8031   2.8364   2.8399   2.8627   2.8772   2.8902   2.9077
     2.9162   2.9192   2.9461   2.9544   2.9728   2.9854   3.0091   3.0131
     3.0282   3.0555   3.0623   3.0760   3.0942   3.1089   3.1201   3.1363
     3.1596   3.1693   3.1819   3.1965   3.2099   3.2240   3.2318   3.2565
     3.2776   3.2863   3.3246   3.3388   3.3766   3.4150   3.4953   3.5509
     5.5188   5.5526   5.6711   5.8098   5.9357   5.9825   6.1555   6.1675
     6.1788   6.2827   6.3143   6.4070   6.5811   6.6449   6.7567   6.9031
     7.0376   7.1065   7.1493   7.2039   7.2950   7.3697   7.4620   7.4736
     7.5534   7.5652   7.5789   7.6101   7.6450   7.6524   7.6946   7.7364
     7.7619   7.8089   7.8966   7.9071   7.9924   8.0056   8.0644   8.0972
     8.1454   8.1704   8.2092   8.2402   8.2997   8.3340   8.3556   8.3697
     8.3887   8.4306   8.4639   8.5102   8.5454   8.5770   8.5845   8.6189
     8.6268   8.6349   8.6791   8.7472

          k = 0.7500 0.0000 0.0000 ( 80189 PWs)   bands (ev):

   -41.9204 -41.9204 -41.8161 -41.8161 -41.6491 -41.6491 -41.6121 -41.6121
   -41.5356 -41.5356 -41.5009 -41.5009 -41.4619 -41.4619 -41.4553 -41.4553
   -41.4361 -41.4361 -41.4198 -41.4198 -41.4072 -41.4072 -41.3950 -41.3950
   -41.3924 -41.3924 -41.3920 -41.3920 -41.3550 -41.3550 -41.3315 -41.3315
   -41.3292 -41.3292 -41.3265 -41.3265 -41.3136 -41.3136 -41.3082 -41.3082
   -41.2872 -41.2872 -41.2777 -41.2777 -41.2711 -41.2711 -41.2596 -41.2596
   -41.2399 -41.2399 -41.2365 -41.2365 -41.2292 -41.2292 -41.2226 -41.2226
   -41.2138 -41.2138 -41.1766 -41.1766 -41.1664 -41.1664 -41.1658 -41.1658
   -41.1516 -41.1516 -41.1057 -41.1057 -41.1055 -41.1055 -41.1027 -41.1027
   -41.0982 -41.0982 -41.0673 -41.0673 -41.0551 -41.0551 -41.0446 -41.0446
   -40.9882 -40.9882 -40.9795 -40.9795 -40.9775 -40.9775 -40.9546 -40.9546
   -40.8936 -40.8936 -40.8588 -40.8588 -40.8508 -40.8508 -40.7393 -40.7393
   -40.2217 -40.2217 -40.1726 -40.1726 -40.0847 -40.0847 -39.9513 -39.9513
   -39.9141 -39.9141 -39.8968 -39.8968 -39.8606 -39.8606 -39.8021 -39.8021
   -39.7678 -39.7678 -39.7640 -39.7640 -39.7595 -39.7595 -39.7401 -39.7401
   -39.7205 -39.7205 -39.7112 -39.7112 -39.7081 -39.7081 -39.6974 -39.6974
   -39.6954 -39.6954 -39.6930 -39.6930 -39.6917 -39.6917 -39.6819 -39.6819
   -39.6759 -39.6759 -39.6605 -39.6605 -39.6435 -39.6435 -39.6412 -39.6412
   -39.6359 -39.6359 -39.6270 -39.6270 -39.6235 -39.6235 -39.6045 -39.6045
   -39.5991 -39.5991 -39.5824 -39.5824 -39.5781 -39.5781 -39.5728 -39.5728
   -39.5619 -39.5619 -39.5554 -39.5554 -39.5430 -39.5430 -39.5399 -39.5399
   -39.5358 -39.5358 -39.5318 -39.5318 -39.5245 -39.5245 -39.5174 -39.5174
   -39.5121 -39.5121 -39.5089 -39.5089 -39.4973 -39.4973 -39.4795 -39.4795
   -39.4731 -39.4731 -39.4692 -39.4692 -39.4682 -39.4682 -39.4592 -39.4592
   -39.4392 -39.4392 -39.4240 -39.4240 -39.4205 -39.4205 -39.4105 -39.4105
   -39.4000 -39.4000 -39.3711 -39.3711 -39.3706 -39.3706 -39.3695 -39.3695
   -39.3689 -39.3689 -39.3465 -39.3465 -39.3221 -39.3221 -39.3196 -39.3196
   -39.3091 -39.3091 -39.2774 -39.2774 -39.2560 -39.2560 -39.2556 -39.2556
   -39.2534 -39.2534 -39.2362 -39.2362 -39.2071 -39.2071 -39.1674 -39.1674
   -39.1520 -39.1520 -39.1302 -39.1302 -39.0999 -39.0999 -39.0059 -39.0059
   -16.9525 -16.9525 -16.7214 -16.7214 -16.3804 -16.3804 -16.3469 -16.3469
   -16.3220 -16.3220 -16.2815 -16.2815 -16.2410 -16.2410 -15.8895 -15.8895
   -14.2874 -14.2874 -14.2805 -14.2805 -14.2573 -14.2573 -14.2393 -14.2393
   -14.2330 -14.2330 -14.2212 -14.2212 -14.1849 -14.1849 -14.1643 -14.1643
   -14.1212 -14.1212 -14.1010 -14.1010 -14.0884 -14.0884 -14.0815 -14.0815
   -14.0436 -14.0436 -14.0335 -14.0335 -14.0199 -14.0199 -14.0060 -14.0060
   -11.7571 -11.7571 -11.7335 -11.7335 -11.7230 -11.7230 -11.6999 -11.6999
   -11.6986 -11.6986 -11.6973 -11.6973 -11.6835 -11.6835 -11.6627 -11.6627
   -11.6500 -11.6499 -11.6411 -11.6411 -11.6204 -11.6204 -11.5938 -11.5938
   -11.5889 -11.5889 -11.5692 -11.5690 -11.5548 -11.5546 -11.5510 -11.5510
   -11.5235 -11.5235 -11.5092 -11.5092 -11.4993 -11.4993 -11.4943 -11.4943
   -11.4816 -11.4816 -11.4658 -11.4658 -11.4541 -11.4541 -11.4275 -11.4275
    -9.3174  -9.3174  -9.2504  -9.2504  -9.2091  -9.2091  -9.1028  -9.1028
    -9.0869  -9.0869  -9.0780  -9.0780  -8.9842  -8.9842  -8.9707  -8.9707
    -8.6345  -8.6344  -8.4287  -8.4286  -8.3019  -8.3016  -8.2051  -8.2042
    -8.1277  -8.1261  -8.0984  -8.0970  -8.0213  -8.0200  -7.9780  -7.9753
    -7.9605  -7.9584  -7.9447  -7.9445  -7.8974  -7.8966  -7.8503  -7.8486
    -7.8270  -7.8260  -7.7945  -7.7942  -7.7333  -7.7315  -7.6943  -7.6927
    -7.6733  -7.6729  -7.6497  -7.6490  -7.6317  -7.6310  -7.5965  -7.5959
    -7.5070  -7.5068  -7.4349  -7.4347  -7.3942  -7.3940  -7.2998  -7.2997
    -6.5984  -6.5984  -6.4728  -6.4728  -6.1876  -6.1876  -6.1341  -6.1341
    -6.1077  -6.1077  -6.0933  -6.0933  -6.0053  -6.0053  -5.9939  -5.9939
    -5.8553  -5.8553  -5.7616  -5.7616  -5.7026  -5.7026  -5.5444  -5.5443
    -5.5338  -5.5338  -5.4662  -5.4662  -5.1699  -5.1699  -5.1315  -5.1315
    -4.4121  -4.4120  -4.0320  -4.0314  -3.8986  -3.8981  -3.8473  -3.8462
    -3.8096  -3.8082  -3.6631  -3.6629  -3.5350  -3.5337  -3.5095  -3.5090
    -3.4837  -3.4822  -3.4600  -3.4589  -3.4344  -3.4339  -3.4140  -3.4136
    -3.3620  -3.3616  -3.3130  -3.3121  -3.1727  -3.1724  -2.8795  -2.8787
    -1.7573  -1.7570  -1.6362  -1.6361  -1.6030  -1.6030  -1.5171  -1.5170
    -1.4577  -1.4576  -1.4266  -1.4265  -1.3944  -1.3936  -1.3718  -1.3710
    -1.3429  -1.3427  -1.2256  -1.2252  -1.2127  -1.2125  -1.1236  -1.1232
    -1.1126  -1.1124  -1.1000  -1.0996  -1.0893  -1.0887  -1.0175  -1.0173
     0.2030   0.2074   0.2483   0.2560   0.3285   0.3470   0.3762   0.3861
     0.4256   0.4279   0.4517   0.4611   0.4868   0.4975   0.5242   0.5299
     0.5568   0.5633   0.5951   0.6015   0.6206   0.6265   0.7122   0.7291
     1.1451   1.1605   1.2428   1.2730   1.2924   1.3031   1.3134   1.3394
     1.4960   1.5150   1.5361   1.5451   1.5709   1.5856   1.6003   1.6268
     1.6787   1.7003   1.7227   1.7376   1.7657   1.7903   1.8124   1.8292
     1.8441   1.8572   1.8874   1.9112   1.9447   1.9717   1.9933   2.0215
     2.0343   2.0437   2.0566   2.0801   2.1050   2.1163   2.1284   2.1432
     2.1662   2.1758   2.1968   2.2094   2.2288   2.2530   2.2738   2.2777
     2.3154   2.3333   2.3459   2.3607   2.3704   2.3856   2.4067   2.4144
     2.4289   2.4390   2.4547   2.4706   2.4779   2.4962   2.5145   2.5294
     2.5426   2.5514   2.5626   2.5763   2.5903   2.6093   2.6175   2.6436
     2.6618   2.6779   2.6897   2.7073   2.7209   2.7389   2.7520   2.7613
     2.7746   2.7939   2.8236   2.8406   2.8588   2.8638   2.8888   2.9049
     2.9125   2.9279   2.9340   2.9463   2.9878   3.0069   3.0234   3.0450
     3.0525   3.0752   3.0816   3.1063   3.1340   3.1530   3.1646   3.1823
     3.2115   3.2336   3.2578   3.2781   3.2946   3.3024   3.3702   3.3881
     3.4745   3.5109   3.5373   3.5762   3.6017   3.6355   3.9414   3.9532
     4.8068   4.8714   5.2123   5.2503   5.4552   5.5128   5.5795   5.6323
     5.9353   5.9742   6.0240   6.0488   6.1176   6.1479   6.3851   6.4065
     6.4386   6.4551   6.6030   6.6353   6.7285   6.7803   6.8218   6.8530
     7.2865   7.2893   7.7677   7.8178   7.8483   7.8701   8.0252   8.0375
     8.1009   8.1248   8.1596   8.1799   8.2518   8.2882   8.3283   8.3559
     8.3893   8.4205   8.4406   8.4681   8.4872   8.4946   8.5525   8.5648
     8.6040   8.6299   8.6632   8.6745   8.6814   8.7149   8.7447   8.7749
     8.8245   8.8707   8.9064   8.9121

          k = 0.7500 0.0000 0.2500 ( 80236 PWs)   bands (ev):

   -41.9204 -41.9204 -41.8161 -41.8161 -41.6491 -41.6491 -41.6121 -41.6121
   -41.5356 -41.5356 -41.5009 -41.5009 -41.4619 -41.4619 -41.4553 -41.4553
   -41.4361 -41.4361 -41.4198 -41.4198 -41.4072 -41.4072 -41.3950 -41.3950
   -41.3924 -41.3924 -41.3920 -41.3920 -41.3550 -41.3550 -41.3315 -41.3315
   -41.3292 -41.3292 -41.3265 -41.3265 -41.3136 -41.3136 -41.3082 -41.3082
   -41.2872 -41.2872 -41.2777 -41.2777 -41.2711 -41.2711 -41.2596 -41.2596
   -41.2399 -41.2399 -41.2365 -41.2365 -41.2292 -41.2292 -41.2226 -41.2226
   -41.2138 -41.2138 -41.1766 -41.1766 -41.1664 -41.1664 -41.1658 -41.1658
   -41.1516 -41.1516 -41.1057 -41.1057 -41.1055 -41.1055 -41.1027 -41.1027
   -41.0982 -41.0982 -41.0673 -41.0673 -41.0551 -41.0551 -41.0447 -41.0447
   -40.9882 -40.9882 -40.9795 -40.9795 -40.9775 -40.9775 -40.9546 -40.9546
   -40.8936 -40.8936 -40.8588 -40.8588 -40.8509 -40.8509 -40.7393 -40.7393
   -40.2217 -40.2217 -40.1726 -40.1726 -40.0847 -40.0847 -39.9513 -39.9513
   -39.9141 -39.9141 -39.8968 -39.8968 -39.8606 -39.8606 -39.8021 -39.8021
   -39.7678 -39.7678 -39.7640 -39.7640 -39.7595 -39.7595 -39.7401 -39.7401
   -39.7205 -39.7205 -39.7112 -39.7112 -39.7081 -39.7081 -39.6974 -39.6974
   -39.6954 -39.6954 -39.6930 -39.6930 -39.6917 -39.6917 -39.6819 -39.6819
   -39.6759 -39.6759 -39.6605 -39.6605 -39.6435 -39.6435 -39.6412 -39.6412
   -39.6359 -39.6359 -39.6270 -39.6270 -39.6235 -39.6235 -39.6045 -39.6045
   -39.5991 -39.5991 -39.5824 -39.5824 -39.5781 -39.5781 -39.5728 -39.5728
   -39.5620 -39.5620 -39.5554 -39.5554 -39.5430 -39.5430 -39.5399 -39.5399
   -39.5358 -39.5358 -39.5318 -39.5318 -39.5245 -39.5245 -39.5174 -39.5174
   -39.5121 -39.5121 -39.5089 -39.5089 -39.4973 -39.4973 -39.4795 -39.4795
   -39.4731 -39.4731 -39.4692 -39.4692 -39.4682 -39.4682 -39.4592 -39.4592
   -39.4392 -39.4392 -39.4240 -39.4240 -39.4205 -39.4205 -39.4105 -39.4105
   -39.4000 -39.4000 -39.3711 -39.3711 -39.3706 -39.3706 -39.3695 -39.3695
   -39.3689 -39.3689 -39.3465 -39.3465 -39.3221 -39.3221 -39.3196 -39.3196
   -39.3091 -39.3091 -39.2774 -39.2774 -39.2560 -39.2560 -39.2556 -39.2556
   -39.2534 -39.2534 -39.2362 -39.2362 -39.2071 -39.2071 -39.1675 -39.1675
   -39.1520 -39.1520 -39.1302 -39.1302 -39.0999 -39.0999 -39.0059 -39.0059
   -16.9525 -16.9525 -16.7214 -16.7214 -16.3804 -16.3804 -16.3469 -16.3469
   -16.3221 -16.3221 -16.2816 -16.2816 -16.2410 -16.2410 -15.8895 -15.8895
   -14.2874 -14.2874 -14.2805 -14.2805 -14.2573 -14.2573 -14.2393 -14.2393
   -14.2330 -14.2330 -14.2212 -14.2212 -14.1849 -14.1849 -14.1643 -14.1643
   -14.1212 -14.1212 -14.1010 -14.1010 -14.0884 -14.0884 -14.0815 -14.0815
   -14.0436 -14.0436 -14.0335 -14.0335 -14.0199 -14.0199 -14.0060 -14.0060
   -11.7571 -11.7570 -11.7332 -11.7331 -11.7230 -11.7230 -11.7000 -11.6999
   -11.6985 -11.6985 -11.6978 -11.6974 -11.6836 -11.6835 -11.6627 -11.6627
   -11.6500 -11.6499 -11.6412 -11.6412 -11.6203 -11.6202 -11.5938 -11.5938
   -11.5889 -11.5889 -11.5691 -11.5689 -11.5549 -11.5547 -11.5510 -11.5510
   -11.5235 -11.5235 -11.5093 -11.5093 -11.4993 -11.4993 -11.4943 -11.4943
   -11.4817 -11.4816 -11.4659 -11.4659 -11.4541 -11.4541 -11.4275 -11.4275
    -9.3172  -9.3172  -9.2505  -9.2505  -9.2095  -9.2095  -9.1029  -9.1028
    -9.0868  -9.0868  -9.0780  -9.0780  -8.9839  -8.9839  -8.9706  -8.9706
    -8.6336  -8.6335  -8.4291  -8.4290  -8.2937  -8.2934  -8.2007  -8.1997
    -8.1427  -8.1416  -8.1094  -8.1081  -8.0249  -8.0221  -8.0024  -8.0018
    -7.9584  -7.9572  -7.9214  -7.9197  -7.8880  -7.8854  -7.8566  -7.8545
    -7.8215  -7.8206  -7.7937  -7.7924  -7.7394  -7.7377  -7.6883  -7.6872
    -7.6727  -7.6710  -7.6429  -7.6414  -7.6322  -7.6317  -7.5894  -7.5883
    -7.5082  -7.5079  -7.4380  -7.4377  -7.3958  -7.3956  -7.3041  -7.3039
    -6.5985  -6.5985  -6.4730  -6.4729  -6.1878  -6.1878  -6.1340  -6.1340
    -6.1076  -6.1076  -6.0936  -6.0935  -6.0039  -6.0038  -5.9953  -5.9952
    -5.8548  -5.8548  -5.7613  -5.7613  -5.7028  -5.7028  -5.5443  -5.5443
    -5.5338  -5.5338  -5.4663  -5.4663  -5.1700  -5.1699  -5.1317  -5.1317
    -4.3450  -4.3446  -4.0391  -4.0384  -3.8814  -3.8805  -3.8267  -3.8252
    -3.8009  -3.8002  -3.6647  -3.6645  -3.5661  -3.5644  -3.5456  -3.5445
    -3.5113  -3.5105  -3.4791  -3.4777  -3.4381  -3.4379  -3.4092  -3.4091
    -3.3668  -3.3656  -3.3055  -3.3047  -3.1761  -3.1755  -2.9791  -2.9783
    -1.7574  -1.7571  -1.6349  -1.6347  -1.6039  -1.6037  -1.5169  -1.5167
    -1.4577  -1.4573  -1.4276  -1.4271  -1.3939  -1.3932  -1.3719  -1.3709
    -1.3417  -1.3415  -1.2249  -1.2243  -1.2131  -1.2128  -1.1195  -1.1184
    -1.1107  -1.1106  -1.1010  -1.0997  -1.0878  -1.0873  -1.0231  -1.0226
     0.2149   0.2183   0.3388   0.3540   0.3843   0.3968   0.4371   0.4492
     0.4629   0.4729   0.4928   0.5095   0.5532   0.5668   0.5858   0.5910
     0.6118   0.6201   0.6552   0.6613   0.7207   0.7272   0.8181   0.8271
     1.1394   1.1600   1.2365   1.2612   1.2877   1.2963   1.3102   1.3385
     1.4435   1.4712   1.4995   1.5214   1.5433   1.5767   1.5874   1.6027
     1.6429   1.6707   1.6990   1.7197   1.7378   1.7621   1.7998   1.8165
     1.8320   1.8473   1.8654   1.9088   1.9177   1.9316   1.9513   1.9768
     2.0055   2.0133   2.0331   2.0471   2.0680   2.0919   2.1079   2.1176
     2.1365   2.1593   2.1861   2.1910   2.2103   2.2370   2.2546   2.2762
     2.2912   2.3080   2.3366   2.3452   2.3598   2.3739   2.3785   2.3894
     2.4054   2.4142   2.4340   2.4409   2.4553   2.4661   2.4786   2.5003
     2.5077   2.5236   2.5447   2.5526   2.5707   2.5834   2.6211   2.6334
     2.6518   2.6627   2.6811   2.6938   2.7197   2.7265   2.7342   2.7674
     2.7827   2.8044   2.8252   2.8446   2.8509   2.8746   2.8855   2.9012
     2.9139   2.9335   2.9404   2.9612   2.9800   2.9846   2.9940   3.0348
     3.0448   3.0577   3.0688   3.0908   3.1237   3.1334   3.1481   3.1707
     3.1830   3.2093   3.2264   3.2399   3.2777   3.2841   3.3075   3.3237
     3.3734   3.4172   3.4419   3.4663   3.5320   3.5543   3.7312   3.7391
     5.0662   5.1142   5.4265   5.4624   5.5254   5.5443   5.8106   5.8587
     6.0007   6.0188   6.2642   6.3249   6.3759   6.4278   6.4778   6.5222
     6.6163   6.6602   6.6863   6.7292   6.7793   6.7996   6.9875   7.0049
     7.3934   7.3971   7.6808   7.7079   7.8549   7.8694   7.9372   7.9466
     8.0240   8.0444   8.0581   8.0880   8.1570   8.1788   8.2751   8.2984
     8.3068   8.3711   8.3888   8.4165   8.4417   8.4624   8.5120   8.5273
     8.5567   8.5823   8.6054   8.6392   8.6626   8.6844   8.7146   8.7359
     8.7922   8.8282   8.8481   8.8813

          k = 0.7500 0.0000 0.5000 ( 80264 PWs)   bands (ev):

   -41.9204 -41.9204 -41.8161 -41.8161 -41.6491 -41.6491 -41.6121 -41.6121
   -41.5356 -41.5356 -41.5009 -41.5009 -41.4619 -41.4619 -41.4553 -41.4553
   -41.4361 -41.4361 -41.4198 -41.4198 -41.4072 -41.4072 -41.3950 -41.3950
   -41.3924 -41.3924 -41.3920 -41.3920 -41.3550 -41.3550 -41.3315 -41.3315
   -41.3292 -41.3292 -41.3265 -41.3265 -41.3136 -41.3136 -41.3082 -41.3082
   -41.2872 -41.2872 -41.2777 -41.2777 -41.2711 -41.2711 -41.2596 -41.2596
   -41.2399 -41.2399 -41.2365 -41.2365 -41.2292 -41.2292 -41.2226 -41.2226
   -41.2138 -41.2138 -41.1766 -41.1766 -41.1664 -41.1664 -41.1658 -41.1658
   -41.1516 -41.1516 -41.1057 -41.1057 -41.1055 -41.1055 -41.1028 -41.1028
   -41.0982 -41.0982 -41.0673 -41.0673 -41.0551 -41.0551 -41.0447 -41.0447
   -40.9882 -40.9882 -40.9795 -40.9795 -40.9775 -40.9775 -40.9546 -40.9546
   -40.8936 -40.8936 -40.8588 -40.8588 -40.8509 -40.8509 -40.7393 -40.7393
   -40.2217 -40.2217 -40.1726 -40.1726 -40.0847 -40.0847 -39.9513 -39.9513
   -39.9141 -39.9141 -39.8968 -39.8968 -39.8606 -39.8606 -39.8021 -39.8021
   -39.7678 -39.7678 -39.7640 -39.7640 -39.7595 -39.7595 -39.7401 -39.7401
   -39.7206 -39.7206 -39.7112 -39.7112 -39.7081 -39.7081 -39.6974 -39.6974
   -39.6954 -39.6954 -39.6930 -39.6930 -39.6917 -39.6917 -39.6819 -39.6819
   -39.6759 -39.6759 -39.6605 -39.6605 -39.6435 -39.6435 -39.6412 -39.6412
   -39.6359 -39.6359 -39.6270 -39.6270 -39.6235 -39.6235 -39.6045 -39.6045
   -39.5991 -39.5991 -39.5824 -39.5824 -39.5782 -39.5782 -39.5728 -39.5728
   -39.5620 -39.5620 -39.5554 -39.5554 -39.5430 -39.5430 -39.5399 -39.5399
   -39.5358 -39.5358 -39.5318 -39.5318 -39.5245 -39.5245 -39.5174 -39.5174
   -39.5121 -39.5121 -39.5089 -39.5089 -39.4973 -39.4973 -39.4795 -39.4795
   -39.4731 -39.4731 -39.4692 -39.4692 -39.4682 -39.4682 -39.4593 -39.4593
   -39.4392 -39.4392 -39.4240 -39.4240 -39.4205 -39.4205 -39.4105 -39.4105
   -39.4000 -39.4000 -39.3711 -39.3711 -39.3706 -39.3706 -39.3695 -39.3695
   -39.3689 -39.3689 -39.3465 -39.3465 -39.3221 -39.3221 -39.3196 -39.3196
   -39.3091 -39.3091 -39.2774 -39.2774 -39.2560 -39.2560 -39.2556 -39.2556
   -39.2534 -39.2534 -39.2362 -39.2362 -39.2071 -39.2071 -39.1675 -39.1675
   -39.1520 -39.1520 -39.1302 -39.1302 -39.0999 -39.0999 -39.0059 -39.0059
   -16.9525 -16.9525 -16.7214 -16.7214 -16.3804 -16.3804 -16.3469 -16.3469
   -16.3221 -16.3221 -16.2816 -16.2816 -16.2410 -16.2410 -15.8895 -15.8895
   -14.2874 -14.2874 -14.2805 -14.2805 -14.2573 -14.2573 -14.2393 -14.2393
   -14.2331 -14.2331 -14.2212 -14.2212 -14.1849 -14.1849 -14.1643 -14.1643
   -14.1212 -14.1212 -14.1010 -14.1010 -14.0884 -14.0884 -14.0815 -14.0815
   -14.0437 -14.0436 -14.0335 -14.0335 -14.0200 -14.0200 -14.0060 -14.0060
   -11.7570 -11.7570 -11.7328 -11.7328 -11.7231 -11.7230 -11.7000 -11.7000
   -11.6984 -11.6984 -11.6979 -11.6979 -11.6836 -11.6836 -11.6627 -11.6627
   -11.6499 -11.6499 -11.6412 -11.6412 -11.6201 -11.6201 -11.5938 -11.5938
   -11.5889 -11.5889 -11.5690 -11.5688 -11.5549 -11.5547 -11.5511 -11.5511
   -11.5235 -11.5235 -11.5094 -11.5094 -11.4993 -11.4993 -11.4944 -11.4944
   -11.4817 -11.4817 -11.4660 -11.4660 -11.4541 -11.4541 -11.4275 -11.4275
    -9.3169  -9.3169  -9.2505  -9.2505  -9.2098  -9.2098  -9.1031  -9.1031
    -9.0869  -9.0869  -9.0779  -9.0779  -8.9836  -8.9836  -8.9707  -8.9707
    -8.6320  -8.6319  -8.4285  -8.4285  -8.2871  -8.2867  -8.1933  -8.1927
    -8.1598  -8.1593  -8.1165  -8.1152  -8.0443  -8.0425  -7.9990  -7.9986
    -7.9624  -7.9608  -7.9168  -7.9161  -7.8707  -7.8688  -7.8573  -7.8552
    -7.8185  -7.8172  -7.7951  -7.7926  -7.7389  -7.7388  -7.6772  -7.6761
    -7.6745  -7.6743  -7.6399  -7.6393  -7.6302  -7.6300  -7.5853  -7.5848
    -7.5087  -7.5087  -7.4408  -7.4407  -7.3977  -7.3976  -7.3083  -7.3082
    -6.5986  -6.5986  -6.4732  -6.4731  -6.1878  -6.1878  -6.1339  -6.1339
    -6.1075  -6.1075  -6.0938  -6.0938  -6.0018  -6.0018  -5.9971  -5.9971
    -5.8543  -5.8543  -5.7609  -5.7609  -5.7030  -5.7030  -5.5443  -5.5443
    -5.5338  -5.5338  -5.4663  -5.4663  -5.1700  -5.1700  -5.1320  -5.1320
    -4.2071  -4.2070  -4.1497  -4.1495  -3.8364  -3.8361  -3.7598  -3.7584
    -3.7426  -3.7417  -3.6964  -3.6948  -3.6523  -3.6512  -3.6327  -3.6312
    -3.5108  -3.5102  -3.4945  -3.4937  -3.4391  -3.4387  -3.4238  -3.4237
    -3.3510  -3.3507  -3.2413  -3.2405  -3.1748  -3.1743  -3.1242  -3.1241
    -1.7574  -1.7571  -1.6335  -1.6334  -1.6046  -1.6046  -1.5165  -1.5164
    -1.4572  -1.4572  -1.4282  -1.4281  -1.3937  -1.3929  -1.3722  -1.3714
    -1.3404  -1.3402  -1.2242  -1.2238  -1.2133  -1.2131  -1.1174  -1.1171
    -1.1081  -1.1079  -1.1003  -1.0995  -1.0880  -1.0875  -1.0260  -1.0259
     0.2220   0.2254   0.3481   0.3540   0.4338   0.4378   0.4445   0.4504
     0.4613   0.4655   0.5611   0.5679   0.5890   0.6010   0.6224   0.6399
     0.7786   0.7862   0.8733   0.8806   1.0744   1.0878   1.1198   1.1417
     1.1607   1.1651   1.1703   1.1980   1.2138   1.2398   1.2647   1.2930
     1.3146   1.3322   1.3834   1.4113   1.4733   1.4977   1.5157   1.5464
     1.5566   1.5753   1.6274   1.6465   1.6977   1.7271   1.7608   1.7878
     1.8011   1.8258   1.8437   1.8631   1.8758   1.8877   1.9087   1.9352
     1.9474   1.9799   1.9870   2.0079   2.0252   2.0412   2.0626   2.0897
     2.1182   2.1466   2.1606   2.1778   2.1930   2.2156   2.2444   2.2513
     2.2714   2.3013   2.3080   2.3306   2.3378   2.3506   2.3585   2.3693
     2.3880   2.4005   2.4107   2.4208   2.4359   2.4476   2.4541   2.4859
     2.4899   2.5096   2.5185   2.5363   2.5505   2.5673   2.5965   2.6230
     2.6357   2.6636   2.6926   2.7007   2.7090   2.7239   2.7549   2.7721
     2.7952   2.8058   2.8277   2.8486   2.8672   2.8760   2.9038   2.9092
     2.9163   2.9306   2.9495   2.9595   2.9763   2.9869   2.9984   3.0098
     3.0418   3.0470   3.0611   3.0887   3.0980   3.1105   3.1317   3.1521
     3.1632   3.1737   3.1922   3.1984   3.2380   3.2512   3.2881   3.3008
     3.3183   3.3267   3.3895   3.4059   3.4782   3.5237   3.6342   3.6573
     5.3008   5.3279   5.3380   5.3951   5.7344   5.7763   5.7893   5.8202
     6.2467   6.2644   6.3056   6.3499   6.5505   6.5741   6.5973   6.6366
     6.8931   7.0012   7.0484   7.0587   7.3243   7.3587   7.4118   7.4206
     7.5199   7.5533   7.5874   7.6056   7.6369   7.6695   7.7219   7.7500
     7.7815   7.8014   7.8343   7.8463   7.9885   7.9966   8.1265   8.1354
     8.1972   8.2175   8.3010   8.3330   8.3594   8.3648   8.4108   8.4433
     8.4883   8.5034   8.5378   8.5524   8.6343   8.6740   8.7052   8.7271
     8.7616   8.7818   8.8105   8.8329

          k = 0.7500 0.0000 0.7500 ( 80236 PWs)   bands (ev):

   -41.9204 -41.9204 -41.8161 -41.8161 -41.6491 -41.6491 -41.6121 -41.6121
   -41.5356 -41.5356 -41.5009 -41.5009 -41.4619 -41.4619 -41.4553 -41.4553
   -41.4361 -41.4361 -41.4198 -41.4198 -41.4072 -41.4072 -41.3950 -41.3950
   -41.3924 -41.3924 -41.3920 -41.3920 -41.3550 -41.3550 -41.3315 -41.3315
   -41.3292 -41.3292 -41.3265 -41.3265 -41.3136 -41.3136 -41.3082 -41.3082
   -41.2872 -41.2872 -41.2777 -41.2777 -41.2711 -41.2711 -41.2596 -41.2596
   -41.2399 -41.2399 -41.2365 -41.2365 -41.2292 -41.2292 -41.2226 -41.2226
   -41.2138 -41.2138 -41.1766 -41.1766 -41.1664 -41.1664 -41.1658 -41.1658
   -41.1516 -41.1516 -41.1057 -41.1057 -41.1055 -41.1055 -41.1027 -41.1027
   -41.0982 -41.0982 -41.0673 -41.0673 -41.0551 -41.0551 -41.0447 -41.0447
   -40.9882 -40.9882 -40.9795 -40.9795 -40.9775 -40.9775 -40.9546 -40.9546
   -40.8936 -40.8936 -40.8588 -40.8588 -40.8509 -40.8509 -40.7393 -40.7393
   -40.2217 -40.2217 -40.1726 -40.1726 -40.0847 -40.0847 -39.9513 -39.9513
   -39.9141 -39.9141 -39.8968 -39.8968 -39.8606 -39.8606 -39.8021 -39.8021
   -39.7678 -39.7678 -39.7640 -39.7640 -39.7595 -39.7595 -39.7401 -39.7401
   -39.7205 -39.7205 -39.7112 -39.7112 -39.7081 -39.7081 -39.6974 -39.6974
   -39.6954 -39.6954 -39.6930 -39.6930 -39.6917 -39.6917 -39.6819 -39.6819
   -39.6759 -39.6759 -39.6605 -39.6605 -39.6435 -39.6435 -39.6412 -39.6412
   -39.6359 -39.6359 -39.6270 -39.6270 -39.6235 -39.6235 -39.6045 -39.6045
   -39.5991 -39.5991 -39.5824 -39.5824 -39.5781 -39.5781 -39.5728 -39.5728
   -39.5620 -39.5620 -39.5554 -39.5554 -39.5430 -39.5430 -39.5399 -39.5399
   -39.5358 -39.5358 -39.5318 -39.5318 -39.5245 -39.5245 -39.5174 -39.5174
   -39.5121 -39.5121 -39.5089 -39.5089 -39.4973 -39.4973 -39.4795 -39.4795
   -39.4731 -39.4731 -39.4692 -39.4692 -39.4682 -39.4682 -39.4592 -39.4592
   -39.4392 -39.4392 -39.4240 -39.4240 -39.4205 -39.4205 -39.4105 -39.4105
   -39.4000 -39.4000 -39.3711 -39.3711 -39.3706 -39.3706 -39.3695 -39.3695
   -39.3689 -39.3689 -39.3465 -39.3465 -39.3221 -39.3221 -39.3196 -39.3196
   -39.3091 -39.3091 -39.2774 -39.2774 -39.2560 -39.2560 -39.2556 -39.2556
   -39.2534 -39.2534 -39.2362 -39.2362 -39.2071 -39.2071 -39.1674 -39.1674
   -39.1520 -39.1520 -39.1302 -39.1302 -39.0999 -39.0999 -39.0059 -39.0059
   -16.9525 -16.9525 -16.7214 -16.7214 -16.3804 -16.3804 -16.3469 -16.3469
   -16.3221 -16.3221 -16.2816 -16.2816 -16.2410 -16.2410 -15.8895 -15.8895
   -14.2874 -14.2874 -14.2805 -14.2805 -14.2573 -14.2573 -14.2393 -14.2393
   -14.2330 -14.2330 -14.2212 -14.2212 -14.1849 -14.1849 -14.1643 -14.1643
   -14.1212 -14.1212 -14.1010 -14.1010 -14.0884 -14.0884 -14.0815 -14.0815
   -14.0436 -14.0436 -14.0335 -14.0335 -14.0199 -14.0199 -14.0060 -14.0060
   -11.7571 -11.7570 -11.7332 -11.7331 -11.7230 -11.7230 -11.7000 -11.6999
   -11.6985 -11.6984 -11.6978 -11.6974 -11.6836 -11.6835 -11.6627 -11.6627
   -11.6499 -11.6499 -11.6412 -11.6412 -11.6203 -11.6202 -11.5938 -11.5938
   -11.5889 -11.5889 -11.5691 -11.5689 -11.5549 -11.5546 -11.5511 -11.5510
   -11.5235 -11.5235 -11.5093 -11.5093 -11.4993 -11.4993 -11.4943 -11.4943
   -11.4817 -11.4816 -11.4659 -11.4659 -11.4541 -11.4541 -11.4275 -11.4275
    -9.3171  -9.3171  -9.2505  -9.2505  -9.2095  -9.2094  -9.1030  -9.1030
    -9.0869  -9.0869  -9.0779  -9.0779  -8.9840  -8.9840  -8.9708  -8.9708
    -8.6329  -8.6328  -8.4281  -8.4280  -8.2966  -8.2961  -8.2005  -8.1994
    -8.1406  -8.1394  -8.1036  -8.1026  -8.0465  -8.0447  -7.9850  -7.9847
    -7.9622  -7.9599  -7.9187  -7.9171  -7.8921  -7.8892  -7.8550  -7.8538
    -7.8202  -7.8187  -7.7969  -7.7955  -7.7333  -7.7330  -7.6850  -7.6835
    -7.6731  -7.6707  -7.6429  -7.6417  -7.6321  -7.6314  -7.5959  -7.5951
    -7.5076  -7.5073  -7.4377  -7.4374  -7.3960  -7.3959  -7.3039  -7.3037
    -6.5985  -6.5985  -6.4730  -6.4730  -6.1877  -6.1877  -6.1340  -6.1340
    -6.1076  -6.1076  -6.0936  -6.0936  -6.0040  -6.0038  -5.9952  -5.9951
    -5.8549  -5.8548  -5.7613  -5.7613  -5.7028  -5.7028  -5.5443  -5.5443
    -5.5338  -5.5338  -5.4662  -5.4662  -5.1699  -5.1699  -5.1317  -5.1317
    -4.3483  -4.3481  -4.0187  -4.0186  -3.8943  -3.8933  -3.8378  -3.8368
    -3.8065  -3.8055  -3.6627  -3.6624  -3.5574  -3.5564  -3.5395  -3.5385
    -3.5052  -3.5044  -3.4606  -3.4602  -3.4339  -3.4335  -3.4135  -3.4127
    -3.3740  -3.3729  -3.3378  -3.3370  -3.1719  -3.1716  -2.9712  -2.9706
    -1.7573  -1.7570  -1.6349  -1.6349  -1.6038  -1.6036  -1.5167  -1.5166
    -1.4576  -1.4571  -1.4277  -1.4271  -1.3941  -1.3933  -1.3721  -1.3714
    -1.3415  -1.3414  -1.2250  -1.2245  -1.2130  -1.2128  -1.1204  -1.1199
    -1.1117  -1.1112  -1.0997  -1.0986  -1.0895  -1.0893  -1.0204  -1.0200
     0.2149   0.2178   0.3172   0.3249   0.3731   0.3947   0.4280   0.4438
     0.4639   0.4774   0.5058   0.5179   0.5512   0.5653   0.5917   0.6045
     0.6430   0.6472   0.6754   0.6838   0.7196   0.7303   0.7969   0.8048
     1.1446   1.1563   1.2348   1.2661   1.2838   1.2922   1.3124   1.3447
     1.4370   1.4949   1.5144   1.5202   1.5384   1.5456   1.5777   1.6058
     1.6107   1.6473   1.6881   1.7212   1.7319   1.7597   1.8008   1.8159
     1.8338   1.8634   1.8768   1.8917   1.9203   1.9360   1.9701   1.9876
     1.9978   2.0056   2.0327   2.0529   2.0730   2.0849   2.1033   2.1305
     2.1441   2.1726   2.1809   2.2022   2.2129   2.2379   2.2537   2.2682
     2.2793   2.3124   2.3248   2.3340   2.3519   2.3692   2.3786   2.3881
     2.3997   2.4125   2.4349   2.4438   2.4585   2.4694   2.4770   2.5009
     2.5173   2.5269   2.5369   2.5602   2.5826   2.6001   2.6157   2.6296
     2.6395   2.6555   2.6752   2.7072   2.7160   2.7355   2.7501   2.7563
     2.7943   2.8093   2.8322   2.8428   2.8596   2.8739   2.8966   2.9009
     2.9139   2.9306   2.9400   2.9682   2.9817   2.9888   3.0033   3.0280
     3.0386   3.0522   3.0682   3.0898   3.1061   3.1253   3.1501   3.1743
     3.1777   3.1965   3.2217   3.2376   3.2626   3.2844   3.3000   3.3464
     3.3658   3.4090   3.4662   3.4772   3.5062   3.5602   3.7344   3.7449
     5.0527   5.1168   5.4449   5.4664   5.5069   5.5384   5.7976   5.8914
     5.9932   6.0077   6.2779   6.3065   6.3943   6.4256   6.5016   6.5130
     6.6002   6.6467   6.7172   6.7349   6.7571   6.7856   6.9730   7.0458
     7.3562   7.3592   7.6828   7.7208   7.8801   7.8977   7.9590   7.9972
     8.0417   8.0770   8.1144   8.1392   8.1861   8.2040   8.2653   8.2760
     8.3018   8.3258   8.3460   8.3965   8.4264   8.4481   8.4774   8.5099
     8.5470   8.5661   8.5918   8.6145   8.6366   8.6583   8.6940   8.7166
     8.8008   8.8171   8.8461   8.8845

          k = 0.7500 0.2485 0.0000 ( 80251 PWs)   bands (ev):

   -41.9204 -41.9204 -41.8161 -41.8161 -41.6491 -41.6491 -41.6121 -41.6121
   -41.5356 -41.5356 -41.5009 -41.5009 -41.4619 -41.4619 -41.4553 -41.4553
   -41.4361 -41.4361 -41.4198 -41.4198 -41.4072 -41.4072 -41.3950 -41.3950
   -41.3924 -41.3924 -41.3920 -41.3920 -41.3550 -41.3550 -41.3315 -41.3315
   -41.3292 -41.3292 -41.3265 -41.3265 -41.3136 -41.3136 -41.3082 -41.3082
   -41.2872 -41.2872 -41.2777 -41.2777 -41.2711 -41.2711 -41.2596 -41.2596
   -41.2399 -41.2399 -41.2365 -41.2365 -41.2292 -41.2292 -41.2226 -41.2226
   -41.2138 -41.2138 -41.1766 -41.1766 -41.1664 -41.1664 -41.1659 -41.1659
   -41.1516 -41.1516 -41.1057 -41.1057 -41.1055 -41.1055 -41.1027 -41.1027
   -41.0982 -41.0982 -41.0673 -41.0673 -41.0551 -41.0551 -41.0447 -41.0447
   -40.9882 -40.9882 -40.9795 -40.9795 -40.9775 -40.9775 -40.9546 -40.9546
   -40.8936 -40.8936 -40.8588 -40.8588 -40.8509 -40.8509 -40.7393 -40.7393
   -40.2217 -40.2217 -40.1726 -40.1726 -40.0847 -40.0847 -39.9513 -39.9513
   -39.9141 -39.9141 -39.8968 -39.8968 -39.8606 -39.8606 -39.8021 -39.8021
   -39.7678 -39.7678 -39.7641 -39.7641 -39.7595 -39.7595 -39.7401 -39.7401
   -39.7206 -39.7206 -39.7112 -39.7112 -39.7081 -39.7081 -39.6974 -39.6974
   -39.6954 -39.6954 -39.6930 -39.6930 -39.6917 -39.6917 -39.6819 -39.6819
   -39.6759 -39.6759 -39.6605 -39.6605 -39.6435 -39.6435 -39.6412 -39.6412
   -39.6359 -39.6359 -39.6270 -39.6270 -39.6235 -39.6235 -39.6045 -39.6045
   -39.5991 -39.5991 -39.5824 -39.5824 -39.5781 -39.5781 -39.5728 -39.5728
   -39.5620 -39.5620 -39.5554 -39.5554 -39.5430 -39.5430 -39.5399 -39.5399
   -39.5358 -39.5358 -39.5318 -39.5318 -39.5245 -39.5245 -39.5174 -39.5174
   -39.5121 -39.5121 -39.5089 -39.5089 -39.4973 -39.4973 -39.4795 -39.4795
   -39.4731 -39.4731 -39.4692 -39.4692 -39.4682 -39.4682 -39.4592 -39.4592
   -39.4392 -39.4392 -39.4240 -39.4240 -39.4205 -39.4205 -39.4105 -39.4105
   -39.4000 -39.4000 -39.3711 -39.3711 -39.3706 -39.3706 -39.3695 -39.3695
   -39.3689 -39.3689 -39.3465 -39.3465 -39.3221 -39.3221 -39.3196 -39.3196
   -39.3091 -39.3091 -39.2774 -39.2774 -39.2560 -39.2560 -39.2556 -39.2556
   -39.2534 -39.2534 -39.2362 -39.2362 -39.2071 -39.2071 -39.1675 -39.1675
   -39.1520 -39.1520 -39.1302 -39.1302 -39.0999 -39.0999 -39.0059 -39.0059
   -16.9525 -16.9525 -16.7214 -16.7214 -16.3804 -16.3804 -16.3469 -16.3469
   -16.3221 -16.3221 -16.2815 -16.2815 -16.2410 -16.2410 -15.8895 -15.8895
   -14.2874 -14.2874 -14.2805 -14.2805 -14.2573 -14.2573 -14.2393 -14.2393
   -14.2331 -14.2331 -14.2212 -14.2212 -14.1849 -14.1849 -14.1643 -14.1643
   -14.1212 -14.1212 -14.1010 -14.1010 -14.0884 -14.0884 -14.0815 -14.0815
   -14.0436 -14.0436 -14.0335 -14.0335 -14.0199 -14.0199 -14.0060 -14.0060
   -11.7571 -11.7571 -11.7335 -11.7334 -11.7226 -11.7224 -11.7002 -11.7000
   -11.6986 -11.6986 -11.6974 -11.6974 -11.6837 -11.6836 -11.6627 -11.6627
   -11.6499 -11.6498 -11.6412 -11.6412 -11.6202 -11.6200 -11.5942 -11.5941
   -11.5891 -11.5889 -11.5693 -11.5691 -11.5548 -11.5546 -11.5511 -11.5510
   -11.5235 -11.5235 -11.5092 -11.5092 -11.4993 -11.4993 -11.4938 -11.4935
   -11.4820 -11.4818 -11.4662 -11.4661 -11.4541 -11.4541 -11.4275 -11.4275
    -9.3175  -9.3175  -9.2505  -9.2505  -9.2091  -9.2091  -9.1019  -9.1019
    -9.0873  -9.0873  -9.0785  -9.0785  -8.9829  -8.9829  -8.9720  -8.9720
    -8.6330  -8.6329  -8.4227  -8.4225  -8.3152  -8.3150  -8.1969  -8.1954
    -8.1371  -8.1353  -8.0948  -8.0938  -8.0357  -8.0344  -7.9757  -7.9732
    -7.9589  -7.9574  -7.9471  -7.9459  -7.8978  -7.8953  -7.8486  -7.8461
    -7.8206  -7.8191  -7.7896  -7.7886  -7.7356  -7.7335  -7.6989  -7.6988
    -7.6690  -7.6684  -7.6512  -7.6508  -7.6259  -7.6247  -7.5808  -7.5795
    -7.5151  -7.5145  -7.4352  -7.4351  -7.3961  -7.3960  -7.3059  -7.3056
    -6.5984  -6.5984  -6.4728  -6.4728  -6.1872  -6.1872  -6.1341  -6.1341
    -6.1058  -6.1058  -6.0948  -6.0948  -6.0052  -6.0052  -5.9938  -5.9938
    -5.8554  -5.8554  -5.7618  -5.7618  -5.7029  -5.7028  -5.5444  -5.5444
    -5.5339  -5.5339  -5.4663  -5.4662  -5.1699  -5.1699  -5.1315  -5.1315
    -4.3545  -4.3540  -3.9943  -3.9936  -3.9594  -3.9588  -3.8299  -3.8289
    -3.7810  -3.7793  -3.6629  -3.6628  -3.5745  -3.5727  -3.5255  -3.5248
    -3.5037  -3.5033  -3.4540  -3.4532  -3.4232  -3.4225  -3.4126  -3.4114
    -3.3893  -3.3882  -3.3243  -3.3238  -3.1696  -3.1693  -2.9611  -2.9594
    -1.7566  -1.7563  -1.6349  -1.6345  -1.6036  -1.6033  -1.5176  -1.5174
    -1.4575  -1.4573  -1.4260  -1.4258  -1.3942  -1.3936  -1.3718  -1.3710
    -1.3429  -1.3428  -1.2252  -1.2247  -1.2128  -1.2126  -1.1236  -1.1227
    -1.1138  -1.1132  -1.0996  -1.0993  -1.0897  -1.0891  -1.0173  -1.0171
     0.2395   0.2561   0.3160   0.3336   0.3641   0.3793   0.3956   0.4177
     0.4547   0.4702   0.4899   0.4947   0.5150   0.5243   0.5515   0.5672
     0.6229   0.6260   0.6502   0.6663   0.7769   0.7945   0.8110   0.8305
     1.1512   1.1873   1.2327   1.2648   1.2829   1.3069   1.3167   1.3395
     1.4135   1.4601   1.5125   1.5213   1.5488   1.5708   1.5876   1.5990
     1.6346   1.6608   1.6809   1.7073   1.7370   1.7775   1.7983   1.8127
     1.8338   1.8415   1.8789   1.9171   1.9226   1.9344   1.9750   1.9839
     2.0091   2.0146   2.0350   2.0566   2.0681   2.0841   2.1057   2.1220
     2.1403   2.1626   2.1744   2.1988   2.2038   2.2440   2.2519   2.2650
     2.2897   2.2962   2.3177   2.3276   2.3507   2.3535   2.3776   2.3930
     2.4050   2.4128   2.4355   2.4491   2.4659   2.4740   2.4904   2.5003
     2.5154   2.5359   2.5417   2.5535   2.5635   2.5882   2.6093   2.6223
     2.6374   2.6620   2.6816   2.7044   2.7104   2.7291   2.7451   2.7691
     2.7822   2.8033   2.8285   2.8490   2.8550   2.8666   2.8826   2.8976
     2.9183   2.9264   2.9447   2.9524   2.9928   3.0097   3.0284   3.0389
     3.0512   3.0660   3.0802   3.0891   3.1209   3.1380   3.1640   3.1748
     3.1935   3.2112   3.2148   3.2350   3.2557   3.2874   3.3154   3.3435
     3.3867   3.4117   3.4599   3.4858   3.5407   3.5847   3.7413   3.8104
     4.9980   5.1439   5.4019   5.4625   5.5312   5.5726   5.7522   5.8609
     5.9670   6.0509   6.2196   6.3305   6.3774   6.4080   6.4735   6.5227
     6.5918   6.6056   6.6908   6.7274   6.7675   6.8246   6.9124   7.0459
     7.3667   7.3720   7.6091   7.6810   7.8022   7.8262   7.9385   7.9667
     8.0457   8.0583   8.0669   8.0892   8.2035   8.2401   8.2576   8.2825
     8.3133   8.3618   8.3882   8.4008   8.4240   8.4625   8.4925   8.5230
     8.5380   8.5585   8.5728   8.6020   8.6661   8.6892   8.7111   8.7320
     8.7741   8.8154   8.8774   8.8979

          k = 0.7500 0.2485 0.2500 ( 80235 PWs)   bands (ev):

   -41.9204 -41.9204 -41.8161 -41.8161 -41.6491 -41.6491 -41.6121 -41.6121
   -41.5356 -41.5356 -41.5009 -41.5009 -41.4619 -41.4619 -41.4553 -41.4553
   -41.4361 -41.4361 -41.4198 -41.4198 -41.4072 -41.4072 -41.3950 -41.3950
   -41.3924 -41.3924 -41.3920 -41.3920 -41.3550 -41.3550 -41.3315 -41.3315
   -41.3292 -41.3292 -41.3265 -41.3265 -41.3136 -41.3136 -41.3082 -41.3082
   -41.2872 -41.2872 -41.2777 -41.2777 -41.2711 -41.2711 -41.2596 -41.2596
   -41.2399 -41.2399 -41.2365 -41.2365 -41.2292 -41.2292 -41.2226 -41.2226
   -41.2138 -41.2138 -41.1766 -41.1766 -41.1664 -41.1664 -41.1658 -41.1658
   -41.1516 -41.1516 -41.1057 -41.1057 -41.1055 -41.1055 -41.1027 -41.1027
   -41.0982 -41.0982 -41.0673 -41.0673 -41.0551 -41.0551 -41.0447 -41.0447
   -40.9882 -40.9882 -40.9795 -40.9795 -40.9775 -40.9775 -40.9546 -40.9546
   -40.8936 -40.8936 -40.8588 -40.8588 -40.8509 -40.8509 -40.7393 -40.7393
   -40.2217 -40.2217 -40.1726 -40.1726 -40.0847 -40.0847 -39.9513 -39.9513
   -39.9141 -39.9141 -39.8968 -39.8968 -39.8606 -39.8606 -39.8021 -39.8021
   -39.7678 -39.7678 -39.7640 -39.7640 -39.7595 -39.7595 -39.7401 -39.7401
   -39.7205 -39.7205 -39.7112 -39.7112 -39.7081 -39.7081 -39.6974 -39.6974
   -39.6954 -39.6954 -39.6930 -39.6930 -39.6917 -39.6917 -39.6819 -39.6819
   -39.6759 -39.6759 -39.6605 -39.6605 -39.6435 -39.6435 -39.6412 -39.6412
   -39.6359 -39.6359 -39.6270 -39.6270 -39.6235 -39.6235 -39.6045 -39.6045
   -39.5991 -39.5991 -39.5824 -39.5824 -39.5782 -39.5782 -39.5728 -39.5728
   -39.5620 -39.5620 -39.5554 -39.5554 -39.5430 -39.5430 -39.5399 -39.5399
   -39.5358 -39.5358 -39.5318 -39.5318 -39.5245 -39.5245 -39.5174 -39.5174
   -39.5121 -39.5121 -39.5089 -39.5089 -39.4973 -39.4973 -39.4795 -39.4795
   -39.4731 -39.4731 -39.4692 -39.4692 -39.4682 -39.4682 -39.4592 -39.4592
   -39.4392 -39.4392 -39.4240 -39.4240 -39.4205 -39.4205 -39.4105 -39.4105
   -39.4000 -39.4000 -39.3711 -39.3711 -39.3706 -39.3706 -39.3695 -39.3695
   -39.3689 -39.3689 -39.3465 -39.3465 -39.3221 -39.3221 -39.3196 -39.3196
   -39.3091 -39.3091 -39.2774 -39.2774 -39.2560 -39.2560 -39.2556 -39.2556
   -39.2534 -39.2534 -39.2362 -39.2362 -39.2071 -39.2071 -39.1675 -39.1675
   -39.1520 -39.1520 -39.1302 -39.1302 -39.0999 -39.0999 -39.0059 -39.0059
   -16.9525 -16.9525 -16.7214 -16.7214 -16.3804 -16.3804 -16.3469 -16.3469
   -16.3221 -16.3221 -16.2815 -16.2815 -16.2410 -16.2410 -15.8895 -15.8895
   -14.2874 -14.2874 -14.2805 -14.2805 -14.2573 -14.2572 -14.2393 -14.2393
   -14.2331 -14.2331 -14.2212 -14.2212 -14.1849 -14.1849 -14.1643 -14.1643
   -14.1212 -14.1212 -14.1010 -14.1010 -14.0884 -14.0884 -14.0815 -14.0815
   -14.0436 -14.0436 -14.0335 -14.0335 -14.0199 -14.0199 -14.0060 -14.0060
   -11.7571 -11.7570 -11.7331 -11.7331 -11.7226 -11.7224 -11.7003 -11.7001
   -11.6986 -11.6985 -11.6978 -11.6975 -11.6837 -11.6837 -11.6627 -11.6627
   -11.6499 -11.6498 -11.6412 -11.6412 -11.6200 -11.6199 -11.5942 -11.5940
   -11.5890 -11.5889 -11.5691 -11.5689 -11.5549 -11.5547 -11.5511 -11.5511
   -11.5235 -11.5235 -11.5093 -11.5093 -11.4993 -11.4993 -11.4938 -11.4935
   -11.4820 -11.4819 -11.4663 -11.4662 -11.4541 -11.4540 -11.4275 -11.4275
    -9.3172  -9.3172  -9.2505  -9.2505  -9.2095  -9.2095  -9.1020  -9.1020
    -9.0872  -9.0872  -9.0784  -9.0784  -8.9827  -8.9827  -8.9717  -8.9717
    -8.6325  -8.6323  -8.4221  -8.4219  -8.3078  -8.3076  -8.1916  -8.1902
    -8.1551  -8.1538  -8.1052  -8.1047  -8.0339  -8.0311  -7.9970  -7.9965
    -7.9652  -7.9635  -7.9231  -7.9215  -7.8867  -7.8846  -7.8467  -7.8445
    -7.8203  -7.8188  -7.7946  -7.7931  -7.7402  -7.7379  -7.6918  -7.6915
    -7.6691  -7.6674  -7.6375  -7.6352  -7.6261  -7.6241  -7.5819  -7.5811
    -7.5157  -7.5147  -7.4383  -7.4380  -7.3972  -7.3970  -7.3091  -7.3088
    -6.5984  -6.5984  -6.4729  -6.4729  -6.1873  -6.1873  -6.1340  -6.1340
    -6.1056  -6.1056  -6.0951  -6.0950  -6.0039  -6.0038  -5.9951  -5.9949
    -5.8549  -5.8549  -5.7614  -5.7614  -5.7029  -5.7029  -5.5444  -5.5444
    -5.5338  -5.5338  -5.4663  -5.4663  -5.1700  -5.1700  -5.1318  -5.1317
    -4.2895  -4.2888  -3.9911  -3.9905  -3.9229  -3.9220  -3.8183  -3.8175
    -3.7943  -3.7927  -3.6648  -3.6646  -3.6017  -3.6007  -3.5312  -3.5299
    -3.5036  -3.5026  -3.4843  -3.4833  -3.4418  -3.4411  -3.4198  -3.4195
    -3.3999  -3.3989  -3.3313  -3.3311  -3.1781  -3.1774  -3.0531  -3.0517
    -1.7566  -1.7563  -1.6340  -1.6338  -1.6036  -1.6034  -1.5175  -1.5172
    -1.4574  -1.4571  -1.4271  -1.4264  -1.3936  -1.3931  -1.3718  -1.3710
    -1.3416  -1.3414  -1.2242  -1.2235  -1.2134  -1.2133  -1.1197  -1.1183
    -1.1107  -1.1106  -1.1012  -1.0999  -1.0879  -1.0873  -1.0228  -1.0223
     0.3091   0.3313   0.3775   0.3922   0.4260   0.4498   0.4792   0.4970
     0.5040   0.5206   0.5577   0.5605   0.6034   0.6153   0.6274   0.6337
     0.6654   0.6810   0.6933   0.6960   0.8108   0.8226   0.8827   0.8985
     1.1430   1.1801   1.2308   1.2648   1.2760   1.2974   1.3065   1.3394
     1.4031   1.4248   1.4683   1.4961   1.5099   1.5383   1.5759   1.5897
     1.6044   1.6409   1.6794   1.6953   1.7087   1.7415   1.7765   1.7938
     1.8113   1.8343   1.8623   1.8914   1.9067   1.9287   1.9406   1.9538
     1.9679   1.9785   2.0263   2.0327   2.0476   2.0589   2.0720   2.0932
     2.1297   2.1429   2.1712   2.1848   2.1996   2.2141   2.2402   2.2522
     2.2624   2.2777   2.2968   2.3100   2.3217   2.3456   2.3583   2.3698
     2.3846   2.3918   2.3992   2.4063   2.4264   2.4371   2.4519   2.4720
     2.4823   2.5099   2.5118   2.5348   2.5542   2.5687   2.5887   2.6064
     2.6349   2.6557   2.6787   2.6945   2.7067   2.7375   2.7570   2.7743
     2.7801   2.8054   2.8156   2.8386   2.8463   2.8769   2.8851   2.8980
     2.9101   2.9296   2.9433   2.9698   2.9764   2.9910   2.9984   3.0259
     3.0359   3.0566   3.0656   3.0839   3.1078   3.1180   3.1409   3.1531
     3.1651   3.1742   3.2067   3.2142   3.2392   3.2503   3.2631   3.2759
     3.3211   3.3578   3.3758   3.4045   3.4386   3.4631   3.5454   3.5937
     5.2925   5.4233   5.6758   5.7418   5.7674   5.7906   5.8955   5.9421
     6.2547   6.2752   6.3488   6.4004   6.4244   6.5018   6.5616   6.6345
     6.6695   6.7372   6.8284   6.8552   6.9144   6.9482   7.0033   7.0395
     7.4241   7.4435   7.5658   7.6166   7.8224   7.8436   7.8908   7.9071
     7.9849   8.0152   8.0657   8.0892   8.0994   8.1249   8.1837   8.2082
     8.2320   8.2698   8.3007   8.3505   8.3716   8.3965   8.4317   8.4546
     8.4895   8.5178   8.5528   8.5595   8.5917   8.6286   8.6624   8.7208
     8.7369   8.7585   8.7900   8.8472

          k = 0.7500 0.2485 0.5000 ( 80230 PWs)   bands (ev):

   -41.9204 -41.9204 -41.8161 -41.8161 -41.6491 -41.6491 -41.6121 -41.6121
   -41.5356 -41.5356 -41.5009 -41.5009 -41.4619 -41.4619 -41.4553 -41.4553
   -41.4361 -41.4361 -41.4198 -41.4198 -41.4072 -41.4072 -41.3950 -41.3950
   -41.3924 -41.3924 -41.3920 -41.3920 -41.3550 -41.3550 -41.3315 -41.3315
   -41.3292 -41.3292 -41.3265 -41.3265 -41.3136 -41.3136 -41.3082 -41.3082
   -41.2872 -41.2872 -41.2777 -41.2777 -41.2711 -41.2711 -41.2596 -41.2596
   -41.2399 -41.2399 -41.2365 -41.2365 -41.2292 -41.2292 -41.2226 -41.2226
   -41.2138 -41.2138 -41.1766 -41.1766 -41.1664 -41.1664 -41.1658 -41.1658
   -41.1516 -41.1516 -41.1057 -41.1057 -41.1055 -41.1055 -41.1027 -41.1027
   -41.0981 -41.0981 -41.0673 -41.0673 -41.0551 -41.0551 -41.0447 -41.0447
   -40.9882 -40.9882 -40.9795 -40.9795 -40.9775 -40.9775 -40.9546 -40.9546
   -40.8936 -40.8936 -40.8588 -40.8588 -40.8509 -40.8509 -40.7393 -40.7393
   -40.2217 -40.2217 -40.1726 -40.1726 -40.0847 -40.0847 -39.9513 -39.9513
   -39.9141 -39.9141 -39.8968 -39.8968 -39.8606 -39.8606 -39.8021 -39.8021
   -39.7678 -39.7678 -39.7640 -39.7640 -39.7595 -39.7595 -39.7401 -39.7401
   -39.7205 -39.7205 -39.7112 -39.7112 -39.7081 -39.7081 -39.6974 -39.6974
   -39.6954 -39.6954 -39.6930 -39.6930 -39.6917 -39.6917 -39.6819 -39.6819
   -39.6759 -39.6759 -39.6605 -39.6605 -39.6435 -39.6435 -39.6412 -39.6412
   -39.6359 -39.6359 -39.6270 -39.6270 -39.6235 -39.6235 -39.6045 -39.6045
   -39.5991 -39.5991 -39.5824 -39.5824 -39.5782 -39.5782 -39.5728 -39.5728
   -39.5620 -39.5620 -39.5554 -39.5554 -39.5430 -39.5430 -39.5399 -39.5399
   -39.5358 -39.5358 -39.5318 -39.5318 -39.5245 -39.5245 -39.5174 -39.5174
   -39.5121 -39.5121 -39.5089 -39.5089 -39.4973 -39.4973 -39.4795 -39.4795
   -39.4731 -39.4731 -39.4692 -39.4692 -39.4682 -39.4682 -39.4592 -39.4592
   -39.4392 -39.4392 -39.4240 -39.4240 -39.4205 -39.4205 -39.4105 -39.4105
   -39.4000 -39.4000 -39.3711 -39.3711 -39.3706 -39.3706 -39.3695 -39.3695
   -39.3689 -39.3689 -39.3465 -39.3465 -39.3221 -39.3221 -39.3196 -39.3196
   -39.3091 -39.3091 -39.2774 -39.2774 -39.2560 -39.2560 -39.2556 -39.2556
   -39.2534 -39.2534 -39.2362 -39.2362 -39.2071 -39.2071 -39.1674 -39.1674
   -39.1520 -39.1520 -39.1302 -39.1302 -39.0999 -39.0999 -39.0059 -39.0059
   -16.9525 -16.9525 -16.7214 -16.7214 -16.3804 -16.3804 -16.3469 -16.3469
   -16.3221 -16.3221 -16.2815 -16.2815 -16.2410 -16.2410 -15.8895 -15.8895
   -14.2874 -14.2874 -14.2805 -14.2805 -14.2573 -14.2572 -14.2393 -14.2393
   -14.2331 -14.2331 -14.2212 -14.2212 -14.1849 -14.1849 -14.1643 -14.1643
   -14.1212 -14.1212 -14.1010 -14.1010 -14.0884 -14.0884 -14.0815 -14.0815
   -14.0436 -14.0436 -14.0335 -14.0335 -14.0200 -14.0200 -14.0060 -14.0060
   -11.7570 -11.7570 -11.7328 -11.7328 -11.7226 -11.7224 -11.7004 -11.7002
   -11.6985 -11.6985 -11.6979 -11.6979 -11.6838 -11.6837 -11.6627 -11.6627
   -11.6499 -11.6498 -11.6412 -11.6412 -11.6199 -11.6197 -11.5942 -11.5940
   -11.5890 -11.5889 -11.5690 -11.5688 -11.5549 -11.5547 -11.5511 -11.5511
   -11.5235 -11.5235 -11.5094 -11.5094 -11.4993 -11.4993 -11.4939 -11.4936
   -11.4821 -11.4819 -11.4665 -11.4663 -11.4541 -11.4540 -11.4275 -11.4275
    -9.3169  -9.3169  -9.2505  -9.2505  -9.2098  -9.2098  -9.1022  -9.1022
    -9.0872  -9.0872  -9.0783  -9.0783  -8.9824  -8.9824  -8.9718  -8.9718
    -8.6309  -8.6308  -8.4220  -8.4218  -8.3005  -8.3001  -8.1882  -8.1867
    -8.1622  -8.1608  -8.1181  -8.1174  -8.0551  -8.0527  -7.9921  -7.9918
    -7.9690  -7.9671  -7.9190  -7.9175  -7.8669  -7.8655  -7.8500  -7.8469
    -7.8178  -7.8171  -7.7982  -7.7958  -7.7393  -7.7378  -7.6844  -7.6831
    -7.6675  -7.6656  -7.6331  -7.6310  -7.6225  -7.6207  -7.5823  -7.5810
    -7.5180  -7.5170  -7.4407  -7.4405  -7.3991  -7.3989  -7.3119  -7.3116
    -6.5985  -6.5985  -6.4731  -6.4730  -6.1873  -6.1873  -6.1340  -6.1340
    -6.1057  -6.1057  -6.0951  -6.0950  -6.0017  -6.0017  -5.9969  -5.9969
    -5.8544  -5.8544  -5.7610  -5.7610  -5.7031  -5.7030  -5.5443  -5.5443
    -5.5338  -5.5338  -5.4663  -5.4663  -5.1700  -5.1700  -5.1319  -5.1319
    -4.1568  -4.1561  -4.0964  -4.0957  -3.8579  -3.8567  -3.7857  -3.7847
    -3.7210  -3.7200  -3.6941  -3.6932  -3.6564  -3.6548  -3.6422  -3.6408
    -3.5153  -3.5140  -3.4951  -3.4947  -3.4404  -3.4401  -3.4320  -3.4316
    -3.3535  -3.3529  -3.2905  -3.2895  -3.2402  -3.2396  -3.1504  -3.1501
    -1.7565  -1.7562  -1.6333  -1.6332  -1.6036  -1.6036  -1.5172  -1.5170
    -1.4571  -1.4569  -1.4273  -1.4271  -1.3936  -1.3930  -1.3722  -1.3715
    -1.3402  -1.3401  -1.2235  -1.2231  -1.2138  -1.2135  -1.1175  -1.1169
    -1.1089  -1.1083  -1.1001  -1.0993  -1.0877  -1.0871  -1.0256  -1.0254
     0.3356   0.3584   0.3988   0.4082   0.4569   0.4643   0.4830   0.4966
     0.5735   0.5767   0.6001   0.6103   0.6994   0.7172   0.7334   0.7393
     0.7816   0.7994   0.9019   0.9070   1.0675   1.0864   1.1226   1.1337
     1.1548   1.1668   1.1842   1.1995   1.2189   1.2399   1.2670   1.2983
     1.3070   1.3265   1.3600   1.3973   1.4356   1.4621   1.4998   1.5297
     1.5509   1.5620   1.6138   1.6259   1.6757   1.7028   1.7169   1.7670
     1.7709   1.8078   1.8255   1.8482   1.8676   1.8755   1.8901   1.9141
     1.9398   1.9598   1.9886   2.0000   2.0142   2.0306   2.0484   2.0598
     2.0887   2.1156   2.1417   2.1581   2.1798   2.2047   2.2166   2.2395
     2.2613   2.2696   2.2795   2.2926   2.3074   2.3136   2.3231   2.3406
     2.3556   2.3621   2.3759   2.3901   2.4062   2.4200   2.4350   2.4485
     2.4695   2.4726   2.4982   2.5057   2.5234   2.5626   2.5769   2.5895
     2.6354   2.6480   2.6842   2.7037   2.7161   2.7252   2.7582   2.7728
     2.7908   2.8096   2.8204   2.8424   2.8614   2.8731   2.8944   2.8991
     2.9125   2.9284   2.9364   2.9582   2.9709   2.9896   3.0015   3.0149
     3.0213   3.0465   3.0542   3.0743   3.0816   3.0981   3.1189   3.1307
     3.1412   3.1577   3.1721   3.1921   3.1989   3.2280   3.2365   3.2504
     3.2660   3.2730   3.3298   3.3648   3.3834   3.4339   3.4631   3.4959
     5.5741   5.5808   5.6839   5.7282   6.0025   6.0703   6.1025   6.1772
     6.2537   6.2988   6.3228   6.3605   6.6736   6.7157   6.8026   6.8303
     6.8991   6.9828   7.0235   7.0957   7.2966   7.3512   7.3615   7.4542
     7.5097   7.5612   7.5808   7.6163   7.6602   7.6983   7.7266   7.7689
     7.7888   7.8185   7.8585   7.8745   7.9804   8.0120   8.0722   8.0901
     8.1333   8.1663   8.1783   8.1957   8.2839   8.3021   8.3148   8.3771
     8.3976   8.4349   8.4558   8.5012   8.5398   8.5777   8.6027   8.6262
     8.6777   8.6952   8.7361   8.7675

          k = 0.7500 0.2485 0.7500 ( 80235 PWs)   bands (ev):

   -41.9204 -41.9204 -41.8161 -41.8161 -41.6491 -41.6491 -41.6121 -41.6121
   -41.5356 -41.5356 -41.5009 -41.5009 -41.4619 -41.4619 -41.4553 -41.4553
   -41.4361 -41.4361 -41.4198 -41.4198 -41.4072 -41.4072 -41.3950 -41.3950
   -41.3924 -41.3924 -41.3920 -41.3920 -41.3550 -41.3550 -41.3315 -41.3315
   -41.3292 -41.3292 -41.3265 -41.3265 -41.3136 -41.3136 -41.3082 -41.3082
   -41.2872 -41.2872 -41.2777 -41.2777 -41.2711 -41.2711 -41.2596 -41.2596
   -41.2399 -41.2399 -41.2365 -41.2365 -41.2292 -41.2292 -41.2226 -41.2226
   -41.2138 -41.2138 -41.1766 -41.1766 -41.1664 -41.1664 -41.1658 -41.1658
   -41.1516 -41.1516 -41.1057 -41.1057 -41.1055 -41.1055 -41.1027 -41.1027
   -41.0982 -41.0982 -41.0673 -41.0673 -41.0551 -41.0551 -41.0447 -41.0447
   -40.9882 -40.9882 -40.9795 -40.9795 -40.9775 -40.9775 -40.9546 -40.9546
   -40.8936 -40.8936 -40.8588 -40.8588 -40.8509 -40.8509 -40.7393 -40.7393
   -40.2217 -40.2217 -40.1726 -40.1726 -40.0847 -40.0847 -39.9513 -39.9513
   -39.9141 -39.9141 -39.8968 -39.8968 -39.8606 -39.8606 -39.8021 -39.8021
   -39.7678 -39.7678 -39.7640 -39.7640 -39.7595 -39.7595 -39.7401 -39.7401
   -39.7205 -39.7205 -39.7112 -39.7112 -39.7081 -39.7081 -39.6974 -39.6974
   -39.6954 -39.6954 -39.6930 -39.6930 -39.6917 -39.6917 -39.6819 -39.6819
   -39.6759 -39.6759 -39.6605 -39.6605 -39.6435 -39.6435 -39.6412 -39.6412
   -39.6359 -39.6359 -39.6270 -39.6270 -39.6235 -39.6235 -39.6045 -39.6045
   -39.5991 -39.5991 -39.5824 -39.5824 -39.5781 -39.5781 -39.5728 -39.5728
   -39.5620 -39.5620 -39.5554 -39.5554 -39.5430 -39.5430 -39.5399 -39.5399
   -39.5358 -39.5358 -39.5318 -39.5318 -39.5245 -39.5245 -39.5174 -39.5174
   -39.5121 -39.5121 -39.5089 -39.5089 -39.4973 -39.4973 -39.4795 -39.4795
   -39.4731 -39.4731 -39.4692 -39.4692 -39.4682 -39.4682 -39.4592 -39.4592
   -39.4392 -39.4392 -39.4240 -39.4240 -39.4205 -39.4205 -39.4105 -39.4105
   -39.4000 -39.4000 -39.3711 -39.3711 -39.3706 -39.3706 -39.3695 -39.3695
   -39.3689 -39.3689 -39.3465 -39.3465 -39.3221 -39.3221 -39.3196 -39.3196
   -39.3091 -39.3091 -39.2774 -39.2774 -39.2560 -39.2560 -39.2556 -39.2556
   -39.2534 -39.2534 -39.2362 -39.2362 -39.2071 -39.2071 -39.1675 -39.1675
   -39.1520 -39.1520 -39.1302 -39.1302 -39.0999 -39.0999 -39.0059 -39.0059
   -16.9525 -16.9525 -16.7214 -16.7214 -16.3804 -16.3804 -16.3469 -16.3469
   -16.3221 -16.3221 -16.2816 -16.2816 -16.2410 -16.2410 -15.8895 -15.8895
   -14.2874 -14.2874 -14.2805 -14.2805 -14.2573 -14.2573 -14.2393 -14.2393
   -14.2331 -14.2331 -14.2212 -14.2212 -14.1849 -14.1849 -14.1643 -14.1643
   -14.1212 -14.1212 -14.1010 -14.1010 -14.0884 -14.0884 -14.0815 -14.0815
   -14.0436 -14.0436 -14.0335 -14.0335 -14.0200 -14.0199 -14.0060 -14.0060
   -11.7571 -11.7570 -11.7331 -11.7331 -11.7226 -11.7224 -11.7003 -11.7001
   -11.6986 -11.6985 -11.6978 -11.6975 -11.6837 -11.6837 -11.6627 -11.6627
   -11.6499 -11.6498 -11.6412 -11.6412 -11.6200 -11.6199 -11.5942 -11.5940
   -11.5891 -11.5889 -11.5691 -11.5689 -11.5549 -11.5547 -11.5511 -11.5511
   -11.5235 -11.5235 -11.5093 -11.5093 -11.4993 -11.4993 -11.4939 -11.4935
   -11.4820 -11.4819 -11.4664 -11.4662 -11.4541 -11.4541 -11.4275 -11.4275
    -9.3171  -9.3171  -9.2505  -9.2505  -9.2095  -9.2095  -9.1021  -9.1021
    -9.0873  -9.0873  -9.0784  -9.0784  -8.9827  -8.9826  -8.9720  -8.9720
    -8.6314  -8.6313  -8.4226  -8.4224  -8.3092  -8.3088  -8.1949  -8.1930
    -8.1387  -8.1371  -8.1061  -8.1051  -8.0647  -8.0628  -7.9767  -7.9763
    -7.9663  -7.9639  -7.9194  -7.9175  -7.8929  -7.8895  -7.8502  -7.8467
    -7.8194  -7.8180  -7.7907  -7.7891  -7.7358  -7.7351  -7.6878  -7.6866
    -7.6749  -7.6725  -7.6407  -7.6393  -7.6234  -7.6212  -7.5835  -7.5816
    -7.5168  -7.5164  -7.4376  -7.4373  -7.3979  -7.3978  -7.3086  -7.3082
    -6.5985  -6.5984  -6.4729  -6.4729  -6.1873  -6.1873  -6.1340  -6.1340
    -6.1059  -6.1058  -6.0948  -6.0948  -6.0038  -6.0036  -5.9952  -5.9950
    -5.8549  -5.8549  -5.7614  -5.7614  -5.7030  -5.7030  -5.5444  -5.5444
    -5.5339  -5.5339  -5.4662  -5.4662  -5.1699  -5.1699  -5.1317  -5.1317
    -4.2921  -4.2916  -3.9730  -3.9720  -3.9287  -3.9278  -3.8336  -3.8320
    -3.7984  -3.7966  -3.6639  -3.6637  -3.5911  -3.5896  -3.5297  -3.5290
    -3.4887  -3.4871  -3.4728  -3.4717  -3.4555  -3.4545  -3.4333  -3.4328
    -3.4064  -3.4054  -3.3352  -3.3347  -3.1724  -3.1721  -3.0520  -3.0509
    -1.7565  -1.7562  -1.6341  -1.6339  -1.6035  -1.6034  -1.5173  -1.5171
    -1.4575  -1.4568  -1.4266  -1.4261  -1.3942  -1.3935  -1.3721  -1.3714
    -1.3415  -1.3414  -1.2245  -1.2240  -1.2132  -1.2129  -1.1199  -1.1192
    -1.1137  -1.1127  -1.0991  -1.0980  -1.0894  -1.0892  -1.0198  -1.0195
     0.3251   0.3412   0.3581   0.3819   0.3939   0.3956   0.4787   0.5073
     0.5203   0.5320   0.5623   0.5803   0.6025   0.6059   0.6502   0.6568
     0.6913   0.6978   0.7212   0.7345   0.7798   0.7897   0.8604   0.8820
     1.1467   1.1883   1.2216   1.2564   1.2721   1.2963   1.3163   1.3369
     1.4110   1.4332   1.4764   1.5039   1.5205   1.5383   1.5604   1.5756
     1.5979   1.6149   1.6553   1.6821   1.6935   1.7544   1.7851   1.8021
     1.8078   1.8485   1.8687   1.8752   1.9032   1.9166   1.9331   1.9522
     1.9795   1.9975   2.0077   2.0358   2.0487   2.0693   2.0856   2.0972
     2.1175   2.1323   2.1573   2.1858   2.1914   2.2304   2.2478   2.2566
     2.2644   2.2836   2.2981   2.3138   2.3214   2.3335   2.3452   2.3560
     2.3694   2.3830   2.3941   2.4177   2.4313   2.4526   2.4630   2.4866
     2.4994   2.5137   2.5204   2.5289   2.5618   2.5695   2.5924   2.5990
     2.6298   2.6563   2.6700   2.7040   2.7203   2.7302   2.7604   2.7675
     2.7850   2.8071   2.8307   2.8436   2.8535   2.8685   2.8963   2.9066
     2.9169   2.9321   2.9425   2.9566   2.9747   2.9887   3.0089   3.0266
     3.0431   3.0579   3.0672   3.0797   3.1025   3.1207   3.1324   3.1520
     3.1746   3.1832   3.1895   3.2124   3.2234   3.2464   3.2588   3.2914
     3.3271   3.3437   3.3658   3.4014   3.4246   3.4782   3.5300   3.5897
     5.2890   5.4014   5.6821   5.7484   5.7761   5.8140   5.8804   5.9461
     6.2701   6.3031   6.3508   6.3839   6.4390   6.4971   6.5532   6.5994
     6.6400   6.7325   6.8104   6.8490   6.9303   6.9860   7.0096   7.0308
     7.4053   7.4263   7.5708   7.6214   7.7937   7.8506   7.9152   7.9772
     8.0276   8.0430   8.0763   8.0992   8.1229   8.1499   8.1734   8.2217
     8.2532   8.2788   8.2981   8.3174   8.3644   8.3950   8.4157   8.4600
     8.4812   8.5100   8.5207   8.5626   8.5700   8.6169   8.6330   8.6849
     8.7096   8.7468   8.7994   8.8299

          k = 0.7500 0.4969 0.0000 ( 80262 PWs)   bands (ev):

   -41.9204 -41.9204 -41.8161 -41.8161 -41.6491 -41.6491 -41.6121 -41.6121
   -41.5356 -41.5356 -41.5009 -41.5009 -41.4619 -41.4619 -41.4553 -41.4553
   -41.4361 -41.4361 -41.4198 -41.4198 -41.4072 -41.4072 -41.3950 -41.3950
   -41.3924 -41.3924 -41.3920 -41.3920 -41.3550 -41.3550 -41.3315 -41.3315
   -41.3292 -41.3292 -41.3265 -41.3265 -41.3136 -41.3136 -41.3082 -41.3082
   -41.2872 -41.2872 -41.2777 -41.2777 -41.2711 -41.2711 -41.2596 -41.2596
   -41.2399 -41.2399 -41.2365 -41.2365 -41.2292 -41.2292 -41.2226 -41.2226
   -41.2138 -41.2138 -41.1766 -41.1766 -41.1664 -41.1664 -41.1658 -41.1658
   -41.1516 -41.1516 -41.1057 -41.1057 -41.1055 -41.1055 -41.1027 -41.1027
   -41.0982 -41.0982 -41.0673 -41.0673 -41.0551 -41.0551 -41.0447 -41.0447
   -40.9882 -40.9882 -40.9795 -40.9795 -40.9775 -40.9775 -40.9546 -40.9546
   -40.8936 -40.8936 -40.8588 -40.8588 -40.8509 -40.8509 -40.7393 -40.7393
   -40.2217 -40.2217 -40.1726 -40.1726 -40.0847 -40.0847 -39.9513 -39.9513
   -39.9141 -39.9141 -39.8968 -39.8968 -39.8606 -39.8606 -39.8021 -39.8021
   -39.7678 -39.7678 -39.7640 -39.7640 -39.7595 -39.7595 -39.7401 -39.7401
   -39.7206 -39.7206 -39.7112 -39.7112 -39.7081 -39.7081 -39.6974 -39.6974
   -39.6954 -39.6954 -39.6930 -39.6930 -39.6917 -39.6917 -39.6819 -39.6819
   -39.6759 -39.6759 -39.6605 -39.6605 -39.6435 -39.6435 -39.6412 -39.6412
   -39.6359 -39.6359 -39.6270 -39.6270 -39.6235 -39.6235 -39.6045 -39.6045
   -39.5991 -39.5991 -39.5824 -39.5824 -39.5782 -39.5782 -39.5728 -39.5728
   -39.5620 -39.5620 -39.5554 -39.5554 -39.5430 -39.5430 -39.5399 -39.5399
   -39.5358 -39.5358 -39.5318 -39.5318 -39.5245 -39.5245 -39.5174 -39.5174
   -39.5121 -39.5121 -39.5089 -39.5089 -39.4973 -39.4973 -39.4795 -39.4795
   -39.4731 -39.4731 -39.4692 -39.4692 -39.4682 -39.4682 -39.4592 -39.4592
   -39.4392 -39.4392 -39.4240 -39.4240 -39.4205 -39.4205 -39.4105 -39.4105
   -39.4000 -39.4000 -39.3711 -39.3711 -39.3706 -39.3706 -39.3695 -39.3695
   -39.3689 -39.3689 -39.3465 -39.3465 -39.3221 -39.3221 -39.3196 -39.3196
   -39.3091 -39.3091 -39.2774 -39.2774 -39.2560 -39.2560 -39.2556 -39.2556
   -39.2534 -39.2534 -39.2362 -39.2362 -39.2071 -39.2071 -39.1675 -39.1675
   -39.1520 -39.1520 -39.1302 -39.1302 -39.0999 -39.0999 -39.0059 -39.0059
   -16.9525 -16.9525 -16.7214 -16.7214 -16.3804 -16.3804 -16.3469 -16.3469
   -16.3221 -16.3221 -16.2816 -16.2816 -16.2410 -16.2410 -15.8895 -15.8895
   -14.2874 -14.2874 -14.2805 -14.2805 -14.2573 -14.2573 -14.2393 -14.2393
   -14.2331 -14.2331 -14.2212 -14.2212 -14.1849 -14.1849 -14.1643 -14.1643
   -14.1212 -14.1212 -14.1010 -14.1010 -14.0884 -14.0884 -14.0815 -14.0815
   -14.0436 -14.0436 -14.0335 -14.0335 -14.0200 -14.0200 -14.0060 -14.0060
   -11.7571 -11.7571 -11.7334 -11.7334 -11.7220 -11.7220 -11.7003 -11.7003
   -11.6987 -11.6987 -11.6975 -11.6975 -11.6838 -11.6838 -11.6627 -11.6627
   -11.6498 -11.6498 -11.6412 -11.6412 -11.6198 -11.6198 -11.5945 -11.5944
   -11.5890 -11.5890 -11.5693 -11.5691 -11.5549 -11.5546 -11.5511 -11.5511
   -11.5235 -11.5235 -11.5092 -11.5092 -11.4993 -11.4993 -11.4929 -11.4929
   -11.4822 -11.4822 -11.4665 -11.4665 -11.4541 -11.4541 -11.4275 -11.4275
    -9.3174  -9.3174  -9.2505  -9.2505  -9.2091  -9.2091  -9.1011  -9.1011
    -9.0875  -9.0875  -9.0791  -9.0791  -8.9814  -8.9813  -8.9736  -8.9736
    -8.6312  -8.6311  -8.4157  -8.4155  -8.3283  -8.3279  -8.1942  -8.1934
    -8.1413  -8.1403  -8.0890  -8.0879  -8.0455  -8.0443  -7.9762  -7.9735
    -7.9648  -7.9622  -7.9468  -7.9462  -7.8988  -7.8983  -7.8413  -7.8399
    -7.8115  -7.8104  -7.7917  -7.7910  -7.7354  -7.7337  -7.6973  -7.6969
    -7.6720  -7.6713  -7.6511  -7.6507  -7.6202  -7.6201  -7.5557  -7.5554
    -7.5301  -7.5300  -7.4354  -7.4352  -7.3984  -7.3983  -7.3121  -7.3121
    -6.5983  -6.5983  -6.4727  -6.4727  -6.1868  -6.1868  -6.1341  -6.1341
    -6.1031  -6.1031  -6.0970  -6.0970  -6.0052  -6.0052  -5.9938  -5.9938
    -5.8555  -5.8555  -5.7619  -5.7619  -5.7030  -5.7030  -5.5443  -5.5443
    -5.5340  -5.5340  -5.4662  -5.4662  -5.1699  -5.1699  -5.1315  -5.1315
    -4.2611  -4.2609  -4.0809  -4.0806  -3.9056  -3.9054  -3.8275  -3.8271
    -3.7008  -3.6998  -3.6715  -3.6709  -3.6540  -3.6536  -3.5746  -3.5733
    -3.5073  -3.5065  -3.4798  -3.4794  -3.4356  -3.4354  -3.4195  -3.4189
    -3.3586  -3.3578  -3.3071  -3.3065  -3.1476  -3.1474  -3.0749  -3.0745
    -1.7558  -1.7554  -1.6332  -1.6331  -1.6040  -1.6039  -1.5182  -1.5180
    -1.4572  -1.4571  -1.4259  -1.4258  -1.3939  -1.3934  -1.3712  -1.3706
    -1.3426  -1.3425  -1.2245  -1.2241  -1.2131  -1.2130  -1.1216  -1.1211
    -1.1163  -1.1162  -1.0995  -1.0991  -1.0900  -1.0895  -1.0169  -1.0168
     0.2607   0.2743   0.3444   0.3553   0.3913   0.3961   0.4343   0.4501
     0.4760   0.4874   0.4942   0.5007   0.5463   0.5590   0.5790   0.5904
     0.6999   0.7224   0.9341   0.9433   1.0228   1.0369   1.0765   1.0801
     1.1327   1.1478   1.2245   1.2453   1.2730   1.2908   1.2993   1.3177
     1.3233   1.3521   1.3924   1.4162   1.4563   1.4739   1.5318   1.5484
     1.5989   1.6184   1.6352   1.6381   1.6595   1.6846   1.7782   1.7906
     1.8127   1.8343   1.8622   1.8783   1.8886   1.9073   1.9240   1.9524
     1.9755   1.9843   2.0004   2.0217   2.0376   2.0515   2.0785   2.0905
     2.1108   2.1213   2.1385   2.1728   2.1905   2.2089   2.2225   2.2429
     2.2641   2.2791   2.2939   2.3040   2.3214   2.3312   2.3487   2.3544
     2.3787   2.4001   2.4098   2.4271   2.4366   2.4551   2.4696   2.4822
     2.4983   2.5136   2.5250   2.5478   2.5642   2.5826   2.5949   2.6134
     2.6430   2.6657   2.6775   2.7059   2.7144   2.7351   2.7580   2.7591
     2.7976   2.8074   2.8292   2.8433   2.8486   2.8649   2.8841   2.8944
     2.9112   2.9264   2.9568   2.9722   2.9955   3.0063   3.0137   3.0260
     3.0516   3.0642   3.0874   3.1104   3.1182   3.1358   3.1555   3.1720
     3.1787   3.1856   3.1969   3.2054   3.2193   3.2394   3.2951   3.3104
     3.3362   3.3529   3.3803   3.4012   3.5231   3.5848   3.6698   3.6934
     5.1932   5.3384   5.4064   5.4480   5.6485   5.7048   5.8426   5.8572
     6.1702   6.2498   6.3346   6.3945   6.4752   6.5690   6.6182   6.6637
     6.9648   6.9938   7.0273   7.0558   7.1351   7.1880   7.2989   7.3304
     7.4059   7.4347   7.4659   7.5034   7.5930   7.5990   7.6660   7.6788
     7.7982   7.8202   7.8974   7.9208   8.0834   8.0928   8.1488   8.1591
     8.1910   8.2083   8.3024   8.3159   8.3854   8.4060   8.4198   8.4635
     8.4906   8.5141   8.5600   8.5925   8.6201   8.6534   8.6843   8.7283
     8.7820   8.7924   8.8060   8.8419

          k = 0.7500 0.4969 0.2500 ( 80272 PWs)   bands (ev):

   -41.9204 -41.9204 -41.8161 -41.8161 -41.6491 -41.6491 -41.6121 -41.6121
   -41.5356 -41.5356 -41.5009 -41.5009 -41.4619 -41.4619 -41.4553 -41.4553
   -41.4361 -41.4361 -41.4198 -41.4198 -41.4072 -41.4072 -41.3950 -41.3950
   -41.3924 -41.3924 -41.3920 -41.3920 -41.3550 -41.3550 -41.3315 -41.3315
   -41.3292 -41.3292 -41.3265 -41.3265 -41.3136 -41.3136 -41.3082 -41.3082
   -41.2872 -41.2872 -41.2777 -41.2777 -41.2711 -41.2711 -41.2597 -41.2597
   -41.2399 -41.2399 -41.2365 -41.2365 -41.2292 -41.2292 -41.2226 -41.2226
   -41.2138 -41.2138 -41.1766 -41.1766 -41.1664 -41.1664 -41.1659 -41.1659
   -41.1516 -41.1516 -41.1057 -41.1057 -41.1055 -41.1055 -41.1028 -41.1028
   -41.0982 -41.0982 -41.0673 -41.0673 -41.0551 -41.0551 -41.0447 -41.0447
   -40.9882 -40.9882 -40.9795 -40.9795 -40.9775 -40.9775 -40.9546 -40.9546
   -40.8936 -40.8936 -40.8588 -40.8588 -40.8509 -40.8509 -40.7394 -40.7394
   -40.2217 -40.2217 -40.1726 -40.1726 -40.0847 -40.0847 -39.9513 -39.9513
   -39.9141 -39.9141 -39.8968 -39.8968 -39.8606 -39.8606 -39.8021 -39.8021
   -39.7678 -39.7678 -39.7640 -39.7640 -39.7595 -39.7595 -39.7401 -39.7401
   -39.7206 -39.7206 -39.7112 -39.7112 -39.7081 -39.7081 -39.6974 -39.6974
   -39.6954 -39.6954 -39.6930 -39.6930 -39.6917 -39.6917 -39.6819 -39.6819
   -39.6759 -39.6759 -39.6605 -39.6605 -39.6435 -39.6435 -39.6412 -39.6412
   -39.6359 -39.6359 -39.6270 -39.6270 -39.6235 -39.6235 -39.6045 -39.6045
   -39.5991 -39.5991 -39.5824 -39.5824 -39.5782 -39.5782 -39.5728 -39.5728
   -39.5620 -39.5620 -39.5554 -39.5554 -39.5430 -39.5430 -39.5399 -39.5399
   -39.5358 -39.5358 -39.5318 -39.5318 -39.5245 -39.5245 -39.5174 -39.5174
   -39.5121 -39.5121 -39.5089 -39.5089 -39.4973 -39.4973 -39.4795 -39.4795
   -39.4731 -39.4731 -39.4692 -39.4692 -39.4682 -39.4682 -39.4593 -39.4593
   -39.4392 -39.4392 -39.4240 -39.4240 -39.4205 -39.4205 -39.4105 -39.4105
   -39.4000 -39.4000 -39.3711 -39.3711 -39.3706 -39.3706 -39.3695 -39.3695
   -39.3689 -39.3689 -39.3465 -39.3465 -39.3221 -39.3221 -39.3196 -39.3196
   -39.3091 -39.3091 -39.2774 -39.2774 -39.2560 -39.2560 -39.2556 -39.2556
   -39.2534 -39.2534 -39.2362 -39.2362 -39.2071 -39.2071 -39.1675 -39.1675
   -39.1520 -39.1520 -39.1302 -39.1302 -39.0999 -39.0999 -39.0059 -39.0059
   -16.9525 -16.9525 -16.7214 -16.7214 -16.3804 -16.3804 -16.3469 -16.3469
   -16.3221 -16.3221 -16.2815 -16.2815 -16.2410 -16.2410 -15.8895 -15.8895
   -14.2874 -14.2874 -14.2805 -14.2805 -14.2573 -14.2572 -14.2393 -14.2393
   -14.2331 -14.2331 -14.2212 -14.2212 -14.1849 -14.1849 -14.1643 -14.1643
   -14.1212 -14.1212 -14.1010 -14.1010 -14.0884 -14.0884 -14.0815 -14.0815
   -14.0436 -14.0436 -14.0335 -14.0335 -14.0200 -14.0200 -14.0060 -14.0060
   -11.7571 -11.7570 -11.7331 -11.7331 -11.7220 -11.7220 -11.7005 -11.7004
   -11.6986 -11.6986 -11.6978 -11.6976 -11.6839 -11.6838 -11.6627 -11.6627
   -11.6498 -11.6497 -11.6412 -11.6412 -11.6197 -11.6196 -11.5945 -11.5944
   -11.5890 -11.5890 -11.5692 -11.5690 -11.5549 -11.5547 -11.5512 -11.5511
   -11.5235 -11.5235 -11.5093 -11.5093 -11.4993 -11.4993 -11.4930 -11.4930
   -11.4823 -11.4823 -11.4667 -11.4667 -11.4541 -11.4541 -11.4275 -11.4275
    -9.3172  -9.3172  -9.2505  -9.2505  -9.2095  -9.2095  -9.1012  -9.1012
    -9.0874  -9.0874  -9.0791  -9.0791  -8.9811  -8.9811  -8.9733  -8.9733
    -8.6309  -8.6308  -8.4146  -8.4144  -8.3208  -8.3206  -8.1925  -8.1909
    -8.1567  -8.1552  -8.0980  -8.0973  -8.0457  -8.0440  -7.9952  -7.9939
    -7.9724  -7.9710  -7.9225  -7.9216  -7.8908  -7.8883  -7.8327  -7.8320
    -7.8110  -7.8102  -7.8002  -7.7996  -7.7377  -7.7356  -7.6977  -7.6976
    -7.6709  -7.6687  -7.6339  -7.6320  -7.6170  -7.6152  -7.5640  -7.5633
    -7.5297  -7.5293  -7.4388  -7.4385  -7.3988  -7.3986  -7.3139  -7.3138
    -6.5984  -6.5984  -6.4729  -6.4729  -6.1869  -6.1869  -6.1341  -6.1341
    -6.1032  -6.1032  -6.0969  -6.0969  -6.0038  -6.0036  -5.9951  -5.9950
    -5.8550  -5.8550  -5.7616  -5.7615  -5.7031  -5.7031  -5.5443  -5.5443
    -5.5340  -5.5339  -5.4663  -5.4663  -5.1701  -5.1700  -5.1317  -5.1317
    -4.1990  -4.1987  -4.0217  -4.0212  -3.9182  -3.9176  -3.8247  -3.8244
    -3.7082  -3.7073  -3.6964  -3.6949  -3.6590  -3.6586  -3.5713  -3.5707
    -3.5134  -3.5124  -3.4756  -3.4753  -3.4342  -3.4338  -3.4206  -3.4201
    -3.4036  -3.4025  -3.3369  -3.3367  -3.1769  -3.1756  -3.1530  -3.1522
    -1.7558  -1.7555  -1.6332  -1.6331  -1.6034  -1.6034  -1.5182  -1.5179
    -1.4574  -1.4569  -1.4268  -1.4261  -1.3936  -1.3932  -1.3713  -1.3705
    -1.3413  -1.3411  -1.2234  -1.2226  -1.2140  -1.2139  -1.1183  -1.1171
    -1.1134  -1.1128  -1.1007  -1.0996  -1.0881  -1.0876  -1.0222  -1.0218
     0.3922   0.3983   0.4155   0.4346   0.4615   0.4778   0.4873   0.5039
     0.5218   0.5378   0.5464   0.5622   0.6542   0.6608   0.6965   0.7216
     0.7321   0.7548   0.9443   0.9463   1.0218   1.0383   1.0562   1.0743
     1.1559   1.1731   1.2166   1.2364   1.2470   1.2709   1.2930   1.3165
     1.3248   1.3506   1.3864   1.4060   1.4432   1.4638   1.5075   1.5232
     1.5762   1.5932   1.6028   1.6148   1.6498   1.6752   1.7481   1.7757
     1.7936   1.8185   1.8403   1.8525   1.8771   1.8950   1.9107   1.9317
     1.9517   1.9624   1.9805   2.0007   2.0137   2.0337   2.0492   2.0735
     2.1066   2.1236   2.1325   2.1602   2.1722   2.1909   2.2111   2.2197
     2.2308   2.2499   2.2634   2.2818   2.2941   2.3001   2.3156   2.3471
     2.3522   2.3646   2.3753   2.3922   2.4128   2.4274   2.4382   2.4501
     2.4622   2.4836   2.5088   2.5242   2.5308   2.5548   2.5622   2.5881
     2.6220   2.6613   2.6788   2.6984   2.7189   2.7405   2.7571   2.7750
     2.7935   2.8120   2.8282   2.8343   2.8511   2.8645   2.8744   2.8951
     2.9108   2.9253   2.9432   2.9596   2.9756   3.0006   3.0046   3.0227
     3.0315   3.0453   3.0625   3.0852   3.1043   3.1165   3.1260   3.1431
     3.1682   3.1731   3.1790   3.1881   3.1947   3.2119   3.2328   3.2547
     3.2723   3.3072   3.3263   3.3479   3.3841   3.4107   3.4977   3.5067
     5.5530   5.6322   5.7188   5.7444   5.9639   6.0357   6.0954   6.1474
     6.2389   6.2924   6.3661   6.4503   6.6966   6.7416   6.7945   6.8314
     6.9518   6.9663   7.0364   7.0717   7.1393   7.1867   7.3219   7.3375
     7.4074   7.4480   7.4810   7.5062   7.6655   7.6674   7.7121   7.7303
     7.8001   7.8173   7.8867   7.9267   8.0584   8.0713   8.1018   8.1135
     8.1689   8.1790   8.2108   8.2365   8.2614   8.2905   8.3204   8.3354
     8.3934   8.4409   8.4883   8.5232   8.5441   8.5819   8.5966   8.6484
     8.6757   8.7039   8.7530   8.8120

          k = 0.7500 0.4969 0.5000 ( 80232 PWs)   bands (ev):

   -41.9204 -41.9204 -41.8161 -41.8161 -41.6491 -41.6491 -41.6121 -41.6121
   -41.5356 -41.5356 -41.5009 -41.5009 -41.4619 -41.4619 -41.4553 -41.4553
   -41.4361 -41.4361 -41.4198 -41.4198 -41.4072 -41.4072 -41.3950 -41.3950
   -41.3924 -41.3924 -41.3920 -41.3920 -41.3550 -41.3550 -41.3315 -41.3315
   -41.3292 -41.3292 -41.3265 -41.3265 -41.3135 -41.3135 -41.3082 -41.3082
   -41.2872 -41.2872 -41.2777 -41.2777 -41.2711 -41.2711 -41.2596 -41.2596
   -41.2399 -41.2399 -41.2365 -41.2365 -41.2292 -41.2292 -41.2226 -41.2226
   -41.2138 -41.2138 -41.1766 -41.1766 -41.1664 -41.1664 -41.1658 -41.1658
   -41.1516 -41.1516 -41.1057 -41.1057 -41.1055 -41.1055 -41.1027 -41.1027
   -41.0981 -41.0981 -41.0673 -41.0673 -41.0551 -41.0551 -41.0447 -41.0447
   -40.9882 -40.9882 -40.9795 -40.9795 -40.9775 -40.9775 -40.9546 -40.9546
   -40.8936 -40.8936 -40.8588 -40.8588 -40.8509 -40.8509 -40.7393 -40.7393
   -40.2217 -40.2217 -40.1726 -40.1726 -40.0847 -40.0847 -39.9513 -39.9513
   -39.9141 -39.9141 -39.8968 -39.8968 -39.8606 -39.8606 -39.8021 -39.8021
   -39.7678 -39.7678 -39.7640 -39.7640 -39.7595 -39.7595 -39.7401 -39.7401
   -39.7205 -39.7205 -39.7112 -39.7112 -39.7081 -39.7081 -39.6974 -39.6974
   -39.6954 -39.6954 -39.6930 -39.6930 -39.6917 -39.6917 -39.6819 -39.6819
   -39.6759 -39.6759 -39.6605 -39.6605 -39.6435 -39.6435 -39.6412 -39.6412
   -39.6359 -39.6359 -39.6270 -39.6270 -39.6235 -39.6235 -39.6045 -39.6045
   -39.5991 -39.5991 -39.5824 -39.5824 -39.5781 -39.5781 -39.5728 -39.5728
   -39.5619 -39.5619 -39.5554 -39.5554 -39.5430 -39.5430 -39.5399 -39.5399
   -39.5358 -39.5358 -39.5318 -39.5318 -39.5245 -39.5245 -39.5174 -39.5174
   -39.5121 -39.5121 -39.5089 -39.5089 -39.4973 -39.4973 -39.4795 -39.4795
   -39.4731 -39.4731 -39.4692 -39.4692 -39.4682 -39.4682 -39.4592 -39.4592
   -39.4392 -39.4392 -39.4240 -39.4240 -39.4205 -39.4205 -39.4105 -39.4105
   -39.4000 -39.4000 -39.3711 -39.3711 -39.3706 -39.3706 -39.3695 -39.3695
   -39.3689 -39.3689 -39.3465 -39.3465 -39.3221 -39.3221 -39.3196 -39.3196
   -39.3091 -39.3091 -39.2774 -39.2774 -39.2560 -39.2560 -39.2556 -39.2556
   -39.2534 -39.2534 -39.2362 -39.2362 -39.2071 -39.2071 -39.1674 -39.1674
   -39.1520 -39.1520 -39.1302 -39.1302 -39.0999 -39.0999 -39.0059 -39.0059
   -16.9525 -16.9525 -16.7214 -16.7214 -16.3804 -16.3804 -16.3469 -16.3469
   -16.3221 -16.3221 -16.2815 -16.2815 -16.2410 -16.2410 -15.8895 -15.8895
   -14.2874 -14.2874 -14.2805 -14.2805 -14.2572 -14.2572 -14.2393 -14.2393
   -14.2331 -14.2331 -14.2212 -14.2212 -14.1849 -14.1849 -14.1643 -14.1643
   -14.1212 -14.1212 -14.1010 -14.1010 -14.0884 -14.0884 -14.0815 -14.0815
   -14.0436 -14.0436 -14.0335 -14.0335 -14.0199 -14.0199 -14.0060 -14.0060
   -11.7570 -11.7569 -11.7328 -11.7328 -11.7220 -11.7220 -11.7006 -11.7006
   -11.6985 -11.6985 -11.6979 -11.6979 -11.6839 -11.6839 -11.6627 -11.6627
   -11.6498 -11.6497 -11.6412 -11.6412 -11.6195 -11.6195 -11.5945 -11.5944
   -11.5890 -11.5890 -11.5690 -11.5688 -11.5549 -11.5547 -11.5512 -11.5511
   -11.5235 -11.5235 -11.5094 -11.5094 -11.4993 -11.4993 -11.4931 -11.4930
   -11.4823 -11.4823 -11.4668 -11.4668 -11.4541 -11.4541 -11.4275 -11.4275
    -9.3169  -9.3169  -9.2505  -9.2505  -9.2098  -9.2098  -9.1015  -9.1015
    -9.0874  -9.0874  -9.0789  -9.0789  -8.9811  -8.9810  -8.9731  -8.9731
    -8.6297  -8.6296  -8.4135  -8.4133  -8.3147  -8.3143  -8.1862  -8.1859
    -8.1675  -8.1665  -8.1086  -8.1076  -8.0644  -8.0626  -7.9926  -7.9921
    -7.9758  -7.9745  -7.9183  -7.9179  -7.8700  -7.8688  -7.8341  -7.8338
    -7.8153  -7.8141  -7.8006  -7.7996  -7.7354  -7.7346  -7.6966  -7.6959
    -7.6603  -7.6599  -7.6229  -7.6224  -7.6126  -7.6120  -7.5763  -7.5760
    -7.5289  -7.5288  -7.4410  -7.4407  -7.4003  -7.4002  -7.3154  -7.3154
    -6.5984  -6.5984  -6.4730  -6.4730  -6.1869  -6.1869  -6.1340  -6.1340
    -6.1033  -6.1033  -6.0968  -6.0968  -6.0017  -6.0017  -5.9967  -5.9967
    -5.8544  -5.8544  -5.7611  -5.7611  -5.7031  -5.7031  -5.5443  -5.5443
    -5.5339  -5.5338  -5.4663  -5.4663  -5.1701  -5.1701  -5.1318  -5.1318
    -4.0784  -4.0782  -4.0120  -4.0116  -3.9114  -3.9106  -3.8229  -3.8228
    -3.8025  -3.8020  -3.6786  -3.6784  -3.6027  -3.6018  -3.5808  -3.5799
    -3.5267  -3.5259  -3.4922  -3.4913  -3.4546  -3.4539  -3.4466  -3.4462
    -3.3721  -3.3712  -3.3492  -3.3487  -3.3223  -3.3216  -3.1598  -3.1597
    -1.7557  -1.7554  -1.6331  -1.6331  -1.6028  -1.6028  -1.5179  -1.5177
    -1.4570  -1.4569  -1.4269  -1.4268  -1.3938  -1.3932  -1.3715  -1.3708
    -1.3399  -1.3398  -1.2222  -1.2218  -1.2148  -1.2146  -1.1169  -1.1168
    -1.1090  -1.1086  -1.1003  -1.0999  -1.0877  -1.0872  -1.0250  -1.0249
     0.4207   0.4276   0.4453   0.4547   0.4750   0.4812   0.5231   0.5437
     0.5903   0.6163   0.7500   0.7539   0.8297   0.8380   0.8896   0.8952
     0.9665   0.9794   1.0005   1.0051   1.0366   1.0485   1.1069   1.1273
     1.1445   1.1560   1.1619   1.1868   1.2147   1.2320   1.2663   1.2751
     1.3065   1.3257   1.3429   1.3596   1.4107   1.4440   1.4580   1.4837
     1.4954   1.5198   1.5372   1.5528   1.6021   1.6451   1.6688   1.7199
     1.7486   1.7686   1.8035   1.8236   1.8401   1.8621   1.8788   1.8909
     1.9016   1.9229   1.9505   1.9806   1.9924   2.0100   2.0293   2.0541
     2.0690   2.0874   2.1153   2.1440   2.1522   2.1570   2.1934   2.1952
     2.2113   2.2227   2.2407   2.2625   2.2797   2.2878   2.3018   2.3141
     2.3229   2.3312   2.3477   2.3570   2.3710   2.3879   2.4032   2.4160
     2.4321   2.4557   2.4725   2.4929   2.5222   2.5330   2.5572   2.5829
     2.6295   2.6522   2.6760   2.7025   2.7161   2.7341   2.7606   2.7730
     2.7880   2.8048   2.8214   2.8333   2.8435   2.8688   2.8757   2.8976
     2.9162   2.9281   2.9369   2.9402   2.9529   2.9670   2.9806   2.9988
     3.0106   3.0289   3.0474   3.0575   3.0857   3.1009   3.1169   3.1347
     3.1396   3.1533   3.1619   3.1676   3.1881   3.1905   3.2074   3.2183
     3.2503   3.2735   3.3000   3.3130   3.3315   3.3588   3.4072   3.4412
     5.8675   5.9128   5.9408   5.9951   6.0665   6.0887   6.1573   6.1724
     6.4855   6.5679   6.6680   6.7067   6.8142   6.8719   6.9497   6.9930
     7.1274   7.1416   7.1969   7.2438   7.2545   7.3175   7.3858   7.4089
     7.4939   7.5282   7.5536   7.6014   7.6813   7.7098   7.7316   7.7595
     7.7759   7.7917   7.8140   7.8453   7.8752   7.9049   7.9884   8.0085
     8.0479   8.0607   8.1361   8.1413   8.1613   8.1797   8.2238   8.2345
     8.2600   8.2896   8.3402   8.3567   8.4095   8.4352   8.4677   8.4935
     8.6118   8.6455   8.6780   8.7195

          k = 0.7500 0.4969 0.7500 ( 80272 PWs)   bands (ev):

   -41.9204 -41.9204 -41.8161 -41.8161 -41.6491 -41.6491 -41.6121 -41.6121
   -41.5356 -41.5356 -41.5009 -41.5009 -41.4619 -41.4619 -41.4553 -41.4553
   -41.4361 -41.4361 -41.4198 -41.4198 -41.4072 -41.4072 -41.3950 -41.3950
   -41.3924 -41.3924 -41.3920 -41.3920 -41.3550 -41.3550 -41.3315 -41.3315
   -41.3292 -41.3292 -41.3265 -41.3265 -41.3136 -41.3136 -41.3082 -41.3082
   -41.2872 -41.2872 -41.2777 -41.2777 -41.2711 -41.2711 -41.2597 -41.2597
   -41.2399 -41.2399 -41.2365 -41.2365 -41.2292 -41.2292 -41.2226 -41.2226
   -41.2138 -41.2138 -41.1766 -41.1766 -41.1664 -41.1664 -41.1658 -41.1658
   -41.1516 -41.1516 -41.1057 -41.1057 -41.1055 -41.1055 -41.1028 -41.1028
   -41.0982 -41.0982 -41.0673 -41.0673 -41.0551 -41.0551 -41.0447 -41.0447
   -40.9882 -40.9882 -40.9795 -40.9795 -40.9775 -40.9775 -40.9546 -40.9546
   -40.8936 -40.8936 -40.8588 -40.8588 -40.8509 -40.8509 -40.7394 -40.7394
   -40.2217 -40.2217 -40.1726 -40.1726 -40.0847 -40.0847 -39.9513 -39.9513
   -39.9141 -39.9141 -39.8968 -39.8968 -39.8606 -39.8606 -39.8021 -39.8021
   -39.7678 -39.7678 -39.7640 -39.7640 -39.7595 -39.7595 -39.7401 -39.7401
   -39.7206 -39.7206 -39.7112 -39.7112 -39.7081 -39.7081 -39.6974 -39.6974
   -39.6954 -39.6954 -39.6930 -39.6930 -39.6917 -39.6917 -39.6819 -39.6819
   -39.6759 -39.6759 -39.6605 -39.6605 -39.6435 -39.6435 -39.6412 -39.6412
   -39.6359 -39.6359 -39.6270 -39.6270 -39.6235 -39.6235 -39.6045 -39.6045
   -39.5991 -39.5991 -39.5824 -39.5824 -39.5782 -39.5782 -39.5728 -39.5728
   -39.5620 -39.5620 -39.5554 -39.5554 -39.5430 -39.5430 -39.5399 -39.5399
   -39.5358 -39.5358 -39.5318 -39.5318 -39.5245 -39.5245 -39.5174 -39.5174
   -39.5121 -39.5121 -39.5089 -39.5089 -39.4973 -39.4973 -39.4795 -39.4795
   -39.4731 -39.4731 -39.4692 -39.4692 -39.4682 -39.4682 -39.4593 -39.4593
   -39.4392 -39.4392 -39.4240 -39.4240 -39.4205 -39.4205 -39.4105 -39.4105
   -39.4000 -39.4000 -39.3711 -39.3711 -39.3706 -39.3706 -39.3695 -39.3695
   -39.3689 -39.3689 -39.3465 -39.3465 -39.3221 -39.3221 -39.3196 -39.3196
   -39.3091 -39.3091 -39.2774 -39.2774 -39.2560 -39.2560 -39.2556 -39.2556
   -39.2534 -39.2534 -39.2362 -39.2362 -39.2071 -39.2071 -39.1675 -39.1675
   -39.1520 -39.1520 -39.1302 -39.1302 -39.0999 -39.0999 -39.0059 -39.0059
   -16.9525 -16.9525 -16.7214 -16.7214 -16.3804 -16.3804 -16.3469 -16.3469
   -16.3221 -16.3221 -16.2816 -16.2816 -16.2410 -16.2410 -15.8895 -15.8895
   -14.2874 -14.2874 -14.2805 -14.2805 -14.2572 -14.2572 -14.2393 -14.2393
   -14.2331 -14.2331 -14.2212 -14.2212 -14.1849 -14.1849 -14.1643 -14.1643
   -14.1212 -14.1212 -14.1010 -14.1010 -14.0884 -14.0884 -14.0815 -14.0815
   -14.0436 -14.0436 -14.0335 -14.0335 -14.0200 -14.0200 -14.0060 -14.0060
   -11.7571 -11.7570 -11.7331 -11.7331 -11.7220 -11.7220 -11.7005 -11.7004
   -11.6986 -11.6986 -11.6978 -11.6976 -11.6839 -11.6839 -11.6627 -11.6627
   -11.6498 -11.6497 -11.6412 -11.6412 -11.6197 -11.6196 -11.5945 -11.5944
   -11.5890 -11.5890 -11.5692 -11.5690 -11.5549 -11.5547 -11.5512 -11.5511
   -11.5235 -11.5235 -11.5093 -11.5093 -11.4993 -11.4993 -11.4930 -11.4930
   -11.4823 -11.4823 -11.4667 -11.4667 -11.4541 -11.4541 -11.4275 -11.4275
    -9.3171  -9.3171  -9.2505  -9.2505  -9.2095  -9.2094  -9.1014  -9.1013
    -9.0875  -9.0875  -9.0790  -9.0790  -8.9813  -8.9813  -8.9734  -8.9734
    -8.6300  -8.6299  -8.4144  -8.4142  -8.3235  -8.3230  -8.1904  -8.1886
    -8.1473  -8.1451  -8.0992  -8.0977  -8.0711  -8.0699  -7.9796  -7.9786
    -7.9706  -7.9683  -7.9193  -7.9183  -7.8941  -7.8916  -7.8406  -7.8391
    -7.8158  -7.8146  -7.7914  -7.7904  -7.7305  -7.7302  -7.6957  -7.6946
    -7.6738  -7.6717  -7.6361  -7.6344  -7.6168  -7.6154  -7.5661  -7.5654
    -7.5298  -7.5295  -7.4375  -7.4371  -7.3999  -7.3998  -7.3137  -7.3135
    -6.5984  -6.5984  -6.4729  -6.4729  -6.1868  -6.1868  -6.1341  -6.1341
    -6.1032  -6.1032  -6.0969  -6.0969  -6.0039  -6.0037  -5.9950  -5.9948
    -5.8550  -5.8550  -5.7615  -5.7615  -5.7031  -5.7031  -5.5443  -5.5443
    -5.5339  -5.5339  -5.4662  -5.4662  -5.1700  -5.1699  -5.1317  -5.1316
    -4.2026  -4.2024  -4.0238  -4.0236  -3.9048  -3.9045  -3.8292  -3.8288
    -3.7213  -3.7195  -3.6723  -3.6712  -3.6552  -3.6542  -3.5745  -3.5736
    -3.5119  -3.5113  -3.4987  -3.4982  -3.4405  -3.4400  -3.4249  -3.4234
    -3.4018  -3.4004  -3.3305  -3.3302  -3.1677  -3.1665  -3.1538  -3.1531
    -1.7557  -1.7554  -1.6332  -1.6331  -1.6033  -1.6033  -1.5180  -1.5179
    -1.4572  -1.4567  -1.4266  -1.4260  -1.3941  -1.3935  -1.3714  -1.3709
    -1.3411  -1.3411  -1.2235  -1.2229  -1.2140  -1.2137  -1.1175  -1.1171
    -1.1159  -1.1153  -1.0994  -1.0985  -1.0896  -1.0894  -1.0196  -1.0192
     0.3498   0.3676   0.4064   0.4139   0.4699   0.4793   0.5105   0.5185
     0.5360   0.5393   0.5836   0.5998   0.6493   0.6565   0.6849   0.7029
     0.7528   0.7667   0.9320   0.9471   1.0257   1.0443   1.0608   1.0717
     1.1486   1.1715   1.2226   1.2327   1.2537   1.2750   1.2835   1.3083
     1.3295   1.3557   1.3780   1.4247   1.4456   1.4724   1.5078   1.5215
     1.5657   1.5783   1.5936   1.6153   1.6277   1.6515   1.7493   1.7726
     1.7934   1.8213   1.8445   1.8607   1.8848   1.8932   1.9076   1.9325
     1.9434   1.9633   1.9828   2.0045   2.0089   2.0339   2.0561   2.0754
     2.0860   2.1143   2.1379   2.1474   2.1824   2.1871   2.2126   2.2305
     2.2415   2.2549   2.2641   2.2854   2.2925   2.3073   2.3309   2.3346
     2.3527   2.3592   2.3744   2.3865   2.4038   2.4217   2.4309   2.4403
     2.4792   2.4905   2.5166   2.5224   2.5434   2.5625   2.5691   2.5914
     2.6309   2.6567   2.6723   2.7041   2.7259   2.7307   2.7573   2.7760
     2.7949   2.8065   2.8232   2.8357   2.8545   2.8720   2.8796   2.9010
     2.9134   2.9213   2.9471   2.9596   2.9712   2.9843   2.9980   3.0160
     3.0303   3.0559   3.0639   3.0714   3.0942   3.1106   3.1291   3.1541
     3.1665   3.1788   3.1868   3.1912   3.2025   3.2116   3.2346   3.2510
     3.2899   3.2996   3.3311   3.3399   3.3772   3.4082   3.4828   3.5106
     5.5025   5.6461   5.7261   5.7806   5.9768   6.0309   6.0961   6.1390
     6.2382   6.3075   6.3765   6.4236   6.6230   6.7577   6.8069   6.8335
     6.9636   6.9946   7.0452   7.0850   7.1484   7.1898   7.3075   7.3526
     7.4007   7.4375   7.4844   7.5019   7.6355   7.6446   7.6800   7.6960
     7.8204   7.8428   7.8701   7.9355   8.0733   8.1085   8.1482   8.1698
     8.1741   8.2029   8.2245   8.2429   8.2846   8.3011   8.3493   8.3693
     8.4091   8.4407   8.4720   8.4898   8.5244   8.5541   8.5728   8.6173
     8.6724   8.6971   8.7460   8.7855

          k = 0.7500 0.7454 0.0000 ( 80251 PWs)   bands (ev):

   -41.9204 -41.9204 -41.8161 -41.8161 -41.6491 -41.6491 -41.6121 -41.6121
   -41.5356 -41.5356 -41.5009 -41.5009 -41.4619 -41.4619 -41.4553 -41.4553
   -41.4361 -41.4361 -41.4198 -41.4198 -41.4072 -41.4072 -41.3950 -41.3950
   -41.3924 -41.3924 -41.3920 -41.3920 -41.3550 -41.3550 -41.3315 -41.3315
   -41.3292 -41.3292 -41.3265 -41.3265 -41.3136 -41.3136 -41.3082 -41.3082
   -41.2872 -41.2872 -41.2777 -41.2777 -41.2711 -41.2711 -41.2596 -41.2596
   -41.2399 -41.2399 -41.2365 -41.2365 -41.2292 -41.2292 -41.2226 -41.2226
   -41.2138 -41.2138 -41.1766 -41.1766 -41.1664 -41.1664 -41.1659 -41.1659
   -41.1516 -41.1516 -41.1057 -41.1057 -41.1055 -41.1055 -41.1027 -41.1027
   -41.0982 -41.0982 -41.0673 -41.0673 -41.0551 -41.0551 -41.0447 -41.0447
   -40.9882 -40.9882 -40.9795 -40.9795 -40.9775 -40.9775 -40.9546 -40.9546
   -40.8936 -40.8936 -40.8588 -40.8588 -40.8509 -40.8509 -40.7393 -40.7393
   -40.2217 -40.2217 -40.1726 -40.1726 -40.0847 -40.0847 -39.9513 -39.9513
   -39.9141 -39.9141 -39.8968 -39.8968 -39.8606 -39.8606 -39.8021 -39.8021
   -39.7678 -39.7678 -39.7641 -39.7641 -39.7595 -39.7595 -39.7401 -39.7401
   -39.7206 -39.7206 -39.7112 -39.7112 -39.7081 -39.7081 -39.6974 -39.6974
   -39.6954 -39.6954 -39.6930 -39.6930 -39.6917 -39.6917 -39.6819 -39.6819
   -39.6759 -39.6759 -39.6605 -39.6605 -39.6435 -39.6435 -39.6412 -39.6412
   -39.6359 -39.6359 -39.6270 -39.6270 -39.6235 -39.6235 -39.6045 -39.6045
   -39.5991 -39.5991 -39.5824 -39.5824 -39.5781 -39.5781 -39.5728 -39.5728
   -39.5620 -39.5620 -39.5554 -39.5554 -39.5430 -39.5430 -39.5399 -39.5399
   -39.5358 -39.5358 -39.5318 -39.5318 -39.5245 -39.5245 -39.5174 -39.5174
   -39.5121 -39.5121 -39.5089 -39.5089 -39.4973 -39.4973 -39.4795 -39.4795
   -39.4731 -39.4731 -39.4692 -39.4692 -39.4682 -39.4682 -39.4592 -39.4592
   -39.4392 -39.4392 -39.4240 -39.4240 -39.4205 -39.4205 -39.4105 -39.4105
   -39.4000 -39.4000 -39.3711 -39.3711 -39.3706 -39.3706 -39.3695 -39.3695
   -39.3689 -39.3689 -39.3465 -39.3465 -39.3221 -39.3221 -39.3196 -39.3196
   -39.3091 -39.3091 -39.2774 -39.2774 -39.2560 -39.2560 -39.2556 -39.2556
   -39.2534 -39.2534 -39.2362 -39.2362 -39.2071 -39.2071 -39.1675 -39.1675
   -39.1520 -39.1520 -39.1302 -39.1302 -39.0999 -39.0999 -39.0059 -39.0059
   -16.9525 -16.9525 -16.7214 -16.7214 -16.3804 -16.3804 -16.3469 -16.3469
   -16.3221 -16.3221 -16.2816 -16.2816 -16.2410 -16.2410 -15.8895 -15.8895
   -14.2874 -14.2874 -14.2805 -14.2805 -14.2573 -14.2573 -14.2393 -14.2393
   -14.2331 -14.2331 -14.2212 -14.2212 -14.1849 -14.1849 -14.1643 -14.1643
   -14.1212 -14.1212 -14.1010 -14.1010 -14.0884 -14.0884 -14.0815 -14.0815
   -14.0436 -14.0436 -14.0335 -14.0335 -14.0199 -14.0199 -14.0060 -14.0060
   -11.7571 -11.7571 -11.7335 -11.7334 -11.7226 -11.7224 -11.7001 -11.7000
   -11.6986 -11.6986 -11.6974 -11.6974 -11.6837 -11.6836 -11.6627 -11.6627
   -11.6499 -11.6498 -11.6412 -11.6412 -11.6202 -11.6200 -11.5942 -11.5940
   -11.5891 -11.5889 -11.5693 -11.5691 -11.5548 -11.5546 -11.5511 -11.5510
   -11.5235 -11.5235 -11.5092 -11.5092 -11.4993 -11.4993 -11.4938 -11.4935
   -11.4820 -11.4818 -11.4662 -11.4661 -11.4541 -11.4541 -11.4275 -11.4275
    -9.3174  -9.3174  -9.2505  -9.2505  -9.2091  -9.2091  -9.1020  -9.1020
    -9.0871  -9.0871  -9.0786  -9.0786  -8.9831  -8.9830  -8.9719  -8.9719
    -8.6328  -8.6327  -8.4230  -8.4228  -8.3141  -8.3137  -8.2024  -8.2020
    -8.1330  -8.1320  -8.0937  -8.0922  -8.0285  -8.0272  -7.9776  -7.9750
    -7.9656  -7.9624  -7.9476  -7.9464  -7.9011  -7.8982  -7.8390  -7.8379
    -7.8179  -7.8147  -7.8038  -7.8029  -7.7335  -7.7319  -7.6907  -7.6888
    -7.6734  -7.6724  -7.6500  -7.6494  -7.6269  -7.6259  -7.5825  -7.5812
    -7.5144  -7.5138  -7.4350  -7.4349  -7.3965  -7.3963  -7.3059  -7.3056
    -6.5984  -6.5984  -6.4728  -6.4728  -6.1873  -6.1873  -6.1341  -6.1341
    -6.1059  -6.1058  -6.0947  -6.0947  -6.0053  -6.0053  -5.9939  -5.9939
    -5.8554  -5.8554  -5.7618  -5.7618  -5.7029  -5.7028  -5.5443  -5.5443
    -5.5340  -5.5340  -5.4662  -5.4662  -5.1699  -5.1699  -5.1315  -5.1315
    -4.3556  -4.3553  -3.9925  -3.9914  -3.9543  -3.9535  -3.8370  -3.8358
    -3.7804  -3.7786  -3.6644  -3.6643  -3.5735  -3.5716  -3.5259  -3.5247
    -3.5009  -3.5002  -3.4506  -3.4502  -3.4316  -3.4308  -3.4180  -3.4172
    -3.3653  -3.3645  -3.3417  -3.3414  -3.1691  -3.1689  -2.9589  -2.9578
    -1.7566  -1.7562  -1.6348  -1.6346  -1.6037  -1.6034  -1.5177  -1.5174
    -1.4575  -1.4573  -1.4266  -1.4264  -1.3941  -1.3934  -1.3713  -1.3706
    -1.3426  -1.3424  -1.2250  -1.2246  -1.2130  -1.2127  -1.1222  -1.1218
    -1.1155  -1.1146  -1.0998  -1.0993  -1.0896  -1.0890  -1.0172  -1.0170
     0.2420   0.2515   0.3429   0.3513   0.3696   0.3816   0.3923   0.4008
     0.4361   0.4435   0.4863   0.4982   0.5147   0.5308   0.5530   0.5616
     0.6273   0.6317   0.6500   0.6554   0.7770   0.7964   0.8204   0.8269
     1.1421   1.1880   1.2316   1.2586   1.2848   1.3006   1.3197   1.3393
     1.4129   1.4757   1.5223   1.5315   1.5464   1.5674   1.5757   1.6186
     1.6378   1.6668   1.6825   1.7016   1.7359   1.7681   1.7984   1.8105
     1.8356   1.8581   1.8763   1.9030   1.9225   1.9543   1.9651   1.9917
     2.0022   2.0262   2.0483   2.0604   2.0689   2.0973   2.1087   2.1193
     2.1338   2.1472   2.1687   2.1929   2.2074   2.2325   2.2456   2.2729
     2.2863   2.3047   2.3160   2.3273   2.3483   2.3616   2.3697   2.3903
     2.3957   2.4191   2.4225   2.4346   2.4456   2.4751   2.4867   2.4977
     2.5107   2.5404   2.5513   2.5604   2.5805   2.5939   2.6064   2.6307
     2.6509   2.6588   2.6721   2.6959   2.7297   2.7460   2.7505   2.7592
     2.7838   2.7991   2.8249   2.8415   2.8506   2.8623   2.8717   2.8927
     2.9154   2.9261   2.9481   2.9566   2.9818   3.0023   3.0131   3.0257
     3.0535   3.0652   3.0812   3.1031   3.1282   3.1407   3.1503   3.1760
     3.1999   3.2220   3.2262   3.2478   3.2726   3.2770   3.3066   3.3488
     3.3768   3.4176   3.4424   3.4901   3.5373   3.5897   3.7450   3.8065
     5.0118   5.1401   5.3944   5.4640   5.5235   5.5784   5.7929   5.8419
     5.9789   6.0257   6.2424   6.3247   6.3641   6.4061   6.4746   6.5262
     6.5835   6.6206   6.6870   6.7228   6.7660   6.7988   6.9576   7.0076
     7.3549   7.3625   7.6383   7.6581   7.8393   7.8645   7.9340   7.9544
     8.0018   8.0225   8.0976   8.1160   8.1875   8.2306   8.2711   8.2909
     8.3330   8.3616   8.3781   8.4009   8.4349   8.4431   8.4942   8.5187
     8.5366   8.5679   8.5909   8.6032   8.6491   8.6792   8.7073   8.7502
     8.7959   8.8295   8.8806   8.9189

          k = 0.7500 0.7454 0.2500 ( 80235 PWs)   bands (ev):

   -41.9204 -41.9204 -41.8161 -41.8161 -41.6491 -41.6491 -41.6121 -41.6121
   -41.5356 -41.5356 -41.5009 -41.5009 -41.4619 -41.4619 -41.4553 -41.4553
   -41.4361 -41.4361 -41.4198 -41.4198 -41.4072 -41.4072 -41.3950 -41.3950
   -41.3924 -41.3924 -41.3920 -41.3920 -41.3550 -41.3550 -41.3315 -41.3315
   -41.3292 -41.3292 -41.3265 -41.3265 -41.3136 -41.3136 -41.3082 -41.3082
   -41.2872 -41.2872 -41.2777 -41.2777 -41.2711 -41.2711 -41.2596 -41.2596
   -41.2399 -41.2399 -41.2365 -41.2365 -41.2292 -41.2292 -41.2226 -41.2226
   -41.2138 -41.2138 -41.1766 -41.1766 -41.1664 -41.1664 -41.1658 -41.1658
   -41.1516 -41.1516 -41.1057 -41.1057 -41.1055 -41.1055 -41.1027 -41.1027
   -41.0982 -41.0982 -41.0673 -41.0673 -41.0551 -41.0551 -41.0447 -41.0447
   -40.9882 -40.9882 -40.9795 -40.9795 -40.9775 -40.9775 -40.9546 -40.9546
   -40.8936 -40.8936 -40.8588 -40.8588 -40.8509 -40.8509 -40.7393 -40.7393
   -40.2217 -40.2217 -40.1726 -40.1726 -40.0847 -40.0847 -39.9513 -39.9513
   -39.9141 -39.9141 -39.8968 -39.8968 -39.8606 -39.8606 -39.8021 -39.8021
   -39.7678 -39.7678 -39.7640 -39.7640 -39.7595 -39.7595 -39.7401 -39.7401
   -39.7205 -39.7205 -39.7112 -39.7112 -39.7081 -39.7081 -39.6974 -39.6974
   -39.6954 -39.6954 -39.6930 -39.6930 -39.6917 -39.6917 -39.6819 -39.6819
   -39.6759 -39.6759 -39.6605 -39.6605 -39.6435 -39.6435 -39.6412 -39.6412
   -39.6359 -39.6359 -39.6270 -39.6270 -39.6235 -39.6235 -39.6045 -39.6045
   -39.5991 -39.5991 -39.5824 -39.5824 -39.5781 -39.5781 -39.5728 -39.5728
   -39.5620 -39.5620 -39.5554 -39.5554 -39.5430 -39.5430 -39.5399 -39.5399
   -39.5358 -39.5358 -39.5318 -39.5318 -39.5245 -39.5245 -39.5174 -39.5174
   -39.5121 -39.5121 -39.5089 -39.5089 -39.4973 -39.4973 -39.4795 -39.4795
   -39.4731 -39.4731 -39.4692 -39.4692 -39.4682 -39.4682 -39.4592 -39.4592
   -39.4392 -39.4392 -39.4240 -39.4240 -39.4205 -39.4205 -39.4105 -39.4105
   -39.4000 -39.4000 -39.3711 -39.3711 -39.3706 -39.3706 -39.3695 -39.3695
   -39.3689 -39.3689 -39.3465 -39.3465 -39.3221 -39.3221 -39.3196 -39.3196
   -39.3091 -39.3091 -39.2774 -39.2774 -39.2560 -39.2560 -39.2556 -39.2556
   -39.2534 -39.2534 -39.2362 -39.2362 -39.2071 -39.2071 -39.1675 -39.1675
   -39.1520 -39.1520 -39.1302 -39.1302 -39.0999 -39.0999 -39.0059 -39.0059
   -16.9525 -16.9525 -16.7214 -16.7214 -16.3804 -16.3804 -16.3469 -16.3469
   -16.3221 -16.3221 -16.2815 -16.2815 -16.2410 -16.2410 -15.8895 -15.8895
   -14.2874 -14.2874 -14.2805 -14.2805 -14.2573 -14.2573 -14.2393 -14.2393
   -14.2331 -14.2331 -14.2212 -14.2212 -14.1849 -14.1849 -14.1643 -14.1643
   -14.1212 -14.1212 -14.1010 -14.1010 -14.0884 -14.0884 -14.0815 -14.0815
   -14.0436 -14.0436 -14.0335 -14.0335 -14.0200 -14.0199 -14.0060 -14.0060
   -11.7571 -11.7570 -11.7331 -11.7331 -11.7226 -11.7224 -11.7003 -11.7001
   -11.6986 -11.6985 -11.6978 -11.6975 -11.6838 -11.6837 -11.6627 -11.6627
   -11.6499 -11.6498 -11.6412 -11.6412 -11.6200 -11.6199 -11.5942 -11.5940
   -11.5891 -11.5889 -11.5691 -11.5689 -11.5549 -11.5547 -11.5511 -11.5511
   -11.5235 -11.5235 -11.5093 -11.5093 -11.4993 -11.4993 -11.4939 -11.4935
   -11.4820 -11.4819 -11.4664 -11.4662 -11.4541 -11.4541 -11.4275 -11.4275
    -9.3172  -9.3172  -9.2505  -9.2505  -9.2095  -9.2095  -9.1021  -9.1021
    -9.0870  -9.0870  -9.0786  -9.0786  -8.9827  -8.9826  -8.9719  -8.9719
    -8.6321  -8.6320  -8.4231  -8.4230  -8.3057  -8.3054  -8.2004  -8.1990
    -8.1467  -8.1455  -8.1030  -8.1016  -8.0340  -8.0324  -7.9996  -7.9984
    -7.9672  -7.9662  -7.9215  -7.9200  -7.8937  -7.8906  -7.8372  -7.8356
    -7.8149  -7.8128  -7.8020  -7.8017  -7.7401  -7.7387  -7.6892  -7.6881
    -7.6739  -7.6717  -7.6379  -7.6364  -7.6237  -7.6224  -7.5802  -7.5784
    -7.5170  -7.5165  -7.4384  -7.4381  -7.3974  -7.3972  -7.3089  -7.3085
    -6.5984  -6.5984  -6.4729  -6.4729  -6.1873  -6.1873  -6.1340  -6.1340
    -6.1059  -6.1059  -6.0947  -6.0947  -6.0038  -6.0036  -5.9954  -5.9952
    -5.8549  -5.8549  -5.7614  -5.7614  -5.7030  -5.7029  -5.5442  -5.5442
    -5.5340  -5.5339  -5.4662  -5.4662  -5.1700  -5.1700  -5.1317  -5.1317
    -4.2897  -4.2894  -3.9965  -3.9950  -3.9090  -3.9081  -3.8219  -3.8211
    -3.7987  -3.7969  -3.6664  -3.6662  -3.6021  -3.6005  -3.5291  -3.5268
    -3.5212  -3.5203  -3.4783  -3.4763  -3.4447  -3.4439  -3.4113  -3.4107
    -3.3927  -3.3902  -3.3338  -3.3336  -3.1758  -3.1754  -3.0567  -3.0562
    -1.7566  -1.7563  -1.6340  -1.6338  -1.6037  -1.6036  -1.5176  -1.5172
    -1.4576  -1.4570  -1.4273  -1.4268  -1.3939  -1.3932  -1.3713  -1.3704
    -1.3413  -1.3411  -1.2242  -1.2236  -1.2136  -1.2132  -1.1180  -1.1174
    -1.1134  -1.1125  -1.1005  -1.0994  -1.0880  -1.0876  -1.0225  -1.0221
     0.3336   0.3586   0.3854   0.4067   0.4252   0.4381   0.4633   0.4692
     0.4926   0.5091   0.5369   0.5537   0.5913   0.6035   0.6368   0.6410
     0.6814   0.6868   0.7274   0.7362   0.7867   0.7983   0.8702   0.8880
     1.1343   1.1896   1.2221   1.2523   1.2750   1.2950   1.3120   1.3288
     1.4032   1.4490   1.4628   1.5135   1.5373   1.5494   1.5584   1.5907
     1.6076   1.6375   1.6671   1.6853   1.7144   1.7430   1.7703   1.8091
     1.8141   1.8376   1.8562   1.8852   1.9020   1.9130   1.9438   1.9559
     1.9772   1.9958   2.0251   2.0441   2.0565   2.0697   2.0876   2.0988
     2.1185   2.1343   2.1626   2.1676   2.1962   2.2240   2.2272   2.2428
     2.2603   2.2828   2.2944   2.3117   2.3236   2.3325   2.3545   2.3699
     2.3826   2.3879   2.3939   2.4105   2.4175   2.4372   2.4578   2.4828
     2.4887   2.5035   2.5247   2.5374   2.5531   2.5725   2.5898   2.6090
     2.6408   2.6485   2.6670   2.6992   2.7179   2.7368   2.7647   2.7825
     2.7883   2.8079   2.8203   2.8305   2.8472   2.8501   2.8797   2.8948
     2.9143   2.9233   2.9453   2.9494   2.9614   2.9839   3.0020   3.0215
     3.0531   3.0629   3.0807   3.0977   3.1098   3.1268   3.1335   3.1539
     3.1666   3.1894   3.2099   3.2170   3.2317   3.2408   3.2677   3.2731
     3.3252   3.3512   3.3735   3.3989   3.4336   3.4610   3.5248   3.5977
     5.3176   5.3990   5.6895   5.7076   5.8051   5.8465   5.8766   5.9101
     6.2566   6.2965   6.3520   6.3987   6.4301   6.4896   6.5691   6.6017
     6.6731   6.7245   6.8014   6.8908   6.9131   6.9344   6.9898   7.0301
     7.4419   7.4475   7.5813   7.5941   7.8059   7.8500   7.9158   7.9357
     7.9826   8.0089   8.0297   8.0594   8.1000   8.1630   8.1850   8.2130
     8.2505   8.2928   8.3230   8.3426   8.3574   8.4078   8.4196   8.4431
     8.4668   8.5025   8.5386   8.5931   8.5997   8.6457   8.6583   8.7112
     8.7435   8.7762   8.7947   8.8422

          k = 0.7500 0.7454 0.5000 ( 80230 PWs)   bands (ev):

   -41.9204 -41.9204 -41.8161 -41.8161 -41.6491 -41.6491 -41.6121 -41.6121
   -41.5356 -41.5356 -41.5009 -41.5009 -41.4619 -41.4619 -41.4553 -41.4553
   -41.4361 -41.4361 -41.4198 -41.4198 -41.4072 -41.4072 -41.3950 -41.3950
   -41.3924 -41.3924 -41.3920 -41.3920 -41.3550 -41.3550 -41.3315 -41.3315
   -41.3292 -41.3292 -41.3265 -41.3265 -41.3136 -41.3136 -41.3082 -41.3082
   -41.2872 -41.2872 -41.2777 -41.2777 -41.2711 -41.2711 -41.2596 -41.2596
   -41.2399 -41.2399 -41.2365 -41.2365 -41.2292 -41.2292 -41.2226 -41.2226
   -41.2138 -41.2138 -41.1766 -41.1766 -41.1664 -41.1664 -41.1658 -41.1658
   -41.1516 -41.1516 -41.1057 -41.1057 -41.1055 -41.1055 -41.1027 -41.1027
   -41.0981 -41.0981 -41.0673 -41.0673 -41.0551 -41.0551 -41.0447 -41.0447
   -40.9882 -40.9882 -40.9795 -40.9795 -40.9775 -40.9775 -40.9546 -40.9546
   -40.8936 -40.8936 -40.8588 -40.8588 -40.8509 -40.8509 -40.7393 -40.7393
   -40.2217 -40.2217 -40.1726 -40.1726 -40.0847 -40.0847 -39.9513 -39.9513
   -39.9141 -39.9141 -39.8968 -39.8968 -39.8606 -39.8606 -39.8021 -39.8021
   -39.7678 -39.7678 -39.7640 -39.7640 -39.7595 -39.7595 -39.7401 -39.7401
   -39.7205 -39.7205 -39.7112 -39.7112 -39.7081 -39.7081 -39.6974 -39.6974
   -39.6954 -39.6954 -39.6930 -39.6930 -39.6917 -39.6917 -39.6819 -39.6819
   -39.6759 -39.6759 -39.6605 -39.6605 -39.6435 -39.6435 -39.6412 -39.6412
   -39.6359 -39.6359 -39.6270 -39.6270 -39.6235 -39.6235 -39.6045 -39.6045
   -39.5991 -39.5991 -39.5824 -39.5824 -39.5782 -39.5782 -39.5728 -39.5728
   -39.5620 -39.5620 -39.5554 -39.5554 -39.5430 -39.5430 -39.5399 -39.5399
   -39.5358 -39.5358 -39.5318 -39.5318 -39.5245 -39.5245 -39.5174 -39.5174
   -39.5121 -39.5121 -39.5089 -39.5089 -39.4973 -39.4973 -39.4795 -39.4795
   -39.4731 -39.4731 -39.4692 -39.4692 -39.4682 -39.4682 -39.4592 -39.4592
   -39.4392 -39.4392 -39.4240 -39.4240 -39.4205 -39.4205 -39.4105 -39.4105
   -39.4000 -39.4000 -39.3711 -39.3711 -39.3706 -39.3706 -39.3695 -39.3695
   -39.3689 -39.3689 -39.3465 -39.3465 -39.3221 -39.3221 -39.3196 -39.3196
   -39.3091 -39.3091 -39.2774 -39.2774 -39.2560 -39.2560 -39.2556 -39.2556
   -39.2534 -39.2534 -39.2362 -39.2362 -39.2071 -39.2071 -39.1674 -39.1674
   -39.1520 -39.1520 -39.1302 -39.1302 -39.0999 -39.0999 -39.0059 -39.0059
   -16.9525 -16.9525 -16.7214 -16.7214 -16.3804 -16.3804 -16.3469 -16.3469
   -16.3221 -16.3221 -16.2815 -16.2815 -16.2410 -16.2410 -15.8895 -15.8895
   -14.2874 -14.2874 -14.2805 -14.2805 -14.2573 -14.2572 -14.2393 -14.2393
   -14.2331 -14.2331 -14.2212 -14.2212 -14.1849 -14.1849 -14.1643 -14.1643
   -14.1212 -14.1212 -14.1010 -14.1010 -14.0884 -14.0884 -14.0815 -14.0815
   -14.0436 -14.0436 -14.0335 -14.0335 -14.0200 -14.0200 -14.0060 -14.0060
   -11.7570 -11.7570 -11.7328 -11.7328 -11.7226 -11.7224 -11.7004 -11.7002
   -11.6985 -11.6985 -11.6979 -11.6979 -11.6838 -11.6837 -11.6627 -11.6627
   -11.6499 -11.6498 -11.6412 -11.6412 -11.6199 -11.6197 -11.5942 -11.5940
   -11.5890 -11.5889 -11.5690 -11.5688 -11.5549 -11.5547 -11.5511 -11.5511
   -11.5235 -11.5235 -11.5094 -11.5094 -11.4993 -11.4993 -11.4939 -11.4936
   -11.4821 -11.4819 -11.4665 -11.4663 -11.4541 -11.4540 -11.4275 -11.4275
    -9.3169  -9.3169  -9.2505  -9.2505  -9.2098  -9.2098  -9.1024  -9.1024
    -9.0870  -9.0870  -9.0785  -9.0785  -8.9826  -8.9825  -8.9718  -8.9718
    -8.6308  -8.6308  -8.4215  -8.4214  -8.3002  -8.2998  -8.1899  -8.1893
    -8.1676  -8.1672  -8.1091  -8.1076  -8.0507  -8.0488  -7.9989  -7.9985
    -7.9709  -7.9694  -7.9182  -7.9168  -7.8731  -7.8715  -7.8403  -7.8381
    -7.8163  -7.8136  -7.7992  -7.7983  -7.7417  -7.7409  -7.6850  -7.6834
    -7.6657  -7.6642  -7.6331  -7.6311  -7.6218  -7.6203  -7.5829  -7.5818
    -7.5179  -7.5168  -7.4411  -7.4409  -7.3989  -7.3987  -7.3119  -7.3117
    -6.5985  -6.5985  -6.4731  -6.4731  -6.1874  -6.1873  -6.1339  -6.1339
    -6.1057  -6.1057  -6.0950  -6.0949  -6.0018  -6.0018  -5.9970  -5.9970
    -5.8544  -5.8544  -5.7610  -5.7610  -5.7030  -5.7030  -5.5442  -5.5442
    -5.5339  -5.5339  -5.4662  -5.4662  -5.1701  -5.1701  -5.1319  -5.1319
    -4.1562  -4.1556  -4.1009  -4.1004  -3.8425  -3.8421  -3.7690  -3.7678
    -3.7504  -3.7482  -3.6935  -3.6917  -3.6620  -3.6613  -3.6392  -3.6371
    -3.5135  -3.5131  -3.4978  -3.4975  -3.4418  -3.4413  -3.4261  -3.4254
    -3.3548  -3.3539  -3.2953  -3.2950  -3.2355  -3.2344  -3.1497  -3.1493
    -1.7565  -1.7562  -1.6332  -1.6332  -1.6037  -1.6037  -1.5172  -1.5170
    -1.4571  -1.4570  -1.4279  -1.4277  -1.3939  -1.3930  -1.3715  -1.3707
    -1.3400  -1.3398  -1.2231  -1.2227  -1.2142  -1.2139  -1.1171  -1.1167
    -1.1085  -1.1077  -1.1006  -1.1000  -1.0881  -1.0876  -1.0254  -1.0254
     0.3463   0.3730   0.3939   0.4043   0.4520   0.4694   0.4768   0.4883
     0.5763   0.5777   0.5926   0.6057   0.6930   0.7068   0.7431   0.7479
     0.7886   0.8061   0.8863   0.9051   1.0735   1.0811   1.1277   1.1329
     1.1377   1.1595   1.1864   1.2053   1.2218   1.2522   1.2592   1.2807
     1.3025   1.3236   1.3763   1.3841   1.4338   1.4772   1.5173   1.5316
     1.5511   1.5766   1.5856   1.6209   1.6786   1.7082   1.7269   1.7724
     1.7848   1.8133   1.8199   1.8408   1.8715   1.8763   1.8975   1.9287
     1.9405   1.9613   1.9788   1.9956   2.0192   2.0358   2.0593   2.0694
     2.1045   2.1272   2.1396   2.1502   2.1784   2.1936   2.2116   2.2164
     2.2353   2.2612   2.2749   2.2928   2.3080   2.3209   2.3362   2.3511
     2.3555   2.3678   2.3822   2.3901   2.4003   2.4055   2.4346   2.4423
     2.4564   2.4782   2.4858   2.5154   2.5354   2.5519   2.5788   2.6011
     2.6378   2.6585   2.6783   2.6885   2.7197   2.7402   2.7610   2.7643
     2.7861   2.8014   2.8304   2.8415   2.8533   2.8720   2.8810   2.9073
     2.9119   2.9258   2.9380   2.9445   2.9599   2.9723   2.9871   3.0078
     3.0229   3.0392   3.0434   3.0826   3.0866   3.1091   3.1189   3.1421
     3.1527   3.1650   3.1762   3.1827   3.1938   3.2207   3.2490   3.2607
     3.2668   3.3019   3.3420   3.3710   3.3871   3.4022   3.4561   3.4986
     5.5923   5.6244   5.6599   5.7063   6.0163   6.0837   6.0957   6.1442
     6.2472   6.2727   6.3243   6.3904   6.7125   6.7396   6.7787   6.7893
     6.8993   6.9892   7.0321   7.0912   7.3090   7.3245   7.3607   7.4361
     7.5343   7.5585   7.5918   7.6317   7.6459   7.7003   7.7290   7.7635
     7.7879   7.8056   7.8330   7.8557   7.9840   7.9986   8.0548   8.1015
     8.1388   8.1597   8.2004   8.2232   8.2728   8.2987   8.3459   8.3863
     8.4081   8.4366   8.4643   8.5050   8.5380   8.5819   8.6224   8.6408
     8.6622   8.7085   8.7394   8.7717

          k = 0.7500 0.7454 0.7500 ( 80235 PWs)   bands (ev):

   -41.9204 -41.9204 -41.8161 -41.8161 -41.6491 -41.6491 -41.6121 -41.6121
   -41.5356 -41.5356 -41.5009 -41.5009 -41.4619 -41.4619 -41.4553 -41.4553
   -41.4361 -41.4361 -41.4198 -41.4198 -41.4072 -41.4072 -41.3950 -41.3950
   -41.3924 -41.3924 -41.3920 -41.3920 -41.3550 -41.3550 -41.3315 -41.3315
   -41.3292 -41.3292 -41.3265 -41.3265 -41.3136 -41.3136 -41.3082 -41.3082
   -41.2872 -41.2872 -41.2777 -41.2777 -41.2711 -41.2711 -41.2596 -41.2596
   -41.2399 -41.2399 -41.2365 -41.2365 -41.2292 -41.2292 -41.2226 -41.2226
   -41.2138 -41.2138 -41.1766 -41.1766 -41.1664 -41.1664 -41.1658 -41.1658
   -41.1516 -41.1516 -41.1057 -41.1057 -41.1055 -41.1055 -41.1027 -41.1027
   -41.0982 -41.0982 -41.0673 -41.0673 -41.0551 -41.0551 -41.0447 -41.0447
   -40.9882 -40.9882 -40.9795 -40.9795 -40.9775 -40.9775 -40.9546 -40.9546
   -40.8936 -40.8936 -40.8588 -40.8588 -40.8509 -40.8509 -40.7393 -40.7393
   -40.2217 -40.2217 -40.1726 -40.1726 -40.0847 -40.0847 -39.9513 -39.9513
   -39.9141 -39.9141 -39.8968 -39.8968 -39.8606 -39.8606 -39.8021 -39.8021
   -39.7678 -39.7678 -39.7640 -39.7640 -39.7595 -39.7595 -39.7401 -39.7401
   -39.7205 -39.7205 -39.7112 -39.7112 -39.7081 -39.7081 -39.6974 -39.6974
   -39.6954 -39.6954 -39.6930 -39.6930 -39.6917 -39.6917 -39.6819 -39.6819
   -39.6759 -39.6759 -39.6605 -39.6605 -39.6435 -39.6435 -39.6412 -39.6412
   -39.6359 -39.6359 -39.6270 -39.6270 -39.6235 -39.6235 -39.6045 -39.6045
   -39.5991 -39.5991 -39.5824 -39.5824 -39.5782 -39.5782 -39.5728 -39.5728
   -39.5620 -39.5620 -39.5554 -39.5554 -39.5430 -39.5430 -39.5399 -39.5399
   -39.5358 -39.5358 -39.5318 -39.5318 -39.5245 -39.5245 -39.5174 -39.5174
   -39.5121 -39.5121 -39.5089 -39.5089 -39.4973 -39.4973 -39.4795 -39.4795
   -39.4731 -39.4731 -39.4692 -39.4692 -39.4682 -39.4682 -39.4592 -39.4592
   -39.4392 -39.4392 -39.4240 -39.4240 -39.4205 -39.4205 -39.4105 -39.4105
   -39.4000 -39.4000 -39.3711 -39.3711 -39.3706 -39.3706 -39.3695 -39.3695
   -39.3689 -39.3689 -39.3465 -39.3465 -39.3221 -39.3221 -39.3196 -39.3196
   -39.3091 -39.3091 -39.2774 -39.2774 -39.2560 -39.2560 -39.2556 -39.2556
   -39.2534 -39.2534 -39.2362 -39.2362 -39.2071 -39.2071 -39.1675 -39.1675
   -39.1520 -39.1520 -39.1302 -39.1302 -39.0999 -39.0999 -39.0059 -39.0059
   -16.9525 -16.9525 -16.7214 -16.7214 -16.3804 -16.3804 -16.3469 -16.3469
   -16.3221 -16.3221 -16.2816 -16.2816 -16.2410 -16.2410 -15.8895 -15.8895
   -14.2874 -14.2874 -14.2805 -14.2805 -14.2573 -14.2572 -14.2393 -14.2393
   -14.2331 -14.2331 -14.2212 -14.2212 -14.1849 -14.1849 -14.1643 -14.1643
   -14.1212 -14.1212 -14.1010 -14.1010 -14.0884 -14.0884 -14.0815 -14.0815
   -14.0436 -14.0436 -14.0335 -14.0335 -14.0200 -14.0199 -14.0060 -14.0060
   -11.7571 -11.7570 -11.7331 -11.7331 -11.7226 -11.7224 -11.7003 -11.7001
   -11.6986 -11.6985 -11.6978 -11.6975 -11.6838 -11.6837 -11.6627 -11.6627
   -11.6499 -11.6498 -11.6412 -11.6412 -11.6200 -11.6199 -11.5942 -11.5940
   -11.5890 -11.5889 -11.5691 -11.5689 -11.5549 -11.5547 -11.5511 -11.5511
   -11.5235 -11.5235 -11.5093 -11.5093 -11.4993 -11.4993 -11.4938 -11.4935
   -11.4820 -11.4819 -11.4663 -11.4662 -11.4541 -11.4540 -11.4275 -11.4275
    -9.3171  -9.3171  -9.2505  -9.2505  -9.2094  -9.2094  -9.1023  -9.1023
    -9.0871  -9.0871  -9.0785  -9.0785  -8.9829  -8.9829  -8.9718  -8.9718
    -8.6316  -8.6314  -8.4213  -8.4212  -8.3099  -8.3093  -8.1957  -8.1949
    -8.1490  -8.1476  -8.0993  -8.0976  -8.0500  -8.0484  -7.9875  -7.9866
    -7.9675  -7.9650  -7.9195  -7.9185  -7.8946  -7.8916  -7.8420  -7.8410
    -7.8159  -7.8133  -7.8031  -7.8023  -7.7313  -7.7299  -7.6898  -7.6880
    -7.6700  -7.6680  -7.6377  -7.6354  -7.6261  -7.6239  -7.5876  -7.5869
    -7.5153  -7.5142  -7.4375  -7.4372  -7.3980  -7.3978  -7.3089  -7.3087
    -6.5984  -6.5984  -6.4730  -6.4730  -6.1873  -6.1873  -6.1341  -6.1340
    -6.1057  -6.1056  -6.0950  -6.0950  -6.0041  -6.0039  -5.9950  -5.9948
    -5.8549  -5.8549  -5.7614  -5.7614  -5.7030  -5.7029  -5.5443  -5.5443
    -5.5338  -5.5338  -5.4662  -5.4662  -5.1700  -5.1700  -5.1317  -5.1317
    -4.2940  -4.2935  -3.9771  -3.9764  -3.9078  -3.9072  -3.8459  -3.8450
    -3.8015  -3.7998  -3.6646  -3.6644  -3.5827  -3.5816  -3.5168  -3.5141
    -3.5051  -3.5047  -3.4773  -3.4761  -3.4498  -3.4477  -3.4366  -3.4360
    -3.4029  -3.4019  -3.3463  -3.3460  -3.1738  -3.1733  -3.0444  -3.0431
    -1.7565  -1.7561  -1.6340  -1.6339  -1.6036  -1.6034  -1.5173  -1.5172
    -1.4574  -1.4570  -1.4276  -1.4269  -1.3941  -1.3932  -1.3715  -1.3709
    -1.3411  -1.3410  -1.2240  -1.2234  -1.2137  -1.2134  -1.1193  -1.1184
    -1.1130  -1.1126  -1.1000  -1.0990  -1.0895  -1.0894  -1.0200  -1.0196
     0.3084   0.3234   0.3653   0.3730   0.4249   0.4403   0.4688   0.4845
     0.5116   0.5176   0.5702   0.5865   0.6110   0.6166   0.6386   0.6484
     0.6790   0.6848   0.7000   0.7095   0.8100   0.8172   0.8682   0.8915
     1.1367   1.1808   1.2327   1.2576   1.2724   1.2878   1.3086   1.3470
     1.4121   1.4344   1.4830   1.4985   1.5220   1.5384   1.5458   1.5902
     1.6024   1.6175   1.6573   1.6697   1.7136   1.7381   1.7825   1.8052
     1.8260   1.8467   1.8658   1.8824   1.9081   1.9314   1.9393   1.9676
     1.9832   2.0033   2.0167   2.0222   2.0465   2.0663   2.0840   2.0972
     2.1248   2.1527   2.1670   2.1789   2.1875   2.2156   2.2274   2.2390
     2.2585   2.2785   2.3001   2.3121   2.3263   2.3325   2.3496   2.3572
     2.3708   2.3871   2.3961   2.4061   2.4319   2.4459   2.4552   2.4760
     2.4840   2.5073   2.5155   2.5431   2.5654   2.5731   2.5964   2.6111
     2.6409   2.6546   2.6735   2.7040   2.7178   2.7304   2.7506   2.7718
     2.7943   2.8110   2.8213   2.8339   2.8452   2.8623   2.8741   2.8995
     2.9189   2.9292   2.9480   2.9634   2.9740   2.9940   2.9965   3.0055
     3.0287   3.0415   3.0560   3.0756   3.1025   3.1319   3.1423   3.1516
     3.1696   3.1761   3.1987   3.2197   3.2294   3.2604   3.2715   3.2923
     3.3364   3.3552   3.3661   3.4037   3.4350   3.4648   3.5578   3.5780
     5.3026   5.4029   5.6822   5.7464   5.7847   5.8387   5.8644   5.9153
     6.2593   6.2834   6.3483   6.3919   6.4300   6.4957   6.5579   6.6344
     6.6447   6.7509   6.8448   6.8629   6.9083   6.9584   6.9856   7.0431
     7.3864   7.4143   7.5802   7.5869   7.8384   7.8639   7.9180   7.9501
     8.0073   8.0451   8.0643   8.0946   8.1248   8.1506   8.1817   8.1952
     8.2642   8.2940   8.3112   8.3337   8.3762   8.4064   8.4241   8.4554
     8.4849   8.5103   8.5399   8.5601   8.5751   8.6036   8.6575   8.6899
     8.7140   8.7524   8.8039   8.8200

     Writing output data file pwscf.save/
 
     init_run     :      2.48s CPU      1.32s WALL (       1 calls)
     electrons    :  13073.67s CPU   3523.93s WALL (       1 calls)

     Called by init_run:
     wfcinit      :      0.11s CPU      0.04s WALL (       1 calls)
     potinit      :      0.92s CPU      0.41s WALL (       1 calls)
     hinit0       :      1.30s CPU      0.71s WALL (       1 calls)

     Called by electrons:
     c_bands      :  13073.65s CPU   3523.90s WALL (       1 calls)
     v_of_rho     :      0.30s CPU      0.08s WALL (       1 calls)

     Called by c_bands:
     init_us_2    :      0.83s CPU      0.24s WALL (       8 calls)
     cegterg      :  12385.86s CPU   3204.73s WALL (      19 calls)

     Called by sum_band:

     Called by *egterg:
     h_psi        :   3320.03s CPU    851.59s WALL (     349 calls)
     g_psi        :     20.21s CPU      5.20s WALL (     322 calls)
     cdiaghg      :   4577.71s CPU   1221.61s WALL (     330 calls)

     Called by h_psi:
     h_psi:pot    :   3302.96s CPU    844.96s WALL (     349 calls)
     h_psi:calbec :    452.72s CPU    113.38s WALL (     349 calls)
     vloc_psi     :   2385.47s CPU    614.80s WALL (     349 calls)
     add_vuspsi   :    464.39s CPU    116.78s WALL (     349 calls)

     General routines
     calbec       :    452.71s CPU    113.37s WALL (     349 calls)
     fft          :      0.34s CPU      0.11s WALL (      13 calls)
     fftw         :   1432.78s CPU    434.50s WALL (  273568 calls)
     davcio       :      3.62s CPU      5.08s WALL (      16 calls)
 
     Parallel routines
     fft_scatt_xy :    188.82s CPU     57.66s WALL (  273581 calls)
     fft_scatt_yz :    708.33s CPU    143.19s WALL (  273581 calls)
 
     PWSCF        :      3h40m CPU      1h 3m WALL

 
   This run was terminated on:  22:20:48   9Sep2020            

=------------------------------------------------------------------------------=
   JOB DONE.
=------------------------------------------------------------------------------=
